##TITLE=Library Entry 5614
##JCAMP-DX=Revision 4.10 
##DATA TYPE=MASS SPECTRUM
##SAMPLE DESCRIPTION=Organic Synthesis Lab, MSU, Moscow.TRC 930
##NAMES=HP
##CAS NAME=N-Acetyl-D-glucosamine
##MOLFORM=C8H15NO6
##CAS REGISTRY NO=7512-17-6
##MP= -300
##BP= -300
##MW= 221
##$RETENTION INDEX=0
##$CONDENSED SPECTRUM=NO
##NPOINTS= 113
##XYDATA=(XY..XY) 1 
    25          4
    26         37
    27        110
    28        361
    29        325
    30        839
    31        392
    32        104
    33          2
    37          3
    38          7
    39         27
    40         14
    41         31
    42        312
    43        999
    44        209
    45        115
    46          8
    47         68
    49          1
    50          0
    51          3
    52         13
    53          6
    54         50
    55        164
    56        355
    57         78
    58         52
    59         99
    60        390
    61        298
    62          8
    63          0
    65          0
    66          2
    67          2
    68         14
    69         19
    70         21
    71         95
    72        520
    73        387
    74        108
    75          4
    78          0
    79          1
    80          3
    81          4
    82         11
    83        125
    84         61
    85         28
    86         13
    87          3
    88         18
    89          5
    90          1
    91         39
    92          0
    94          1
    95          4
    96         49
    97         21
    98          6
    99          6
   100         91
   101         92
   102         32
   103         37
   104          0
   108          0
   109          2
   110          2
   111          2
   112         46
   113         14
   114         78
   115         14
   116          0
   118          2
   123          1
   124          8
   125         89
   126         19
   127          2
   130         11
   131          0
   132          5
   138          5
   139          1
   141          5
   142         44
   143         71
   144          6
   148          1
   154         46
   155         14
   156          7
   157          1
   160         16
   161          1
   166          1
   167          6
   168          0
   172          5
   174         10
   185         16
   186          2
   190          2
   204          3
   222          0