##TITLE=Library Entry 80822
##JCAMP-DX=Revision 4.10 
##DATA TYPE=MASS SPECTRUM
##SAMPLE DESCRIPTION=Institute of Organic Chemistry, Novosibirsk, USSR 1988
##NAMES=HP
##CAS NAME=5,6-Dihydro-2-phenyl-4H-1,3-oxazin-5-one
##MOLFORM=C10H9NO2
##CAS REGISTRY NO=75135-08-9
##MP= -300
##BP= -300
##MW= 175
##$RETENTION INDEX=0
##$CONDENSED SPECTRUM=NO
##NPOINTS= 51
##XYDATA=(XY..XY) 1 
    26          5
    27         87
    29          5
    31         19
    38          6
    39         19
    41         13
    42         97
    43         23
    50         36
    51        332
    53          5
    57         12
    58         17
    62          4
    63         38
    64         21
    65         21
    66          5
    69         12
    70          6
    71          6
    74          5
    75         10
    76         49
    77        699
    78         24
    81          5
    86          5
    89        124
    90        210
    91         19
    97          5
   103         26
   104         34
   105        999
   106         61
   116         64
   117        874
   118         74
   119          5
   120          5
   121          6
   122         32
   134          5
   145        187
   146         74
   147         74
   174         99
   175        246
   176         21