##TITLE=Library Entry 35007
##JCAMP-DX=Revision 4.10 
##DATA TYPE=MASS SPECTRUM
##SAMPLE DESCRIPTION=NIST Mass Spectrometry Data Center, 1990.
##NAMES=HP
##CAS NAME=2-sec-Butyl-3-methyl-1-pentene
##MOLFORM=C10H20
##CAS REGISTRY NO=75144-24-0
##MP= -300
##BP= -300
##MW= 140
##$RETENTION INDEX=0
##$CONDENSED SPECTRUM=NO
##NPOINTS= 49
##XYDATA=(XY..XY) 1 
    14         15
    15          7
    16          5
    27        153
    28        182
    29        227
    32         46
    39        239
    40         50
    41        474
    42         56
    43         77
    44         10
    50         19
    51         56
    52         29
    53        173
    54        103
    55        944
    56        112
    57        129
    58          6
    63         15
    65         61
    66         30
    67        316
    68          6
    69        999
    70        277
    71         91
    77         58
    78         14
    79         75
    80         13
    81         71
    82        149
    83        764
    84        248
    85         21
    91         19
    93          7
    95         18
    96          7
    97         25
    98          4
   111        155
   112        232
   113         18
   140         36