##TITLE=Library Entry 7867
##JCAMP-DX=Revision 4.10 
##DATA TYPE=MASS SPECTRUM
##SAMPLE DESCRIPTION=NIST Mass Spectrometry Data Center, 1990.
##NAMES=HP
##CAS NAME=Cyclobutanemethanol, .alpha.-methyl-
##MOLFORM=C6H12O
##CAS REGISTRY NO=7515-29-9
##MP= -300
##BP= -300
##MW= 100
##$RETENTION INDEX=0
##$CONDENSED SPECTRUM=NO
##NPOINTS= 43
##XYDATA=(XY..XY) 1 
    14          9
    15         66
    18         28
    19         40
    26         84
    27        465
    28        214
    29        502
    30         20
    31         85
    32          2
    38         47
    39        348
    40         79
    41        464
    42         89
    43        999
    44        146
    45        716
    50         68
    51         68
    52         38
    53        135
    54        106
    55        339
    56        270
    57        949
    58        319
    59         23
    65         36
    67        582
    68         36
    69         23
    70         23
    71        720
    72         68
    77         16
    79         33
    81         51
    82         88
    83         20
    84         16
    85        151