##TITLE=Library Entry 37800
##JCAMP-DX=Revision 4.10 
##DATA TYPE=MASS SPECTRUM
##SAMPLE DESCRIPTION=A.S.Moskovkin,I.M.Karnaukh, Russian Center on Disaster
 Medicine
##NAMES=HP
##CAS NAME=4-Piperidinone, 1,2,5-trimethyl-
##MOLFORM=C8H15NO
##CAS REGISTRY NO=7516-33-8
##MP= -300
##BP= -300
##MW= 141
##$RETENTION INDEX=0
##$CONDENSED SPECTRUM=NO
##NPOINTS= 32
##XYDATA=(XY..XY) 1 
    15         80
    26          8
    27         76
    28         40
    29         39
    30         35
    39         79
    40         17
    41        146
    42        795
    43        211
    44        170
    54         25
    55         50
    56        198
    57        317
    58         39
    68         15
    69         29
    70        999
    71        111
    82         14
    84        108
    85         14
    98        101
    99         13
   126        839
   127         81
   140         26
   141        275
   142         25
   143          1