##TITLE=Library Entry 90802
##JCAMP-DX=Revision 4.10 
##DATA TYPE=MASS SPECTRUM
##SAMPLE DESCRIPTION=Chemical Concepts
##NAMES=HP
##CAS NAME=N,N-Dihexyl-succinamic acid
##MOLFORM=C16H31NO3
##CAS REGISTRY NO=75178-24-4
##MP= -300
##BP= -300
##MW= 285
##$RETENTION INDEX=0
##$CONDENSED SPECTRUM=NO
##NPOINTS= 104
##XYDATA=(XY..XY) 1 
    26         10
    27         42
    28         90
    29        125
    30         87
    31          5
    39         17
    40          3
    41        105
    42         43
    43        221
    44        253
    45         34
    53          8
    54          7
    55        117
    56         64
    57         52
    58         18
    59          3
    60          3
    67          9
    68          7
    69         19
    70         31
    71         13
    72         16
    73         55
    74          7
    79          3
    81          7
    82          7
    83         14
    84         36
    85         26
    86         11
    87          4
    93          3
    95          5
    96          3
    97          7
    98         24
    99         11
   100         51
   101        200
   102          9
   103          3
   111          5
   112         22
   113         19
   114        999
   115         96
   116          4
   125          4
   126         13
   127         18
   128         56
   129          7
   130          4
   131         24
   140         15
   141          6
   142        117
   143         12
   144         21
   145         55
   146          5
   154          8
   156         25
   157          3
   158         14
   159         17
   168         10
   170         17
   172         15
   173          7
   182          7
   184         35
   185          9
   186         11
   196          5
   200          4
   201          5
   202          3
   210         11
   212        194
   213         32
   214         70
   215         22
   216          3
   224         11
   228         18
   229          3
   238          7
   240          8
   242         17
   243          3
   252          3
   256         14
   266          3
   268          7
   270          4
   285         31
   286          9