##TITLE=Library Entry 23185
##JCAMP-DX=Revision 4.10 
##DATA TYPE=MASS SPECTRUM
##SAMPLE DESCRIPTION=Chemical Concepts
##NAMES=HP
##CAS NAME=Butanol, 4-[(tert.butyloxycarbonyl)amino]-
##MOLFORM=C9H19NO3
##CAS REGISTRY NO=75178-87-9
##MP= -300
##BP= -300
##MW= 189
##$RETENTION INDEX=0
##$CONDENSED SPECTRUM=NO
##NPOINTS= 87
##XYDATA=(XY..XY) 1 
    26          2
    27         36
    28         21
    29        128
    30        325
    31         85
    33          0
    37          0
    38          1
    39         37
    40          7
    41        225
    42         33
    43         40
    44         11
    45         84
    46          2
    48          0
    50          0
    51          1
    52          0
    53          5
    54          5
    55         93
    56         56
    57        999
    58         54
    59        243
    60          9
    61          1
    62         15
    63          0
    64          0
    68          1
    69          2
    70         17
    71         82
    72         20
    73         42
    74         81
    75          9
    76          0
    81          0
    82          0
    84          3
    85          3
    86          4
    87         21
    88         49
    89         52
    90         29
    91          1
    92          3
    95          0
    96          0
    97          0
    98         60
    99          2
   100          3
   101          0
   102          3
   103         76
   104          4
   105          0
   112          0
   113          0
   114          1
   115         10
   116         85
   117          5
   118          0
   128          0
   130         16
   131          3
   132        144
   133        190
   134         22
   135          1
   136          0
   143          0
   159          7
   160          0
   174          0
   183          0
   187          0
   189          2
   190          0