##TITLE=Library Entry 23998
##JCAMP-DX=Revision 4.10 
##DATA TYPE=MASS SPECTRUM
##SAMPLE DESCRIPTION=D. GUPTA, DEP. CHEM., GOV. COLL., AJMER, INDIA
##NAMES=HP
##CAS NAME=Isobutyl pentyl disulfide
##MOLFORM=C9H20S2
##CAS REGISTRY NO=75203-63-3
##MP= -300
##BP= -300
##MW= 192
##$RETENTION INDEX=0
##$CONDENSED SPECTRUM=NO
##NPOINTS= 22
##XYDATA=(XY..XY) 1 
    27        180
    29        300
    32         70
    39        140
    40         30
    41        470
    42        180
    43        530
    45         60
    47         60
    55        170
    56         70
    57        999
    58         60
    69         40
    70         60
    71        250
    87         40
   103         50
   122         50
   136        130
   192        160