##TITLE=Library Entry 8776
##JCAMP-DX=Revision 4.10 
##DATA TYPE=MASS SPECTRUM
##SAMPLE DESCRIPTION=H.J. MOECKEL & J. WEISS, HAHN-MEITNER-INST. BERLIN, W.
 GER
##NAMES=HP
##CAS NAME=Disulfide, pentyl (1-methylethyl)
##MOLFORM=C8H18S2
##CAS REGISTRY NO=75203-62-2
##MP= -300
##BP= -300
##MW= 178
##$RETENTION INDEX=0
##$CONDENSED SPECTRUM=NO
##NPOINTS= 95
##XYDATA=(XY..XY) 1 
    15         10
    19          0
    24          0
    25          0
    26         10
    27        232
    29        168
    30          7
    33          2
    34          0
    35          4
    36          0
    37          1
    38          4
    39         94
    40          1
    41        329
    42         58
    43        999
    44         83
    45         45
    46         15
    47         33
    48          1
    49          4
    50          0
    51          2
    52          0
    53         10
    54          3
    55         57
    56          3
    58          9
    59         40
    60         17
    61         12
    62          1
    63          1
    64         12
    65          6
    66         20
    67         10
    68          6
    69         37
    70         54
    71        565
    72         31
    73         14
    74         10
    75          7
    76          2
    77          0
    78          3
    79         26
    80          1
    81          2
    85          0
    86          0
    87          5
    91          0
    92          0
    93          3
    94          0
    95          0
    99          0
   100          0
   101          7
   102          4
   103         95
   104          7
   105          4
   106          1
   107          6
   108         27
   109          2
   110          2
   121          1
   134          0
   135          4
   136        128
   137         10
   138         10
   139          0
   140          0
   143          1
   144          0
   145          0
   172          0
   176          0
   177          9
   178        154
   179         19
   180         14
   181          1
   182          0