##TITLE=Library Entry 13555
##JCAMP-DX=Revision 4.10 
##DATA TYPE=MASS SPECTRUM
##SAMPLE DESCRIPTION=ORMSBG, 13(9)504(1978); H. DEMIAN ET AL
##NAMES=HP
##CAS NAME=Ethanone, 1-(4-methyl-2-phenyl-5-thiazolyl)-
##MOLFORM=C12H11NOS
##CAS REGISTRY NO=7520-94-7
##MP= -300
##BP= -300
##MW= 217
##$RETENTION INDEX=0
##$CONDENSED SPECTRUM=NO
##NPOINTS= 22
##XYDATA=(XY..XY) 1 
    43        999
    44         50
    45        310
    51         70
    69         60
    70         50
    71        550
    72        220
    77        100
    87         60
   103         40
   104        180
   114        150
   121         10
   133         60
   174        190
   202        900
   203        110
   204         50
   217        810
   218        120
   219         50