##TITLE=Library Entry 38238
##JCAMP-DX=Revision 4.10 
##DATA TYPE=MASS SPECTRUM
##SAMPLE DESCRIPTION=H.J. MOECKEL & J. WEISS, HAHN-MEITNER-INST. BERLIN, W.
 G
##NAMES=HP
##CAS NAME=sec-Butyl isopentyl disulphide
##MOLFORM=C9H20S2
##CAS REGISTRY NO=75203-67-7
##MP= -300
##BP= -300
##MW= 192
##$RETENTION INDEX=0
##$CONDENSED SPECTRUM=NO
##NPOINTS= 93
##XYDATA=(XY..XY) 1 
    15         23
    19          1
    25          0
    26         17
    27        263
    29        673
    30        107
    33          3
    34          0
    35         13
    36          0
    37          2
    38          7
    39        173
    40         23
    41        617
    42        145
    43        892
    44        422
    45         71
    46         28
    47         47
    48          4
    49          3
    50          2
    51          6
    52          3
    53         33
    54          9
    55        149
    56         35
    57        588
    58         60
    59         86
    60         36
    61         61
    62          3
    63          4
    64         20
    65          7
    66         12
    67         11
    68          6
    69         59
    70        153
    71        999
    72         58
    73          8
    74          3
    75          2
    76          0
    77          0
    78          4
    79         39
    80          1
    81          3
    85          2
    86          1
    87         37
    88          8
    89          5
    90          0
    91          0
    92          2
    93          8
    94          0
    95          0
    99          0
   100          0
   101         19
   102         12
   103        123
   104          9
   105          5
   106          0
   107          1
   120          0
   121          3
   134          0
   135         13
   136        308
   137         27
   138         27
   139          1
   140          0
   149          0
   190          0
   191          8
   192        174
   193         25
   194         17
   195          1
   196          0