##TITLE=Library Entry 30049
##JCAMP-DX=Revision 4.10 
##DATA TYPE=MASS SPECTRUM
##SAMPLE DESCRIPTION=Y. Murata, LBC, NIDDK, NIH, Bethesda, MD 20892
##NAMES=HP
##CAS NAME=2-Tritriacontanone
##MOLFORM=C33H66O
##CAS REGISTRY NO=75207-55-5
##MP= -300
##BP= -300
##MW= 478
##$RETENTION INDEX=0
##$CONDENSED SPECTRUM=NO
##NPOINTS= 140
##XYDATA=(XY..XY) 1 
    52          6
    53          8
    54          8
    55        354
    56        108
    57        493
    58        757
    59        999
    60         33
    65          4
    67         64
    68         59
    69        204
    70         59
    71        577
    72         15
    73        111
    79         14
    80          6
    81         99
    82        168
    83        223
    84         63
    85        180
    86         28
    87         11
    89          5
    93         15
    94         15
    95        108
    96        262
    97        188
    98         35
    99         45
   100         55
   101          5
   103          6
   108          9
   109         79
   110         57
   111         84
   112          6
   113         34
   114         38
   115          5
   119          5
   123         44
   124         35
   125         23
   127         51
   131          6
   132          5
   134         11
   135         13
   137         14
   138         16
   139         10
   141         11
   145          5
   148          8
   149          6
   151         19
   152         13
   154         12
   155          6
   163         10
   164          5
   165          5
   166          6
   169          6
   177          4
   178          6
   179         13
   180          5
   183          5
   189         15
   192         16
   193         18
   194         23
   195          6
   199          5
   210         16
   212          4
   222         10
   236          5
   238          4
   249          4
   250          7
   251         22
   262          4
   264         10
   266          4
   268         12
   277          4
   278          6
   282         10
   284          9
   292         12
   293          6
   295          4
   306          7
   307          6
   311          6
   320         12
   323          5
   334          6
   344         11
   348         12
   357          5
   362          7
   366          5
   376         16
   377          7
   381          5
   390          5
   399          5
   400          5
   404         11
   415          5
   416         12
   418         64
   419         19
   420         21
   421          6
   431          8
   432          3
   433         11
   436         11
   449          7
   458         15
   460        149
   461         51
   462         20
   463        111
   464         40
   465          6
   476          7
   478        621
   479        181
   480         42