##TITLE=Library Entry 24011
##JCAMP-DX=Revision 4.10 
##DATA TYPE=MASS SPECTRUM
##SAMPLE DESCRIPTION=D. GUPTA, DEP. CHEM., GOV. COLL., AJMER, INDIA
##NAMES=HP
##CAS NAME=Isobutyl 3-methylbutyl disulfide
##MOLFORM=C9H20S2
##CAS REGISTRY NO=75203-66-6
##MP= -300
##BP= -300
##MW= 192
##$RETENTION INDEX=0
##$CONDENSED SPECTRUM=NO
##NPOINTS= 29
##XYDATA=(XY..XY) 1 
    27        190
    29        310
    39        190
    40         40
    41        550
    42        110
    43        730
    44         30
    45         60
    46         30
    47         70
    53         50
    55        280
    56        100
    57        999
    58         50
    59         30
    69         50
    70         90
    71        450
    79         40
    87         60
    88         40
   101         30
   103         40
   122         40
   136        220
   192        320
   193         40