##TITLE=Library Entry 57138
##JCAMP-DX=Revision 4.10 
##DATA TYPE=MASS SPECTRUM
##SAMPLE DESCRIPTION=Japan AIST/NIMC Database- Spectrum MS-NW-2375
##NAMES=HP
##CAS NAME=4'-(2-Acetoxyethoxy)acetophenone
##MOLFORM=C12H14O4
##CAS REGISTRY NO=75230-41-0
##MP= -300
##BP= -300
##MW= 222
##$RETENTION INDEX=0
##$CONDENSED SPECTRUM=NO
##NPOINTS= 63
##XYDATA=(XY..XY) 1 
    14          2
    15         19
    18          1
    26          2
    27          5
    28          2
    29          1
    38          4
    39          9
    42          6
    43        547
    44         12
    45          7
    50         10
    51          8
    52          2
    53          2
    60          1
    61          2
    62          3
    63         10
    64          9
    65         17
    66          1
    73          1
    74          5
    75          4
    76         13
    77         16
    78          3
    79          5
    86          2
    87        999
    88         43
    89          7
    90          1
    91         15
    92          9
    93         13
    94          1
   104          7
   105          4
   106          1
   107          7
   108          1
   119          9
   120          5
   121         75
   122          6
   133          1
   136          3
   137          1
   147         26
   148          2
   149          5
   150          2
   162          4
   163          5
   165          1
   179          2
   207          1
   222         29
   223          4