##TITLE=Library Entry 54890
##JCAMP-DX=Revision 4.10 
##DATA TYPE=MASS SPECTRUM
##SAMPLE DESCRIPTION=Exported from NIST MS Search
##NAMES=HP
##CAS NAME=Carbonic acid, dihexyl ester
##MOLFORM=C13H26O3
##CAS REGISTRY NO=7523-15-1
##MP= -300
##BP= -300
##MW= 230
##$RETENTION INDEX=0
##$CONDENSED SPECTRUM=NO
##NPOINTS= 84
##XYDATA=(XY..XY) 1 
    16          3
    17          2
    18          7
    19          2
    20          1
    22          2
    24          1
    25          1
    26         13
    27        243
    28        103
    29        317
    30         13
    31         42
    32          2
    33          1
    35          1
    36          1
    37          3
    38          6
    39        106
    40         31
    41        466
    42        276
    44         78
    45         14
    46          1
    47          1
    49          1
    50          3
    51          4
    52          3
    53         22
    54         34
    55        369
    56        491
    57        214
    58         12
    59          8
    60          1
    61          1
    62          1
    63         76
    64          1
    65          3
    66          2
    67         24
    68         11
    69        176
    70         17
    71         10
    72          2
    73         12
    74          1
    75          1
    76          5
    77          5
    78          1
    79          2
    80          1
    81          4
    82         14
    83         83
    84        332
    85        999
    86         65
    87          4
    88          1
    89         11
    90          4
    91          2
    92          1
    93          1
    95          1
    96          1
    97          1
    98          4
    99          2
   100          1
   101         10
   102          3
   103         24
   104          3
   105          2