##TITLE=Library Entry 98610
##JCAMP-DX=Revision 4.10 
##DATA TYPE=MASS SPECTRUM
##SAMPLE DESCRIPTION=G.A.M.S., PARIS, FRANCE.
##NAMES=HP
##CAS NAME=Naphthalene, 1,2,3,4-tetrahydro-2,6-dimethyl-
##MOLFORM=C12H16
##CAS REGISTRY NO=7524-63-2
##MP= -300
##BP= -300
##MW= 160
##$RETENTION INDEX=1304
##$CONDENSED SPECTRUM=NO
##NPOINTS= 100
##XYDATA=(XY..XY) 1 
    15          3
    26          3
    27         31
    28          4
    29         13
    38          3
    39         59
    40          7
    41         36
    42          5
    43         23
    44          1
    50         14
    51         53
    52         14
    53         24
    54          2
    55          9
    56          5
    57         30
    58         17
    61          1
    62          7
    63         35
    64         39
    65         46
    66          5
    67          9
    68          2
    69          7
    70         14
    71         44
    72          3
    73          1
    74          6
    75         10
    76         16
    77         74
    78         28
    79         31
    80          2
    81          1
    85         10
    86          2
    87          4
    88          2
    89         17
    90          5
    91        113
    92         15
    93          2
    97          1
    98          2
    99          3
   101          4
   102         18
   103         47
   104         18
   105        269
   106         32
   107          2
   112          1
   113          3
   114          3
   115        140
   116         54
   117        213
   118        999
   119        129
   120          8
   125          2
   126          5
   127         37
   128        121
   129         90
   130         46
   131         63
   132         73
   133          8
   139          9
   140          3
   141         47
   142         22
   143         47
   144         24
   145        444
   146         54
   147          3
   151          2
   152          5
   153          5
   154          2
   155          8
   156         19
   157          7
   158         13
   159         59
   160        712
   161         90
   162          6