##TITLE=Library Entry 97547
##JCAMP-DX=Revision 4.10 
##DATA TYPE=MASS SPECTRUM
##SAMPLE DESCRIPTION=NIST Mass Spectrometry Data Center, 1998.
##NAMES=HP
##CAS NAME=Benzene, 1-ethenyl-3-ethyl-
##MOLFORM=C10H12
##CAS REGISTRY NO=7525-62-4
##MP= -300
##BP= -300
##MW= 132
##$RETENTION INDEX=1066
##$CONDENSED SPECTRUM=NO
##NPOINTS= 68
##XYDATA=(XY..XY) 1 
    15          2
    26          3
    27         21
    29          2
    37          2
    38          7
    39         56
    40          4
    41          8
    49          2
    50         38
    51         86
    52         22
    53         19
    54          3
    55          1
    57         26
    58         12
    61          5
    62         18
    63         61
    64         26
    65         60
    66          8
    67          1
    73          2
    74         21
    75         21
    76         19
    77         92
    78         39
    79         19
    80          1
    85          2
    86          5
    87          7
    88          3
    89         36
    90          6
    91        179
    92         14
    93          1
    97          1
    98          4
    99          2
   100          1
   101          6
   102         44
   103         47
   104         46
   105         40
   106          3
   113          3
   114          4
   115        318
   116         90
   117        999
   118        101
   119          4
   126          4
   127         17
   128         36
   129         23
   130          7
   131         65
   132        463
   133         51
   134          3