##TITLE=Library Entry 54905
##JCAMP-DX=Revision 4.10 
##DATA TYPE=MASS SPECTRUM
##SAMPLE DESCRIPTION=ATLAS OF MASS SPECTRA OF ORGANIC COMPOUNDS, V. A. KOPTY
UG, ED.
##NAMES=HP
##CAS NAME=2-Propanone, methyl-2-propynylhydrazone
##MOLFORM=C7H12N2
##CAS REGISTRY NO=75268-08-5
##MP= -300
##BP= -300
##MW= 124
##$RETENTION INDEX=0
##$CONDENSED SPECTRUM=NO
##NPOINTS= 38
##XYDATA=(XY..XY) 1 
    26         31
    27        125
    28        150
    29         88
    37         30
    38         81
    39        488
    40        100
    41        400
    42        656
    43        188
    44        375
    45         25
    51         12
    52         34
    53         62
    54         49
    55         38
    56        988
    57         49
    65         16
    66         88
    67         36
    68        100
    69         24
    70         24
    79         88
    80         19
    81        888
    82         88
    85        999
    86         58
    94         12
    99          8
   109         94
   123        100
   124        838
   125         78