##TITLE=Library Entry 89945
##JCAMP-DX=Revision 4.10 
##DATA TYPE=MASS SPECTRUM
##SAMPLE DESCRIPTION=ATLAS OF MASS SPECTRA OF ORGANIC COMPOUNDS, V. A. KOPTY
UG, ED.
##NAMES=HP
##CAS NAME=Butanal, (2-ethoxyethyl)methylhydrazone
##MOLFORM=C9H20N2O
##CAS REGISTRY NO=75268-04-1
##MP= -300
##BP= -300
##MW= 172
##$RETENTION INDEX=0
##$CONDENSED SPECTRUM=NO
##NPOINTS= 28
##XYDATA=(XY..XY) 1 
    27         78
    28         50
    29         63
    30         33
    31         47
    39         16
    41         63
    42        100
    43        144
    44        467
    45         59
    55         13
    56         26
    57         17
    58         28
    59         17
    70         44
    71         19
    72         16
    83         19
    84          7
    85          9
    86         14
   100         13
   113        999
   114         85
   172        122
   173         18