##TITLE=Library Entry 109499
##JCAMP-DX=Revision 4.10 
##DATA TYPE=MASS SPECTRUM
##SAMPLE DESCRIPTION=ATLAS OF MASS SPECTRA OF ORGANIC COMPOUNDS, V. A. KOPTY
UG, ED.
##NAMES=HP
##CAS NAME=1-Piperidinamine, N-ethylidene-
##MOLFORM=C7H14N2
##CAS REGISTRY NO=75267-99-1
##MP= -300
##BP= -300
##MW= 126
##$RETENTION INDEX=0
##$CONDENSED SPECTRUM=NO
##NPOINTS= 28
##XYDATA=(XY..XY) 1 
    29        244
    30        137
    39        131
    40         42
    41        311
    42        619
    43         83
    44        166
    53         31
    54         57
    55        363
    56        184
    57        101
    67         23
    68         33
    69        358
    70        285
    71        109
    73         32
    82        119
    83        155
    84        250
    85        202
    97        273
   111        202
   125        999
   126        810
   127         62