##TITLE=Library Entry 21537
##JCAMP-DX=Revision 4.10 
##DATA TYPE=MASS SPECTRUM
##SAMPLE DESCRIPTION=ATLAS OF MASS SPECTRA OF ORGANIC COMPOUNDS, V. A. KOPTY
UG, ED.
##NAMES=HP
##CAS NAME=Hydrazine, tri-2-butenyl-
##MOLFORM=C12H22N2
##CAS REGISTRY NO=75267-98-0
##MP= -300
##BP= -300
##MW= 194
##$RETENTION INDEX=0
##$CONDENSED SPECTRUM=NO
##NPOINTS= 34
##XYDATA=(XY..XY) 1 
    27         90
    28         44
    29        201
    30         32
    31         12
    39         81
    40          9
    41        107
    42         35
    43         42
    44         36
    45         13
    53         40
    54         21
    55        999
    56         74
    57         19
    58          9
    67         15
    68         67
    69         30
    70         23
    81          9
    82          7
    83         34
    85        109
    86         12
   137          7
   139        363
   140         56
   141         11
   182          7
   184         40
   185          6