##TITLE=Library Entry 87913
##JCAMP-DX=Revision 4.10 
##DATA TYPE=MASS SPECTRUM
##SAMPLE DESCRIPTION=ATLAS OF MASS SPECTRA OF ORGANIC COMPOUNDS, V. A. KOPTY
UG, ED.
##NAMES=HP
##CAS NAME=3-Buten-2-one, 3-methyl-, dimethylhydrazone
##MOLFORM=C7H14N2
##CAS REGISTRY NO=75268-10-9
##MP= -300
##BP= -300
##MW= 126
##$RETENTION INDEX=0
##$CONDENSED SPECTRUM=NO
##NPOINTS= 46
##XYDATA=(XY..XY) 1 
    28        131
    29         25
    30        180
    38         16
    39        147
    40         49
    41        213
    42        656
    43        213
    44        361
    45        107
    50          7
    51         15
    52         11
    53         59
    54         18
    55         34
    56         56
    57         15
    58        125
    59         21
    65         10
    66          8
    67         46
    68         41
    69         16
    70        180
    71         21
    72         15
    80          4
    81          9
    82         28
    83         13
    84         23
    85          8
    94          6
    95         41
    96         44
    97          7
   109         18
   110         10
   111        999
   112         89
   125         30
   126        426
   127         54