##TITLE=Library Entry 90152
##JCAMP-DX=Revision 4.10 
##DATA TYPE=MASS SPECTRUM
##SAMPLE DESCRIPTION=ATLAS OF MASS SPECTRA OF ORGANIC COMPOUNDS, V. A. KOPTY
UG, ED.
##NAMES=HP
##CAS NAME=Acetaldehyde, ethyl(1-methylethyl)hydrazone
##MOLFORM=C7H16N2
##CAS REGISTRY NO=75268-00-7
##MP= -300
##BP= -300
##MW= 128
##$RETENTION INDEX=0
##$CONDENSED SPECTRUM=NO
##NPOINTS= 29
##XYDATA=(XY..XY) 1 
    27        158
    28        158
    29        285
    30        116
    39         49
    40         18
    41        133
    42        425
    43        170
    44        279
    45         11
    54         11
    55         19
    56        146
    57         69
    58         38
    68         17
    69         21
    70        194
    71        449
    72         48
    84        158
    85        121
    86         12
   113        999
   114         84
   127         10
   128        327
   129         41