##TITLE=Library Entry 69797
##JCAMP-DX=Revision 4.10 
##DATA TYPE=MASS SPECTRUM
##SAMPLE DESCRIPTION=ATLAS OF MASS SPECTRA OF ORGANIC COMPOUNDS, V. A. KOPTY
UG, ED.
##NAMES=HP
##CAS NAME=Acetaldehyde, 2-butenylhydrazone
##MOLFORM=C6H12N2
##CAS REGISTRY NO=75268-07-4
##MP= -300
##BP= -300
##MW= 112
##$RETENTION INDEX=0
##$CONDENSED SPECTRUM=NO
##NPOINTS= 38
##XYDATA=(XY..XY) 1 
    26          9
    27        353
    28        649
    29        383
    30        247
    31         26
    38         16
    39        179
    40         47
    41        223
    42        383
    43        170
    44        295
    50         13
    51         25
    52         21
    53         91
    54        112
    55        766
    56        412
    57        441
    58        244
    59         15
    68         44
    69         53
    70         85
    71         34
    80         15
    82         26
    83        412
    84         35
    85        241
    86         16
    97        999
    98         74
   111         26
   112        382
   113         59