##TITLE=Library Entry 76682
##JCAMP-DX=Revision 4.10 
##DATA TYPE=MASS SPECTRUM
##SAMPLE DESCRIPTION=ASES Database, Dalian Institute, P.R. China
##NAMES=HP
##CAS NAME=2-Methyl-2-phenyl-1,3-benzodioxole
##MOLFORM=C14H12O2
##CAS REGISTRY NO=7527-40-4
##MP= -300
##BP= -300
##MW= 212
##$RETENTION INDEX=0
##$CONDENSED SPECTRUM=NO
##NPOINTS= 29
##XYDATA=(XY..XY) 1 
    38         43
    39         84
    40         38
    41         27
    43        149
    50         73
    51        189
    52        128
    53         26
    62         28
    63        168
    64        100
    65         38
    76         55
    77        541
    78        139
    91         55
    92         43
   102         83
   103        999
   104        110
   105        222
   115         27
   135        140
   136         17
   197        755
   198        166
   212        342
   213         49