##TITLE=Library Entry 31283
##JCAMP-DX=Revision 4.10 
##DATA TYPE=MASS SPECTRUM
##SAMPLE DESCRIPTION=NIST Mass Spectrometry Data Center
##NAMES=HP
##CAS NAME=7-Methylthioheptanenitrile
##MOLFORM=C8H15NS
##CAS REGISTRY NO=75272-78-5
##MP= -300
##BP= -300
##MW= 157
##$RETENTION INDEX=1427
##$CONDENSED SPECTRUM=NO
##NPOINTS= 73
##XYDATA=(XY..XY) 1 
    26          3
    27         52
    28         24
    29         29
    30          7
    35         33
    37          4
    38          5
    39        100
    40         19
    41        326
    42         49
    44          5
    45         75
    46         45
    47         95
    48        114
    49         39
    50          8
    51         13
    52         13
    53         50
    54         88
    55        197
    56         41
    57         28
    58         15
    59         36
    60         15
    61        999
    62         82
    63         54
    64          4
    65         11
    67        100
    68        104
    69        329
    70         21
    71          8
    72          3
    73         13
    74         13
    75         77
    76          7
    79          7
    80         72
    81         74
    82        458
    83        737
    84         41
    85          7
    87          9
    88          2
    89          7
    91         12
    93         26
    94         19
    96        137
    97         11
    98          4
   100          3
   101          6
   103          5
   108         53
   109          5
   110        106
   111         17
   112          2
   114          4
   125          9
   142         18
   157        119
   158         12