##TITLE=Library Entry 2153
##JCAMP-DX=Revision 4.10 
##DATA TYPE=MASS SPECTRUM
##SAMPLE DESCRIPTION=NIST Mass Spectrometry Data Center
##NAMES=HP
##CAS NAME=Ethylene glycol diallyl ether
##MOLFORM=C8H14O2
##CAS REGISTRY NO=7529-27-3
##MP= -300
##BP= -300
##MW= 142
##$RETENTION INDEX=0
##$CONDENSED SPECTRUM=NO
##NPOINTS= 46
##XYDATA=(XY..XY) 1 
    14          6
    15         32
    16          2
    17          1
    18          2
    19          5
    26         34
    27        121
    28         85
    29        146
    30         12
    31         32
    32          3
    37          8
    38         26
    39        278
    41        999
    42         53
    43        106
    44         12
    45         85
    46          1
    53          4
    54         20
    55         47
    56         31
    57        233
    58         18
    59          2
    67         15
    68          4
    69          9
    71         36
    73        132
    74          4
    79          1
    81          3
    83          6
    84          4
    85         19
    86          9
    87          1
    97          1
    99          4
   101         47
   102          2