##TITLE=Library Entry 50505
##JCAMP-DX=Revision 4.10 
##DATA TYPE=MASS SPECTRUM
##SAMPLE DESCRIPTION=CBDCOM/ERDEC, Edgewood, MD
##NAMES=HP
##CAS NAME=Dimethylphosphinic fluoride
##MOLFORM=C2H6FOP
##CAS REGISTRY NO=753-70-8
##MP= -300
##BP= -300
##MW= 96
##$RETENTION INDEX=0
##$CONDENSED SPECTRUM=NO
##NPOINTS= 20
##XYDATA=(XY..XY) 1 
    15         49
    47        149
    50          9
    51          5
    52          3
    53          6
    64          3
    65         24
    66          3
    67         19
    68          1
    76          4
    77         19
    79         19
    80          5
    81        999
    82          1
    96        599
    97         44
    98          1