##TITLE=Library Entry 13
##JCAMP-DX=Revision 4.10 
##DATA TYPE=MASS SPECTRUM
##SAMPLE DESCRIPTION=A.Pleshkova, Nesmeyanov Inst.Org.Elem.Cpds, Moscow
##NAMES=HP
##CAS NAME=Methanamine, N,N-difluoro-
##MOLFORM=CH3F2N
##CAS REGISTRY NO=753-58-2
##MP= -300
##BP= -300
##MW= 67
##$RETENTION INDEX=0
##$CONDENSED SPECTRUM=NO
##NPOINTS= 11
##XYDATA=(XY..XY) 1 
    15        999
    16         11
    27        158
    28        795
    29         56
    33         43
    46         84
    47         36
    66         55
    67        354
    68          5