##TITLE=Library Entry 889
##JCAMP-DX=Revision 4.10 
##DATA TYPE=MASS SPECTRUM
##SAMPLE DESCRIPTION=NIST Mass Spectrometry Data Center, 1990.
##NAMES=HP
##CAS NAME=2,2,2-Trifluoroethylamine
##MOLFORM=C2H4F3N
##CAS REGISTRY NO=753-90-2
##MP= -300
##BP= -300
##MW= 99
##$RETENTION INDEX=0
##$CONDENSED SPECTRUM=NO
##NPOINTS= 48
##XYDATA=(XY..XY) 1 
    12          1
    13          2
    14          1
    15          2
    16          3
    17          3
    18          1
    19          3
    24          1
    26          4
    27         33
    28        336
    29         75
    30        999
    31         54
    32          1
    33         46
    38          3
    39          3
    40          0
    43          2
    44          5
    45          3
    46          5
    47          9
    48         82
    49          0
    50         36
    51         34
    59          6
    60         23
    63          7
    64         12
    66          2
    69         64
    70          1
    76          3
    77         20
    78         64
    79          9
    80          9
    82          1
    83          8
    96          4
    97          5
    98         21
    99         52
   100          1