##TITLE=Library Entry 62807
##JCAMP-DX=Revision 4.10 
##DATA TYPE=MASS SPECTRUM
##SAMPLE DESCRIPTION=Humboldt-Universitat zu Berlin, Department of Chemistry
, Analytical Group
##NAMES=HP
##CAS NAME=2,2-Dimethyl-1,3-dioxan-4,5,6-trion-5-phenylhydrazone
##MOLFORM=C12H12N2O4
##CAS REGISTRY NO=75307-67-4
##MP= -300
##BP= -300
##MW= 248
##$RETENTION INDEX=0
##$CONDENSED SPECTRUM=NO
##NPOINTS= 80
##XYDATA=(XY..XY) 1 
    12          2
    13          2
    14          7
    15         76
    16          4
    17          8
    18         26
    26         12
    27         62
    28         39
    29         28
    30          2
    31         25
    32          1
    37         12
    38         46
    39        221
    40         34
    41        112
    42         22
    43        228
    44         22
    45         11
    49          1
    50         30
    51        122
    52         39
    53          5
    54         49
    55          3
    56          1
    57          3
    58          7
    59         83
    60          3
    61          3
    62          9
    63         65
    64        150
    65        172
    66         19
    67          2
    68          1
    69          2
    74          4
    75          3
    76          6
    77        160
    78         15
    79          2
    85          3
    87          1
    88          2
    89          4
    90         22
    91        999
    92        133
    93         14
    94          1
    95          1
   105         10
   106          1
   113          1
   117         15
   118         49
   119          7
   120          1
   145          7
   146          1
   162        352
   163         35
   164          2
   173          2
   190        204
   191         43
   192          4
   233          1
   248         65
   249          9
   250          1