##TITLE=Library Entry 13691
##JCAMP-DX=Revision 4.10 
##DATA TYPE=MASS SPECTRUM
##SAMPLE DESCRIPTION=Chemical Concepts
##NAMES=HP
##CAS NAME=5-Isopropyl-2,2,7a-trimethylhexahydrobenzo[1,3]dioxol-4-ol
##MOLFORM=C13H24O3
##CAS REGISTRY NO=75316-52-8
##MP= -300
##BP= -300
##MW= 228
##$RETENTION INDEX=0
##$CONDENSED SPECTRUM=NO
##NPOINTS= 110
##XYDATA=(XY..XY) 1 
    26          3
    27         62
    28         12
    29         76
    30          2
    31         40
    38          2
    39         61
    40         12
    41        238
    42         27
    43        999
    44         28
    45         23
    47          2
    51          5
    52          3
    53         47
    54         10
    55        181
    56         38
    57        108
    58         54
    59        228
    60         13
    61         19
    65         13
    66          6
    67         78
    68         17
    69        324
    70         37
    71        357
    72         80
    73         22
    74         16
    75          2
    77         24
    78          4
    79         50
    80          9
    81        304
    82         44
    83        124
    84        320
    85         89
    86         13
    87         25
    88          2
    89          4
    90          3
    91         25
    92          4
    93        267
    94         29
    95        169
    96         17
    97        149
    98         13
    99         79
   100         16
   101         27
   102          2
   103          4
   105          7
   107        129
   108         15
   109        273
   110         43
   111         60
   112         98
   113         21
   114         17
   115          9
   119         11
   120          2
   121          5
   123         54
   124          7
   125         26
   126          5
   127         40
   128          5
   129          2
   135        464
   136         56
   137         29
   138          2
   139         12
   141          4
   142          2
   143        117
   144         10
   149          3
   151          4
   152          7
   153        651
   154         73
   155         32
   156          3
   167          2
   169          2
   170          6
   171         41
   172          4
   195          6
   197          2
   213        759
   214        101
   215         11