##TITLE=Library Entry 1684
##JCAMP-DX=Revision 4.10 
##DATA TYPE=MASS SPECTRUM
##SAMPLE DESCRIPTION=JACSAT, 100(17)5512(1978); B. M. TROST ET AL.
##NAMES=HP
##CAS NAME=Cyclobutanone, 2-methyl-2-oxiranyl-
##MOLFORM=C7H10O2
##CAS REGISTRY NO=75314-19-1
##MP= -300
##BP= -300
##MW= 126
##$RETENTION INDEX=0
##$CONDENSED SPECTRUM=NO
##NPOINTS= 18
##XYDATA=(XY..XY) 1 
    38        100
    39        999
    40        520
    41        999
    42        210
    43        430
    51        130
    53        570
    54        210
    55        820
    56        590
    67        490
    68        170
    69        710
    70        120
    83        370
    84        120
    98        290