##TITLE=Library Entry 37515
##JCAMP-DX=Revision 4.10 
##DATA TYPE=MASS SPECTRUM
##SAMPLE DESCRIPTION=Div. of Experiment Therapeutics WRAIR, WRAMC, Washingto
n DC 20307
##NAMES=HP
##CAS NAME=6-[[[3,4-Dichlorophenyl]methyl]thio]-N,N-dimethyl-1,2,4,5-tetrazi
n-3-amine
##MOLFORM=C11H11Cl2N5S
##CAS REGISTRY NO=75328-96-0
##MP= -300
##BP= -300
##MW= 315
##$RETENTION INDEX=0
##$CONDENSED SPECTRUM=NO
##NPOINTS= 118
##XYDATA=(XY..XY) 1 
    42        169
    43         29
    44         21
    45        106
    46          1
    47         18
    48          1
    49         40
    50         24
    51         29
    53         38
    54         10
    55         21
    56         12
    58         23
    59          7
    60          5
    61         14
    62         51
    63        123
    64          7
    65          2
    67          6
    69        829
    70        999
    71        286
    72         72
    73         56
    74         15
    75         35
    76          0
    77          8
    79          7
    80          4
    81          9
    83         10
    84         26
    85         13
    86         26
    87         22
    89        156
    90          8
    93          3
    94          1
    95          1
    96          6
    97         22
    99         34
   101          9
   102          2
   103          0
   105          1
   107          7
   109         13
   110          0
   111         12
   112          2
   113          2
   114          4
   115          0
   116          1
   117          0
   119          4
   120          2
   121          4
   123         91
   124         42
   125         33
   126         14
   128         11
   129         16
   130          2
   133         25
   135         17
   137          3
   141          0
   145          2
   146          3
   147          1
   148          1
   149          1
   150          0
   153          0
   154          2
   155          6
   156          2
   157          6
   159        632
   161        445
   163         88
   171          0
   173          2
   174          0
   175          2
   179          2
   181          0
   184          0
   186          0
   189          7
   190          1
   191          6
   192          3
   193          2
   194          2
   195          0
   216          0
   217         10
   219          8
   221          1
   252          1
   254          0
   314          0
   315         38
   316          6
   317         27
   318          3
   319          5
   320          0