##TITLE=Library Entry 96418
##JCAMP-DX=Revision 4.10 
##DATA TYPE=MASS SPECTRUM
##SAMPLE DESCRIPTION=Japan AIST/NIMC Database- Spectrum MS-IW-5163
##NAMES=HP
##CAS NAME=N,N'-Ethylenenebis(N-ethylglycine)
##MOLFORM=C10H20N2O4
##CAS REGISTRY NO=7532-84-5
##MP= -300
##BP= -300
##MW= 232
##$RETENTION INDEX=0
##$CONDENSED SPECTRUM=NO
##NPOINTS= 122
##XYDATA=(XY..XY) 1 
    14          4
    15         10
    16          1
    25          2
    26         16
    27         45
    28        106
    29         48
    30         34
    31          3
    36          2
    37          1
    38          3
    39          9
    40         11
    41         30
    42        182
    43         45
    44         58
    45          4
    49          1
    50          2
    51          3
    52          6
    53          5
    54         15
    55         17
    56         94
    57         39
    58         87
    59          8
    60         15
    63          2
    64          1
    65          2
    66          3
    67          9
    68          8
    69          6
    70         28
    71         72
    72        446
    73         33
    74          1
    77          1
    78          2
    79          3
    80          7
    81          5
    82          8
    83          9
    84         32
    85         15
    86         20
    87          2
    88        153
    89          8
    90          1
    91          2
    92          2
    93          4
    94          4
    95          4
    96          7
    97          6
    98          4
    99          4
   100          1
   101          1
   102          4
   103          1
   104          1
   105          1
   106          1
   107          1
   108          2
   109          3
   110          3
   111         11
   112          2
   113          7
   114          2
   115          3
   116        999
   117         62
   118          7
   119          1
   121          1
   122          1
   123          1
   124          1
   125          4
   126          2
   127          9
   128          4
   129          6
   130         37
   131          3
   137          1
   138          1
   139          1
   140          4
   141          3
   142          4
   143          1
   149          1
   150          1
   152          1
   153          1
   154          1
   155          2
   156          5
   157          3
   168          1
   171          2
   173          1
   186          1
   187          5
   188          2
   214          1
   232         14
   233          3