##TITLE=Library Entry 55665
##JCAMP-DX=Revision 4.10 
##DATA TYPE=MASS SPECTRUM
##SAMPLE DESCRIPTION=Chuck Anderson, Aldrich Chemical Co.
##NAMES=HP
##CAS NAME=1-Pentanol, 2-amino-4-methyl-, (S)-
##MOLFORM=C6H15NO
##CAS REGISTRY NO=7533-40-6
##MP= -300
##BP= -300
##MW= 117
##$RETENTION INDEX=0
##$CONDENSED SPECTRUM=NO
##NPOINTS= 42
##XYDATA=(XY..XY) 1 
    15         30
    17          3
    18         69
    26          6
    27        123
    28        129
    29         88
    30        806
    31         66
    32          3
    38          6
    39         72
    40         12
    41        201
    42        198
    43        306
    44        764
    45         22
    46          1
    50          1
    51          4
    52          0
    53         10
    54          7
    55         14
    56         35
    57         24
    58          7
    59          7
    60        366
    61          9
    67          9
    68          5
    69         20
    70         20
    72          5
    81          3
    82          1
    84          6
    86        999
    87         51
   118          1