##TITLE=Library Entry 89038
##JCAMP-DX=Revision 4.10 
##DATA TYPE=MASS SPECTRUM
##SAMPLE DESCRIPTION=Z.H. HUANG, CHIN. ACAD. SCI., SHANGHAI, CHINA
##NAMES=HP
##CAS NAME=9-O-Methylmaytansinol
##MOLFORM=C29H39ClN2O8
##CAS REGISTRY NO=75340-68-0
##MP= -300
##BP= -300
##MW= 578
##$RETENTION INDEX=0
##$CONDENSED SPECTRUM=NO
##NPOINTS= 41
##XYDATA=(XY..XY) 1 
   111        999
   123        250
   127        230
   128        210
   144        470
   174        220
   184        340
   186        440
   187        230
   188        230
   211        110
   212        190
   214        140
   218        140
   222        270
   224        240
   225        160
   226        230
   227        190
   228        160
   236        700
   238        230
   240        140
   248        130
   250        120
   262        210
   263        140
   264        190
   265        260
   266        130
   267        110
   278        100
   280        170
   281        100
   282        100
   451        140
   466        310
   468        100
   502        350
   503        110
   578         20