##TITLE=Library Entry 3351
##JCAMP-DX=Revision 4.10 
##DATA TYPE=MASS SPECTRUM
##SAMPLE DESCRIPTION=Chemical Concepts
##NAMES=HP
##CAS NAME=Pentacyclo[9.1.0.0(2,4).0(5,7).0(8,10)]dodecane, 3,3,6,6,9,9,12,1
2-octamethyl-, anti,anti,anti-
##MOLFORM=C20H32
##CAS REGISTRY NO=75349-96-1
##MP= -300
##BP= -300
##MW= 272
##$RETENTION INDEX=0
##$CONDENSED SPECTRUM=NO
##NPOINTS= 139
##XYDATA=(XY..XY) 1 
    27        141
    28         12
    29        218
    30          5
    39        149
    40         22
    41        999
    42         46
    43        671
    44          7
    51         33
    52         15
    53        191
    54         19
    55        572
    56         34
    57        195
    58         11
    63         10
    64          7
    65         88
    66         26
    67        261
    68         32
    69        675
    70         42
    71         14
    75          8
    76          4
    77        221
    78         52
    79        242
    80         58
    81        317
    82         39
    83        236
    84         21
    85          9
    86          7
    89          9
    90          6
    91        388
    92         67
    93        270
    94         79
    95        318
    96         36
    97        108
    98         12
    99          7
   100          8
   101          6
   102          7
   103         33
   104         19
   105        388
   106         92
   107        382
   108         63
   109        126
   110        201
   111         31
   114          6
   115         53
   116         29
   117         73
   118         22
   119        606
   120         99
   121        478
   122         66
   123        411
   124         47
   125          4
   127         16
   128         48
   129         61
   130         33
   131        116
   132         29
   133        294
   134         72
   135        209
   136        164
   137         46
   138          6
   141         27
   142         32
   143         61
   144         36
   145        177
   146         36
   147        573
   148         91
   149         98
   150         18
   152          5
   153          8
   154          7
   155         18
   156         23
   157         50
   158         35
   159        128
   160         42
   161        120
   162        478
   163         82
   164          8
   169          9
   170         11
   171         47
   172         23
   173        124
   174         29
   175        224
   176         40
   177         12
   185         17
   186         19
   187         66
   188         27
   189         30
   190         90
   191         15
   199         21
   200          6
   201         56
   202         12
   203        162
   204         28
   214         11
   215         16
   216          9
   229         65
   230         12
   257         41
   258          9
   272          6