##TITLE=Library Entry 100637
##JCAMP-DX=Revision 4.10 
##DATA TYPE=MASS SPECTRUM
##SAMPLE DESCRIPTION=NIST Mass Spectrometry Data Center, 2010
##NAMES=HP
##CAS NAME=Ethanolamine, N,O-bis(pentafluoropropionyl)-
##MOLFORM=C8H5F10NO3
##CAS REGISTRY NO=75355-68-9
##MP= -300
##BP= -300
##MW= 353
##$RETENTION INDEX=0
##$CONDENSED SPECTRUM=NO
##NPOINTS= 117
##XYDATA=(XY..XY) 1 
    14          1
    15         14
    26          7
    27         35
    28        140
    29         40
    30         10
    31         41
    32          1
    33          8
    35          2
    39          1
    40          9
    41         22
    42        149
    43         74
    44         38
    45         53
    46          5
    47         45
    48          1
    50         34
    51         10
    52          1
    54          2
    55          1
    56         21
    57          4
    58         16
    59          6
    60          2
    62          1
    63          1
    64          4
    65          1
    66          8
    69        305
    70        568
    71         33
    72          3
    73          1
    74          1
    76          2
    78         82
    79          7
    80          1
    81         10
    82          1
    86          2
    88          1
    90          7
    92         72
    93         23
    95          3
    96          7
    98         28
   100         73
   101          5
   102          1
   107          3
   108          3
   109         21
   110          4
   112          1
   113          1
   114          1
   115          1
   116          4
   117          2
   119        999
   120         21
   121          1
   122          2
   123          1
   128         90
   129         16
   130          1
   137          1
   138          2
   140         12
   142         49
   143         11
   144          1
   146         13
   147        179
   148         11
   149          6
   150          1
   156          1
   157          4
   159          3
   160         17
   161          1
   162          3
   163         12
   164          3
   165          2
   168          1
   170         11
   171          1
   172          1
   176        993
   177         48
   178          4
   188         20
   189        382
   190        302
   191        100
   192          7
   193          1
   204          1
   206          2
   234         68
   235          5
   236          1
   306          1
   334          1