##TITLE=Library Entry 42185
##JCAMP-DX=Revision 4.10 
##DATA TYPE=MASS SPECTRUM
##SAMPLE DESCRIPTION=NIST Mass Spectrometry Data Center
##NAMES=HP
##CAS NAME=L-Threonine, 2TMS derivative
##MOLFORM=C10H25NO3Si2
##CAS REGISTRY NO=7536-82-5
##MP= -300
##BP= -300
##MW= 263
##$RETENTION INDEX=1292
##$CONDENSED SPECTRUM=NO
##NPOINTS= 126
##XYDATA=(XY..XY) 1 
    15          1
    27          2
    28         13
    29         13
    30          7
    31          3
    39          2
    41          3
    42          5
    43         34
    44         25
    45        126
    46         11
    47         41
    48          2
    49          1
    52          1
    53          2
    54          5
    55         12
    56         87
    57        236
    58         26
    59         50
    60         13
    61         30
    62          2
    63          1
    66         18
    69          3
    70          6
    71          6
    72         28
    73        999
    74        122
    75        258
    76         23
    77         10
    80         55
    83          2
    84          6
    85          5
    86         12
    87         50
    88          9
    89          5
    90          1
    91          2
    94          1
    96          1
    97          1
    98          7
    99          4
   100         20
   101         33
   102         20
   103         14
   104          5
   105          4
   106          1
   112          4
   113          3
   114         39
   115         34
   116         28
   117        712
   118         82
   119         33
   120          2
   121          1
   126          1
   127          1
   128          9
   129         12
   130        439
   131        129
   132        123
   133         47
   134         10
   135          4
   136          1
   140          2
   141          1
   142          1
   143          1
   144          5
   145          2
   146        204
   147        285
   148         53
   149         24
   150          3
   151          1
   156          3
   157          2
   158         46
   159          8
   160          5
   161          1
   163          1
   173          1
   174          2
   176          5
   177          3
   178          1
   188          1
   189          1
   190          1
   202          4
   203          5
   204         21
   205          5
   206          3
   207          1
   217          1
   219        222
   220         51
   221         21
   222          3
   223          1
   230          3
   231          5
   232          2
   248         25
   249          5
   250          2