##TITLE=Library Entry 48910
##JCAMP-DX=Revision 4.10 
##DATA TYPE=MASS SPECTRUM
##SAMPLE DESCRIPTION=JACSAT, 100(6)1883(1978); J. MEINWALD AND T. H. JONES
##NAMES=HP
##CAS NAME=Cyclopenta[c]pyran-3(4H)-one, 4a,5-dihydro-4,7-dimethyl-
##MOLFORM=C10H12O2
##CAS REGISTRY NO=75364-51-1
##MP= -300
##BP= -300
##MW= 164
##$RETENTION INDEX=0
##$CONDENSED SPECTRUM=NO
##NPOINTS= 15
##XYDATA=(XY..XY) 1 
    51        130
    65        160
    77        470
    78        140
    79        999
    80        760
    91        470
    93        390
   105        120
   106        150
   107        550
   108        120
   121        350
   136        220
   164        660