##TITLE=Library Entry 57276
##JCAMP-DX=Revision 4.10 
##DATA TYPE=MASS SPECTRUM
##SAMPLE DESCRIPTION=Japan AIST/NIMC Database- Spectrum MS-IW-6138
##NAMES=HP
##CAS NAME=L-Asparagine, N(2)-[(1,1-dimethylethoxy)carbonyl]-
##MOLFORM=C9H16N2O5
##CAS REGISTRY NO=7536-55-2
##MP= -300
##BP= -300
##MW= 232
##$RETENTION INDEX=0
##$CONDENSED SPECTRUM=NO
##NPOINTS= 125
##XYDATA=(XY..XY) 1 
    12          2
    13          1
    14          6
    15         32
    16         19
    17          2
    18          7
    25          4
    26         38
    27        119
    28        188
    29        196
    30         22
    31        126
    32          7
    35          1
    36          5
    37          8
    38         20
    39        163
    40         61
    41        727
    42        149
    43        357
    44        592
    45         54
    46          9
    48          1
    49          5
    50         18
    51         23
    52         13
    53         35
    54         22
    55        146
    56        315
    57        974
    58         62
    59        759
    60         60
    61          5
    62         10
    64          1
    66          2
    67          6
    68         10
    69         31
    70        268
    71         52
    72         38
    73         19
    74         32
    75          1
    76          1
    77          2
    78          4
    79          1
    80          6
    81          3
    82          2
    83          2
    84          2
    85          5
    86        117
    87        999
    88        142
    89         14
    90          1
    91          1
    94          2
    95          1
    96         22
    97         43
    98         13
    99         27
   100          3
   101          1
   103          1
   104          5
   110          1
   111          1
   112         18
   113        117
   114        111
   115         58
   116         16
   117          3
   118          4
   119          1
   125          1
   126          1
   127          1
   128          1
   129          1
   130          4
   131        406
   132        470
   133         83
   134          7
   135          1
   137          1
   140          9
   141         53
   142         31
   143          9
   144          1
   149          1
   155          2
   156          2
   158         15
   159        268
   160         26
   161          3
   165          1
   173          2
   176        228
   177         69
   178          6
   179          1
   186          1
   187        140
   188         16
   189          2
   232          1
   233          5