##TITLE=Library Entry 33025
##JCAMP-DX=Revision 4.10 
##DATA TYPE=MASS SPECTRUM
##SAMPLE DESCRIPTION=HCACAV, 61(2)815(1978); H. SCHMID ET AL.
##NAMES=HP
##CAS NAME=2(E),4-Pentadienamide, N-[1-(dimethylamino)-2-methyl-2-propenylid
ene]-4-methyl-
##MOLFORM=C12H18N2O
##CAS REGISTRY NO=75378-94-8
##MP= -300
##BP= -300
##MW= 206
##$RETENTION INDEX=0
##$CONDENSED SPECTRUM=NO
##NPOINTS= 16
##XYDATA=(XY..XY) 1 
    41        720
    42        240
    44        310
    67        999
    68        370
    70        290
    82        200
    95        940
    96        200
    98        150
   111        180
   120        110
   139        470
   163        240
   191        230
   206        530