##TITLE=Library Entry 16455
##JCAMP-DX=Revision 4.10 
##DATA TYPE=MASS SPECTRUM
##SAMPLE DESCRIPTION=NIST Mass Spectrometry Data Center, 2013
##NAMES=HP
##CAS NAME=N-Desmethyl-cis-tramadol
##MOLFORM=C15H23NO2
##CAS REGISTRY NO=75377-45-6
##MP= -300
##BP= -300
##MW= 249
##$RETENTION INDEX=2025
##$CONDENSED SPECTRUM=NO
##NPOINTS= 191
##XYDATA=(XY..XY) 1 
    15          7
    18          9
    20          1
    26          2
    27         21
    28         25
    29         20
    30         32
    31         13
    32         18
    36          1
    37          1
    38          3
    39         33
    40          7
    41         70
    42         75
    43         39
    44        999
    45         34
    46          1
    50          6
    51         16
    52          6
    53         18
    54          7
    55        102
    56         19
    57         16
    58         14
    59          3
    60          5
    61          1
    62          2
    63         18
    64         21
    65         34
    66          9
    67         23
    68         13
    69         27
    70         74
    71          7
    72         10
    73          2
    74          2
    75          4
    76         12
    77        100
    78         31
    79         32
    80         41
    81         13
    82          5
    83          6
    84         12
    85          1
    86          5
    87          6
    88          1
    89         11
    90          6
    91         57
    92         52
    93         13
    94         16
    95          5
    96         12
    97          9
    98          4
    99          3
   100         75
   101          7
   102          9
   103         16
   104          8
   105         14
   106          4
   107         78
   108         64
   109         26
   110          6
   111          2
   112         10
   113          5
   114         16
   115         45
   116         13
   117         19
   118          7
   119         10
   120          7
   121         83
   122         25
   123          3
   124          6
   125          1
   126          2
   127         14
   128         30
   129         58
   130         13
   131         20
   132         10
   133         15
   134        137
   135        243
   136         29
   137          8
   138          4
   139          2
   140          3
   141         13
   142         10
   143          6
   144         19
   145         40
   146         13
   147         26
   148         13
   149          5
   150        164
   151         18
   152          4
   153          3
   154          2
   155          5
   156          5
   157         51
   158         21
   159        112
   160         95
   161         18
   162          9
   163         50
   164          9
   165          1
   166          1
   167          1
   168          1
   169          3
   170          3
   171          7
   172          7
   173         85
   174         15
   175         13
   176         15
   177          5
   178          3
   183          1
   184          3
   185          3
   186          4
   187         37
   188        608
   189         93
   190         10
   191          1
   192         10
   193          2
   198          1
   199          3
   200          7
   201          2
   202          7
   203          3
   204          1
   205          1
   206         12
   207          2
   214          1
   215          1
   216          3
   217          2
   218         26
   219          7
   220          2
   221          1
   228          2
   229          1
   230          3
   231         18
   232          3
   233          1
   234          1
   247          1
   248          4
   249        134
   250         24
   251          2