##TITLE=Library Entry 68712
##JCAMP-DX=Revision 4.10 
##DATA TYPE=MASS SPECTRUM
##SAMPLE DESCRIPTION=HCACAV, 61(2)815(1978); H. SCHMID ET AL.
##NAMES=HP
##CAS NAME=2,4-Hexadienamide, N-[1-(dimethylamino)-2-methyl-2-propenylidene]
-
##MOLFORM=C12H18N2O
##CAS REGISTRY NO=75378-92-6
##MP= -300
##BP= -300
##MW= 206
##$RETENTION INDEX=0
##$CONDENSED SPECTRUM=NO
##NPOINTS= 16
##XYDATA=(XY..XY) 1 
    41        850
    42        440
    44        480
    67        650
    68        400
    70        450
    82        150
    95        999
    96        130
    98        140
   111        120
   113        110
   139        920
   163         70
   191        150
   206        560