##TITLE=Library Entry 42220
##JCAMP-DX=Revision 4.10 
##DATA TYPE=MASS SPECTRUM
##SAMPLE DESCRIPTION=NIST Mass Spectrometry Data Center
##NAMES=HP
##CAS NAME=L-Threonine, 3TMS derivative
##MOLFORM=C13H33NO3Si3
##CAS REGISTRY NO=7537-02-2
##MP= -300
##BP= -300
##MW= 335
##$RETENTION INDEX=1367
##$CONDENSED SPECTRUM=NO
##NPOINTS= 153
##XYDATA=(XY..XY) 1 
    27          1
    28          3
    29          4
    30          1
    31          2
    39          1
    41          2
    42          2
    43         21
    44         18
    45        109
    46          8
    47         13
    48          1
    52          1
    53          1
    54          2
    55          6
    56         15
    57        120
    58         20
    59         63
    60          9
    61         11
    62          1
    66          3
    67          1
    68          1
    69          2
    70          5
    71          5
    72         26
    73        999
    74         93
    75        104
    76          7
    77          3
    82          1
    83          1
    84          8
    85          7
    86         23
    87         14
    88          3
    89          2
    96          1
    97          1
    98          6
    99          5
   100        107
   101        209
   102         37
   103         23
   104          2
   105          4
   106          1
   110          1
   112          4
   113          3
   114         38
   115         26
   116         11
   117        468
   118         53
   119         28
   120          3
   121          1
   126          2
   127          2
   128         76
   129         69
   130         48
   131         54
   132         54
   133         74
   134         13
   135          7
   136          1
   140          1
   142          3
   143          2
   144          8
   145          4
   146         11
   147        227
   148         40
   149         27
   150          3
   151          1
   156          3
   157          2
   158         11
   159         14
   160         17
   161          4
   162          2
   163          4
   164          1
   170          1
   172          8
   173          2
   174         11
   175          3
   176          5
   177          6
   178          1
   179          1
   186         10
   187          3
   188          6
   189          3
   190          4
   191         11
   192          2
   193          1
   200          1
   201          1
   202         38
   203         50
   204         18
   205          6
   206          2
   207          1
   214          1
   216          4
   218        458
   219        415
   220        102
   221         43
   222          6
   223          2
   230          9
   231          4
   232          4
   233          1
   246          1
   248          4
   249          1
   250          1
   276          3
   277          1
   278          1
   291        157
   292        106
   293         40
   294         12
   295          2
   296          1
   304          1
   320         24
   321          8
   322          3
   323          1