##TITLE=Library Entry 358
##JCAMP-DX=Revision 4.10 
##DATA TYPE=MASS SPECTRUM
##SAMPLE DESCRIPTION=Exported from NIST MS Search
##NAMES=HP
##CAS NAME=Ethanesulfonyl fluoride
##MOLFORM=C2H5FO2S
##CAS REGISTRY NO=754-03-0
##MP= -300
##BP= -300
##MW= 112
##$RETENTION INDEX=0
##$CONDENSED SPECTRUM=NO
##NPOINTS= 59
##XYDATA=(XY..XY) 1 
    13          1
    14          4
    15          9
    17          1
    18          4
    25          3
    26         50
    27        295
    28        111
    29        999
    30         27
    31          2
    32          5
    33          2
    34          1
    35          1
    39          1
    41          1
    42          1
    43         19
    44          2
    45          6
    46          1
    47          5
    48         20
    49          3
    50          2
    51          3
    52          1
    53          1
    55          1
    56          1
    57          3
    58          2
    59          2
    63          2
    64          7
    65         11
    66          2
    67         53
    68          3
    69          4
    75          1
    77          1
    78          1
    79          1
    80          2
    81          1
    82          1
    83          6
    84          1
    85          4
    93          2
    95          1
    97          2
   110          1
   111          1
   112          1
   113          6