##TITLE=Library Entry 55053
##JCAMP-DX=Revision 4.10 
##DATA TYPE=MASS SPECTRUM
##SAMPLE DESCRIPTION=Japan AIST/NIMC Database- Spectrum MS-IW-6976
##NAMES=HP
##CAS NAME=Silane, ethenyltrimethyl-
##MOLFORM=C5H12Si
##CAS REGISTRY NO=754-05-2
##MP= -300
##BP= -300
##MW= 100
##$RETENTION INDEX=544
##$CONDENSED SPECTRUM=NO
##NPOINTS= 44
##XYDATA=(XY..XY) 1 
    15          1
    26          1
    27          4
    28          4
    29         25
    30          2
    31         24
    39          3
    41          3
    42         16
    43        107
    44         19
    45         73
    46          4
    47          2
    53         23
    54          5
    55         31
    56          4
    57         12
    58         36
    59        645
    60         48
    61         21
    65          3
    66          7
    67          9
    68          2
    69          7
    70          5
    71          6
    72         69
    73        134
    74         12
    75          4
    83          5
    84          4
    85        999
    86         96
    87         38
    88          1
   100         88
   101          9
   102          3