##TITLE=Library Entry 23317
##JCAMP-DX=Revision 4.10 
##DATA TYPE=MASS SPECTRUM
##SAMPLE DESCRIPTION=Japan AIST/NIMC Database- Spectrum MS-NW-1272
##NAMES=HP
##CAS NAME=Propanamide, 2,2-dimethyl-
##MOLFORM=C5H11NO
##CAS REGISTRY NO=754-10-9
##MP= -300
##BP= -300
##MW= 101
##$RETENTION INDEX=0
##$CONDENSED SPECTRUM=NO
##NPOINTS= 47
##XYDATA=(XY..XY) 1 
    14          2
    15         16
    16          8
    17          4
    18          8
    26          8
    27         71
    28         17
    29        387
    30         12
    32          1
    36          1
    37          6
    38         11
    39        117
    40         18
    41        544
    42         55
    43         18
    44        161
    45         10
    46        219
    47          4
    49          1
    50          5
    51          5
    52          3
    53          7
    54          4
    55         32
    56         66
    57        999
    58         89
    59         32
    60          1
    67          3
    68          9
    69         31
    70          6
    83          3
    84          1
    85          2
    86         88
    87          4
   100          4
   101        155
   102         10