##TITLE=Library Entry 36275
##JCAMP-DX=Revision 4.10 
##DATA TYPE=MASS SPECTRUM
##SAMPLE DESCRIPTION=Dennis Rohrbaugh, CBDCOM/ERDEC, Edgewood, MD
##NAMES=HP
##CAS NAME=Tris(trifluoromethyl) bromomethane
##MOLFORM=C4BrF9
##CAS REGISTRY NO=754-43-8
##MP= -300
##BP= -300
##MW= 298
##$RETENTION INDEX=0
##$CONDENSED SPECTRUM=NO
##NPOINTS= 26
##XYDATA=(XY..XY) 1 
    50         36
    62          9
    69        999
    70         22
    74         11
    79         37
    81         51
    91          7
    93         81
   100         87
   112         60
   129         24
   131        239
   132          6
   141          5
   143          5
   150         32
   181         27
   191         20
   193         17
   210         12
   212         11
   279          2
   281          2
   298          4
   300          3