##TITLE=Library Entry 17054
##JCAMP-DX=Revision 4.10 
##DATA TYPE=MASS SPECTRUM
##SAMPLE DESCRIPTION=NIST Mass Spectrometry Data Center, 2009
##NAMES=HP
##CAS NAME=2-(2-(2-Butoxyethoxy)ethoxy)acetic acid
##MOLFORM=C10H20O5
##CAS REGISTRY NO=75427-76-8
##MP= -300
##BP= -300
##MW= 220
##$RETENTION INDEX=0
##$CONDENSED SPECTRUM=NO
##NPOINTS= 95
##XYDATA=(XY..XY) 1 
    14          1
    15          9
    16          1
    19          7
    26          8
    27         72
    28         98
    29        254
    30         22
    31        123
    32          4
    33          2
    38          1
    39         39
    40          7
    41        326
    42         47
    43        138
    44         84
    45        999
    46         24
    47         10
    49          6
    50          1
    51         23
    52          1
    53          8
    54          4
    55         68
    56        230
    57        985
    58        149
    59        202
    60         59
    61         58
    62          3
    63         10
    64          1
    66          1
    67          2
    68          1
    69         24
    70          9
    71         48
    72        104
    73         72
    74          8
    75        231
    76         26
    77         24
    78          1
    81          1
    82          5
    83          9
    84          3
    85        144
    86         12
    87         87
    88         22
    89         76
    90         31
    91          1
    98          4
    99          9
   100        123
   101        141
   102        169
   103        562
   104         28
   105          5
   113          1
   115          6
   116          5
   117          9
   118          1
   119         37
   120          9
   121          5
   122          1
   129          6
   130          2
   131         75
   132          6
   133         11
   134          1
   144          9
   145          3
   146          5
   147         10
   148          8
   149          1
   150          2
   169          1
   177          1
   202          1