##TITLE=Library Entry 4539
##JCAMP-DX=Revision 4.10 
##DATA TYPE=MASS SPECTRUM
##SAMPLE DESCRIPTION=H. Fales, LC, NHLBI, NIH, Bethesda, MD 20892
##NAMES=HP
##CAS NAME=Paromomycin
##MOLFORM=C23H45N5O14
##CAS REGISTRY NO=7542-37-2
##MP= -300
##BP= -300
##MW= 615
##$RETENTION INDEX=0
##$CONDENSED SPECTRUM=NO
##NPOINTS= 232
##XYDATA=(XY..XY) 1 
    42        999
    43        979
    44        916
    45        315
    46         70
    47         27
    48          7
    49         19
    50         99
    51        183
    52        277
    53        316
    54        259
    55        326
    56        243
    57        344
    58        143
    59        179
    60        154
    61         67
    62         40
    63         88
    64         84
    65        120
    66        137
    67        259
    68        236
    69        144
    70        130
    71        167
    72        203
    73        179
    74         87
    75         37
    76         43
    77         85
    78        102
    79        174
    80        508
    81        212
    82        143
    83        107
    84        103
    85         76
    86         65
    87         36
    88         20
    89         27
    90         26
    91         68
    92         84
    93        233
    94        368
    95        213
    96        138
    97        101
    98         71
    99         29
   100         51
   101         74
   102         52
   103         33
   104         47
   105         39
   106         68
   107         79
   108        163
   109        404
   110        180
   111         58
   112         75
   113         42
   114         56
   115         26
   116         17
   117         35
   118         52
   119         55
   120         50
   121         47
   122         67
   123         83
   124        126
   125         74
   126         56
   127         29
   128         14
   129         15
   130         31
   131         36
   132         41
   133         48
   134         40
   135         36
   136         24
   137         24
   138         26
   139         15
   140         14
   141         33
   142         14
   143         12
   144         20
   145         39
   146         34
   147         28
   148         31
   149         24
   150         14
   151         11
   152          9
   153          7
   154          9
   155         11
   156          9
   157         12
   158         18
   159         20
   160         24
   161         26
   162         31
   163         23
   164          9
   165          8
   166          6
   167          5
   168          7
   169          9
   170         10
   171         13
   172         13
   173         15
   174         15
   175         14
   176         11
   177          9
   178          7
   179          5
   180          6
   181          5
   182          6
   183          7
   184          9
   185         10
   186         12
   187         10
   188         10
   189          8
   190          7
   191         16
   192          5
   193          3
   194          4
   195          4
   196          7
   197          9
   198          8
   199          9
   200          8
   201          8
   202          7
   203          7
   204          5
   205          5
   206          4
   207          3
   208          4
   209          3
   210          6
   211          6
   212          6
   213          6
   214          7
   215          5
   216          5
   217          4
   218          3
   219          3
   220          3
   221          3
   222          3
   223          4
   224          4
   225          4
   226          4
   227          5
   228          3
   229          3
   230          4
   231          3
   232          1
   233          2
   234          2
   235          3
   236          3
   237          3
   238          3
   239          3
   240          3
   241          3
   242          3
   243          3
   244          1
   245          2
   246          1
   247          1
   248          1
   249          2
   250          2
   251          1
   252          1
   253          3
   254          2
   255          2
   257          4
   259          1
   262          2
   263          1
   264          2
   265          1
   266          1
   267          1
   269          3
   270          1
   277          1
   278          1
   287          1
   292          1
   303          1
   305          1
   323          1
   324          1