##TITLE=Library Entry 62637
##JCAMP-DX=Revision 4.10 
##DATA TYPE=MASS SPECTRUM
##SAMPLE DESCRIPTION=HCACAV, 62(3)811(1979); U. KRAMER ET AL.
##NAMES=HP
##CAS NAME=Benzenesulfonamide, N-(3-bromopropyl)-N-[3-(1,3-dihydro-1,3-dioxo
-2H-isoindol-2-yl)propyl]-4-methyl-
##MOLFORM=C21H23BrN2O4S
##CAS REGISTRY NO=75444-62-1
##MP= -300
##BP= -300
##MW= 478
##$RETENTION INDEX=0
##$CONDENSED SPECTRUM=NO
##NPOINTS= 20
##XYDATA=(XY..XY) 1 
    70        100
    91        999
    96        390
   130        100
   155        670
   160        360
   176        200
   178        200
   184        140
   188        200
   198        100
   201         50
   219         50
   224         60
   243        420
   304         30
   306         30
   323        190
   325        190
   371         20