##TITLE=Library Entry 34737
##JCAMP-DX=Revision 4.10 
##DATA TYPE=MASS SPECTRUM
##SAMPLE DESCRIPTION=HCACAV, 61(2)822(1978); W. ESCHENMOSER AND C. H. EUGSTE
R
##NAMES=HP
##CAS NAME=.beta.,.beta.-Carotene, 5,6-dihydro-5,6-dihydroxy-
##MOLFORM=C40H58O2
##CAS REGISTRY NO=75442-63-6
##MP= -300
##BP= -300
##MW= 570
##$RETENTION INDEX=0
##$CONDENSED SPECTRUM=NO
##NPOINTS= 14
##XYDATA=(XY..XY) 1 
    43        980
    55        520
    69        999
    91        410
   105        440
   109        460
   119        400
   127        150
   133        240
   145        250
   335         30
   478         30
   552         20
   570        430