##TITLE=Library Entry 34364
##JCAMP-DX=Revision 4.10 
##DATA TYPE=MASS SPECTRUM
##SAMPLE DESCRIPTION=NIST Mass Spectrometry Data Center
##NAMES=HP
##CAS NAME=3,7,11-Trimethyl-dodeca-2,6,10-trienoic acid
##MOLFORM=C15H24O2
##CAS REGISTRY NO=7548-13-2
##MP= -300
##BP= -300
##MW= 236
##$RETENTION INDEX=1822
##$CONDENSED SPECTRUM=NO
##NPOINTS= 66
##XYDATA=(XY..XY) 1 
    27         22
    29         25
    39         65
    40         14
    41        331
    42         20
    43         72
    45          9
    51         11
    52          6
    53         85
    54         14
    55         66
    56          7
    57         14
    65         19
    66          9
    67         90
    68         42
    69        999
    70         58
    71         12
    77         28
    78          7
    79         47
    80         17
    81        156
    82         46
    83         11
    85         11
    91         28
    92          4
    93         39
    95         43
    96          7
    97         10
   100        129
   101          7
   103          3
   107         31
   108         10
   109         30
   110          4
   111         16
   113          6
   121         80
   122         17
   123         65
   124         24
   125         32
   135         10
   136         84
   137         46
   138          7
   139          7
   147         13
   149          7
   152          5
   176          5
   180          6
   191          3
   193         36
   194          5
   221          5
   236         11
   237          2