##TITLE=Library Entry 55014
##JCAMP-DX=Revision 4.10 
##DATA TYPE=MASS SPECTRUM
##SAMPLE DESCRIPTION=Philip Morris R&D
##NAMES=HP
##CAS NAME=Pentanoic acid, 1,7,7-trimethylbicyclo[2.2.1]hept-2-yl ester, end
o-
##MOLFORM=C15H26O2
##CAS REGISTRY NO=7549-41-9
##MP= -300
##BP= -300
##MW= 238
##$RETENTION INDEX=0
##$CONDENSED SPECTRUM=NO
##NPOINTS= 80
##XYDATA=(XY..XY) 1 
    39         55
    40         44
    41        293
    42         30
    43        186
    44         44
    45         36
    46          8
    50          3
    51         15
    52         14
    53         47
    54          1
    55        106
    56         15
    57        893
    58         55
    59         20
    60          6
    63          3
    65         30
    66          4
    67        114
    68         27
    69        175
    70         12
    71         36
    72         23
    73          2
    77         46
    78         11
    79         71
    80        137
    81        246
    82         68
    83         74
    84         19
    85        999
    86         54
    87         17
    89         10
    91         56
    92        163
    93        443
    94         88
    95        755
    96         60
    97         31
    98          1
   103         10
   105         20
   106          2
   107        119
   108        353
   109        385
   110        311
   111         69
   112          7
   113          5
   119          3
   120          1
   121        409
   122         49
   123         11
   125          9
   128          4
   129          1
   135         36
   136        828
   137        264
   138         28
   139         17
   140          3
   152         10
   153         36
   154        162
   155         10
   223         20
   238         27
   239          6