##TITLE=Library Entry 17397
##JCAMP-DX=Revision 4.10 
##DATA TYPE=MASS SPECTRUM
##SAMPLE DESCRIPTION=Chemical Concepts
##NAMES=HP
##CAS NAME=12-Crown-4, phenyl-
##MOLFORM=C14H20O4
##CAS REGISTRY NO=75507-19-6
##MP= -300
##BP= -300
##MW= 252
##$RETENTION INDEX=0
##$CONDENSED SPECTRUM=NO
##NPOINTS= 151
##XYDATA=(XY..XY) 1 
    26         18
    27        119
    28        306
    29        146
    30         39
    31        178
    33          1
    38          5
    39         51
    40          8
    41         70
    42        125
    43        527
    44        450
    45        999
    46         22
    47          1
    50         24
    51         84
    52         26
    53         11
    54          2
    55          8
    56         26
    57         68
    58        198
    59        148
    60          9
    61          9
    62          6
    63         23
    64          8
    65         59
    66          5
    67          4
    68          0
    69         10
    70         19
    71         80
    72        140
    73        434
    74         68
    75         22
    76         15
    77        237
    78        102
    79        149
    80         11
    81          1
    83          3
    84          0
    85          3
    86         10
    87        119
    88        288
    89        700
    90         64
    91        270
    92         43
    93          5
    95          1
    96          4
    97          2
    99          2
   100          3
   101         49
   102         20
   103         98
   104        596
   105        355
   106        219
   107        319
   108         29
   109          3
   111          0
   113          0
   115         10
   116         35
   117        122
   118         90
   119         55
   120         68
   121        113
   122         10
   123          0
   125          0
   127          0
   128          3
   129          2
   130          9
   131         13
   132         45
   133        224
   134         98
   135         22
   136          2
   137          2
   138         52
   139          4
   141          0
   142          0
   145          5
   146         29
   147         15
   148         27
   149        145
   150         17
   151         90
   152          9
   157          1
   159          1
   160          0
   161          6
   162          2
   163         50
   164         57
   165        163
   166         21
   167          0
   175          4
   176          5
   177         25
   178         12
   179          4
   180          4
   182          0
   183          0
   185         21
   186          1
   187         19
   188          0
   190          5
   191          1
   195         67
   196         10
   197          0
   207          0
   208          2
   209         28
   210          4
   216          5
   218          4
   221          3
   223         12
   224          1
   237         11
   238          0
   251          2
   252        519
   253         75
   254          8