##TITLE=Library Entry 65871
##JCAMP-DX=Revision 4.10 
##DATA TYPE=MASS SPECTRUM
##SAMPLE DESCRIPTION=Chemical Concepts
##NAMES=HP
##CAS NAME=Chromium, (acetonitrile)(.eta.6-benzene)dicarbonyl-
##MOLFORM=C10H9CrNO2
##CAS REGISTRY NO=75503-66-1
##MP= -300
##BP= -300
##MW= 227
##$RETENTION INDEX=0
##$CONDENSED SPECTRUM=NO
##NPOINTS= 119
##XYDATA=(XY..XY) 1 
    28         27
    29          0
    30          0
    31          0
    37          1
    38         19
    39         51
    40        161
    41        489
    42         12
    43          1
    44         10
    45          0
    46          0
    47          0
    48          0
    49          0
    50          2
    51          5
    52        712
    53         72
    54         18
    55          0
    56          0
    57          1
    58          0
    61          0
    62          0
    64          1
    65          0
    66          7
    67          1
    68          0
    69          0
    70          0
    71          1
    78        261
    79         44
    80          7
    81          1
    85          4
    86         14
    87          0
    88          0
    89          1
    90          6
    91         51
    92         42
    93        999
    94        124
    95         29
    96          2
    97          0
    99          0
   100          3
   101          3
   102          0
   103          6
   104          1
   105          0
   106          0
   108          0
   109          0
   111          0
   115          0
   116          0
   118          1
   119          0
   121         10
   122          1
   127          1
   128          4
   129          8
   130         62
   131         12
   132          1
   134          1
   144          0
   145          0
   149          0
   155          1
   156          2
   157          0
   158          6
   159          1
   160          0
   162          0
   163          0
   165          0
   168          0
   169          4
   170         10
   171         81
   172         17
   173          3
   177          0
   178          0
   179          0
   182          1
   183          0
   185          0
   186          0
   187          0
   188          0
   197          2
   198          0
   199         39
   200          8
   201          1
   210          1
   211          0
   212          0
   223          0
   224          0
   225         13
   226          2
   227        265
   228         59
   229         14