##TITLE=Library Entry 41623
##JCAMP-DX=Revision 4.10 
##DATA TYPE=MASS SPECTRUM
##SAMPLE DESCRIPTION=L. HUIBREGTSE-MINDERHOUD, JAN VAN BEAUMONTSTRAAT, GOUDA
, NET
##NAMES=HP
##CAS NAME=Methyl 11-methoxy-3,7,11-trimethyl-10-(pentafluoropropionyloxy)-2
,6-dodecadienoate
##MOLFORM=C20H29F5O5
##CAS REGISTRY NO=75517-06-5
##MP= -300
##BP= -300
##MW= 444
##$RETENTION INDEX=0
##$CONDENSED SPECTRUM=NO
##NPOINTS= 16
##XYDATA=(XY..XY) 1 
    73        999
    81        800
    93        180
   107        120
   114        240
   121         80
   135        240
   189         40
   194         30
   248         40
   280         50
   353          5
   384          3
   385          3
   412          4
   444         10