##TITLE=Library Entry 41625
##JCAMP-DX=Revision 4.10 
##DATA TYPE=MASS SPECTRUM
##SAMPLE DESCRIPTION=L. HUIBREGTSE-MINDERHOUD, JAN VAN BEAUMONTSTRAAT, GOUDA
, NET
##NAMES=HP
##CAS NAME=Methyl 11-methoxy-3,7,11-trimethyl-10-(pentadecafluorooctanoyloxy
)-2,6-dodecadienoate
##MOLFORM=C25H29F15O5
##CAS REGISTRY NO=75517-07-6
##MP= -300
##BP= -300
##MW= 694
##$RETENTION INDEX=0
##$CONDENSED SPECTRUM=NO
##NPOINTS= 21
##XYDATA=(XY..XY) 1 
    73        999
    81        760
    93        220
    99        120
   107        150
   114        280
   121        100
   135        360
   139         40
   162         40
   189         70
   194         40
   248         60
   280          5
   549          3
   603          4
   634          2
   635          3
   662          5
   675          2
   694         20