##TITLE=Library Entry 74419
##JCAMP-DX=Revision 4.10 
##DATA TYPE=MASS SPECTRUM
##SAMPLE DESCRIPTION=James Little,Eastman Chem.Co.,Kingsport,TN
##NAMES=HP
##CAS NAME=1,2,4-Thiadiazole, 5-amino-
##MOLFORM=C2H3N3S
##CAS REGISTRY NO=7552-07-0
##MP= -300
##BP= -300
##MW= 101
##$RETENTION INDEX=0
##$CONDENSED SPECTRUM=NO
##NPOINTS= 19
##XYDATA=(XY..XY) 1 
    32        149
    43        305
    46        101
    47         87
    53         22
    54         13
    58         39
    59        382
    60         76
    61         23
    68         13
    69         21
    73         23
    74        868
    75         26
    76         39
   101        999
   102         50
   103         55