##TITLE=Library Entry 109424
##JCAMP-DX=Revision 4.10 
##DATA TYPE=MASS SPECTRUM
##SAMPLE DESCRIPTION=Asinex Ltd, Moscow, Russia
##NAMES=HP
##CAS NAME=Pyrimido[4,5-d]pyrimidine-2,7(1H,3H)-dione, hexahydro-1,4,6-trime
thyl-5-(4-nitrophenyl)-
##MOLFORM=C15H19N5O4
##CAS REGISTRY NO=75526-03-3
##MP= -300
##BP= -300
##MW= 333
##$RETENTION INDEX=0
##$CONDENSED SPECTRUM=NO
##NPOINTS= 220
##XYDATA=(XY..XY) 1 
    33          0
    34          0
    38          2
    39         16
    40         29
    41         53
    42        236
    43         80
    44        193
    45          5
    46          2
    50          8
    51         16
    52          6
    53          6
    54         10
    55         23
    56         52
    57         30
    58         64
    59          3
    60          1
    62          1
    63          7
    64          4
    65         13
    66          5
    67         10
    68         43
    69         18
    70         43
    71         16
    72         21
    73        201
    75         26
    76         25
    77         50
    78         13
    79          5
    80          8
    81         13
    82         50
    83         28
    84         70
    85         21
    86          1
    87          2
    88          1
    89         11
    90          8
    91         25
    92          9
    93         11
    94          4
    95          8
    96          6
    97         17
    98         11
    99         13
   100          5
   101         22
   102         18
   103         39
   104         68
   105         28
   106          5
   107          3
   108          2
   109          9
   111        682
   112         41
   113         16
   114          8
   115         29
   116         12
   117         12
   118          6
   119         21
   120          7
   121          4
   122          2
   123          7
   125        999
   126         80
   127        236
   128         30
   129         18
   130         18
   131         20
   132          8
   133          7
   134          6
   135          5
   136          5
   137          6
   138         13
   139          6
   140         13
   141          5
   142          9
   143         20
   144         14
   145         21
   146          4
   147          8
   148          4
   149         41
   150         65
   151         24
   152          7
   153          3
   154          5
   155         13
   156         15
   157          7
   158          6
   159          4
   160         13
   161          6
   162          1
   163          3
   164          3
   165          5
   166          2
   167          1
   168          3
   169          3
   170          7
   171          8
   172          4
   173          3
   174          4
   175          3
   176          3
   177         38
   178          7
   179          6
   180          1
   181          0
   182          4
   183          1
   184          9
   185         11
   186         34
   187          9
   188          3
   189          8
   190          5
   191         22
   192          3
   193          0
   195          0
   196          0
   197          0
   198          6
   199          1
   200          2
   201          3
   202         13
   203          5
   204          7
   205          1
   206          6
   207          2
   208          0
   209          2
   210          1
   211          2
   212         57
   213         19
   214          5
   215          3
   216         26
   217         21
   218         12
   219         11
   220          2
   221          0
   227          1
   228          2
   229          5
   230          3
   231          1
   232         61
   233         29
   234         26
   235          3
   241          1
   242         43
   243         11
   244         20
   245          3
   246          2
   247          0
   256          0
   258         88
   259        107
   260         29
   261          7
   262          1
   273          0
   274          0
   275          3
   276          1
   285          0
   286         10
   287          7
   288          0
   289          0
   302          2
   303          1
   316        248
   317         46
   318         10
   319          1
   331          1
   332          1
   333         36
   334          6
   335          0