##TITLE=Library Entry 97000
##JCAMP-DX=Revision 4.10 
##DATA TYPE=MASS SPECTRUM
##SAMPLE DESCRIPTION=NIST Mass Spectrometry Data Center
##NAMES=HP
##CAS NAME=Butanedioic acid, hydroxy-, diethyl ester
##MOLFORM=C8H14O5
##CAS REGISTRY NO=7554-12-3
##MP= -300
##BP= -300
##MW= 190
##$RETENTION INDEX=1271
##$CONDENSED SPECTRUM=NO
##NPOINTS= 56
##XYDATA=(XY..XY) 1 
    27         78
    28         23
    29        294
    30         15
    31          1
    38         35
    39         36
    40         11
    41         50
    42         41
    43        320
    44        195
    45         62
    46         17
    47         73
    48          2
    53          2
    55         59
    56          8
    58          9
    59          4
    60         62
    61         17
    63          3
    70         20
    71        809
    72         67
    73         51
    74         21
    75        170
    76          9
    77          2
    87         23
    88         47
    89        296
    90         25
    91          9
    99         36
   100         23
   101          5
   102          3
   103          5
   115         10
   116         28
   117        999
   118         79
   119          8
   126          2
   127         40
   128         16
   129          2
   134          4
   143          2
   144         30
   145         73
   146          4