##TITLE=Library Entry 50365
##JCAMP-DX=Revision 4.10 
##DATA TYPE=MASS SPECTRUM
##SAMPLE DESCRIPTION=NIST Mass Spectrometry Data Center, 2011
##NAMES=HP
##CAS NAME=Fomepizole
##MOLFORM=C4H6N2
##CAS REGISTRY NO=7554-65-6
##MP= -300
##BP= -300
##MW= 82
##$RETENTION INDEX=953
##$CONDENSED SPECTRUM=NO
##NPOINTS= 37
##XYDATA=(XY..XY) 1 
    15          2
    24          2
    25          9
    26         61
    27        109
    28        288
    29         28
    30         10
    36          5
    37         26
    38         40
    39         43
    40         11
    41         17
    42         23
    43          4
    48          2
    49         14
    50         53
    51         91
    52        164
    53         95
    54        676
    55        118
    56          5
    62          1
    63          1
    64          1
    65          1
    66          3
    67          2
    76          1
    77          2
    79          3
    81        999
    82        884
    83         44