##TITLE=Library Entry 20879
##JCAMP-DX=Revision 4.10 
##DATA TYPE=MASS SPECTRUM
##SAMPLE DESCRIPTION=Chemical Concepts
##NAMES=HP
##CAS NAME=Methanesulfonic acid, 2,7-dioxatricyclo[4.3.1.0(3,8)]dec-5-yl est
er
##MOLFORM=C9H14O5S
##CAS REGISTRY NO=75568-59-1
##MP= -300
##BP= -300
##MW= 234
##$RETENTION INDEX=0
##$CONDENSED SPECTRUM=NO
##NPOINTS= 125
##XYDATA=(XY..XY) 1 
    26         21
    27        282
    28         59
    29        370
    30         12
    31         61
    33          3
    34          2
    36          3
    37          4
    38         12
    39        270
    40         42
    41        367
    42         65
    43        456
    44         52
    45         63
    46          3
    47          6
    48         11
    49         10
    50         13
    51         36
    52         18
    53        165
    54        128
    55        999
    56        111
    57        155
    58         15
    59         12
    60          4
    61          2
    62          3
    63         15
    64         11
    65         73
    66         50
    67        360
    68        312
    69        212
    70         94
    71        328
    72         16
    73         23
    74          4
    75          2
    76          4
    77         62
    78         14
    79        345
    80         34
    81        495
    82        116
    83        838
    84        210
    85         76
    86         11
    87          5
    89          4
    90          2
    91        132
    92         21
    93        206
    94         97
    95        176
    96         26
    97         27
    98          5
    99         12
   100          3
   101          4
   103         15
   104          7
   105          5
   106          2
   107         10
   108          7
   109        483
   110         59
   111        578
   112         44
   113        140
   114         11
   115          8
   116          2
   117          2
   119         44
   120         11
   121         55
   122          8
   123         10
   124          2
   125          5
   126          2
   127         95
   128         10
   129          4
   130          2
   131          3
   135          9
   136          3
   137        785
   138        241
   139        147
   140         15
   141          6
   142          3
   143          2
   151         27
   152          3
   153          3
   154          3
   155        248
   156         24
   157          4
   158          2
   166         95
   167         11
   168          6
   190          7
   219          5
   234         19
   235          3