##TITLE=Library Entry 50274
##JCAMP-DX=Revision 4.10 
##DATA TYPE=MASS SPECTRUM
##SAMPLE DESCRIPTION=Chemical Concepts
##NAMES=HP
##CAS NAME=9-Oxabicyclo[3.3.1]non-6-en-2-one, 3-bromo-, endo-
##MOLFORM=C8H9BrO2
##CAS REGISTRY NO=75568-50-2
##MP= -300
##BP= -300
##MW= 216
##$RETENTION INDEX=0
##$CONDENSED SPECTRUM=NO
##NPOINTS= 94
##XYDATA=(XY..XY) 1 
    25          8
    26        101
    27        498
    28         48
    29        129
    30         10
    31         24
    36          9
    37         22
    38         65
    39        348
    40         57
    41        263
    42         31
    43         48
    44         93
    45         10
    49         13
    50         98
    51        152
    52        107
    53        350
    54        149
    55        407
    56         26
    57         20
    60         13
    61         11
    62         18
    63         42
    64         13
    65        107
    66         81
    67        225
    68         94
    69         25
    70          8
    71         17
    73          9
    74         13
    75         16
    76          7
    77        222
    78         69
    79        696
    80        130
    81        999
    82        611
    83         62
    84          7
    85          5
    89          5
    90          5
    91        196
    92         26
    93         51
    94         72
    95         44
    96         25
    97          9
   105          9
   106          9
   107         59
   108         25
   109        434
   110         54
   111          7
   118          4
   119         77
   120         15
   121         12
   122          9
   123          4
   132         23
   133          7
   134         23
   135          7
   136          7
   137        535
   138         96
   139         10
   146          5
   157          4
   159          4
   161          9
   163          6
   172          4
   185          8
   186          3
   187          9
   216         51
   217          6
   218         51
   219          7