##TITLE=Library Entry 24761
##JCAMP-DX=Revision 4.10 
##DATA TYPE=MASS SPECTRUM
##SAMPLE DESCRIPTION=NIST Mass Spectrometry Data Center, 2010
##NAMES=HP
##CAS NAME=Acetic acid, trifluoro-, 2,2-dimethylpropyl ester
##MOLFORM=C7H11F3O2
##CAS REGISTRY NO=7556-79-8
##MP= -300
##BP= -300
##MW= 184
##$RETENTION INDEX=0
##$CONDENSED SPECTRUM=NO
##NPOINTS= 65
##XYDATA=(XY..XY) 1 
    14          1
    15          7
    26          5
    27         66
    28         16
    29        155
    30          6
    31          6
    33          2
    37          3
    38         10
    39        143
    40         22
    41        381
    42         28
    43        156
    44          8
    45          5
    47         46
    48          1
    50         32
    51         17
    52          5
    53         47
    55        980
    56         81
    57        999
    58         49
    59          6
    60          1
    61          1
    63          1
    65          2
    66          1
    67          7
    69        530
    70         17
    71        328
    72         19
    73          2
    75          2
    77          1
    78         13
    91          1
    93          1
    95          1
    97         41
    99         45
   100          1
   112          1
   113         31
   114          1
   115          1
   125         12
   126          1
   127          2
   128          1
   139          1
   140          1
   141          2
   153          1
   168         47
   169        139
   170         10
   171          1