##TITLE=Library Entry 36352
##JCAMP-DX=Revision 4.10 
##DATA TYPE=MASS SPECTRUM
##SAMPLE DESCRIPTION=NIST Mass Spectrometry Data Center, 2010
##NAMES=HP
##CAS NAME=1,2-Propanediol, bis(trifluoroacetate)
##MOLFORM=C7H6F6O4
##CAS REGISTRY NO=7556-83-4
##MP= -300
##BP= -300
##MW= 268
##$RETENTION INDEX=815
##$CONDENSED SPECTRUM=NO
##NPOINTS= 78
##XYDATA=(XY..XY) 1 
    14          1
    15          4
    26          5
    27         21
    28         14
    29         35
    30          3
    31          8
    33          6
    37          1
    38          4
    39         38
    40         25
    41        398
    42         28
    43         61
    44          6
    45          5
    46          1
    47        106
    48          2
    50         25
    51          4
    53          1
    55          2
    56          1
    57         21
    58          2
    59         20
    60          6
    61         59
    62          2
    65         18
    66          1
    67          1
    68          2
    69        999
    70         11
    77          1
    78         23
    79          2
    80          2
    83          2
    85          5
    89          6
    91          1
    93          2
    94          1
    95          2
    97        114
    98          3
    99        151
   100          3
   109          1
   111          1
   112          2
   113        139
   114          5
   115          4
   125         11
   126          1
   127          9
   128          1
   131          1
   135         14
   139          8
   140          3
   141        651
   142         28
   143          3
   153          3
   154         21
   155         60
   156          3
   159          2
   205          1
   225          1
   253          6