##TITLE=Library Entry 51195
##JCAMP-DX=Revision 4.10 
##DATA TYPE=MASS SPECTRUM
##SAMPLE DESCRIPTION=Chemical Concepts
##NAMES=HP
##CAS NAME=2,6-Dioxa-tricyclo[3.3.2.0(3,7)]decan-9-one
##MOLFORM=C8H10O3
##CAS REGISTRY NO=75568-74-0
##MP= -300
##BP= -300
##MW= 154
##$RETENTION INDEX=0
##$CONDENSED SPECTRUM=NO
##NPOINTS= 75
##XYDATA=(XY..XY) 1 
    26         27
    27        265
    28        332
    29        244
    30          7
    31         23
    37          9
    38         24
    39        241
    40         40
    41        241
    42        107
    43        233
    44         90
    45         17
    49          3
    50         22
    51         37
    52         17
    53        108
    54        295
    55        735
    56        117
    57        157
    58         15
    59          4
    60          3
    62          4
    63          7
    65         17
    66         32
    67         58
    68        114
    69        173
    70        154
    71         74
    72          5
    73         14
    74          4
    75          3
    76          6
    77         21
    78          9
    79         86
    80        228
    81        368
    82        999
    83        355
    84         84
    85         19
    91          7
    93          5
    94         10
    95         22
    96          9
    97         70
    98        297
    99         26
   105          6
   107         15
   108         36
   109         12
   110          5
   111        121
   112         20
   113          5
   115          5
   125         13
   126        183
   127         17
   128          5
   153          6
   154        621
   155         58
   156          3