##TITLE=Library Entry 50415
##JCAMP-DX=Revision 4.10 
##DATA TYPE=MASS SPECTRUM
##SAMPLE DESCRIPTION=Chemical Concepts
##NAMES=HP
##CAS NAME=2,7-Dioxatricyclo[4.3.1.0(3,8)]dec-4-ene
##MOLFORM=C8H10O2
##CAS REGISTRY NO=75568-65-9
##MP= -300
##BP= -300
##MW= 138
##$RETENTION INDEX=0
##$CONDENSED SPECTRUM=NO
##NPOINTS= 85
##XYDATA=(XY..XY) 1 
    25          4
    26         50
    27        291
    28         25
    29        195
    30          7
    31         84
    37         19
    38         57
    39        512
    40        110
    41        494
    42         85
    43        436
    44         37
    45         67
    46          6
    47          6
    49          6
    50         50
    51        101
    52         44
    53        303
    54        137
    55        178
    56         16
    57         27
    58          4
    59          5
    60         14
    61         46
    62         19
    63         41
    64         16
    65        176
    66        310
    67        376
    68        253
    69        232
    70        298
    71         39
    72          4
    73         19
    74         11
    75          6
    76          3
    77        146
    78         59
    79        499
    80         56
    81        999
    82        175
    83         51
    84         33
    85          4
    87          3
    88         19
    89          6
    90          4
    91        221
    92        152
    93         30
    94        762
    95        254
    96         98
    97         16
    98          6
   103          4
   104          3
   105          6
   106          3
   107         28
   108         15
   109        439
   110        198
   111         17
   112          2
   119          9
   120         60
   121         13
   123          5
   137          5
   138        332
   139         35
   140          4