##TITLE=Library Entry 83508
##JCAMP-DX=Revision 4.10 
##DATA TYPE=MASS SPECTRUM
##SAMPLE DESCRIPTION=Chemical Concepts
##NAMES=HP
##CAS NAME=9-Oxa-bicyclo[3.3.1]nona-3,6-dien-2-one
##MOLFORM=C8H8O2
##CAS REGISTRY NO=75568-53-5
##MP= -300
##BP= -300
##MW= 136
##$RETENTION INDEX=0
##$CONDENSED SPECTRUM=NO
##NPOINTS= 65
##XYDATA=(XY..XY) 1 
    26         44
    27        170
    28         16
    29         53
    31          2
    37         16
    38         38
    39        162
    40         19
    41         26
    42          7
    43         11
    44          8
    49          9
    50         75
    51        136
    52         66
    53        141
    54         27
    55         38
    56          3
    57          8
    61          7
    62         13
    63         27
    64          8
    65         25
    66         47
    67         13
    68         14
    69          7
    71          4
    72          3
    73          3
    74         11
    75         26
    76          6
    77        616
    78         92
    79        559
    80         65
    81         76
    82         26
    83          4
    84          6
    85          2
    86          2
    89          3
    90         12
    91          7
    92          3
    94        127
    95         13
    96          2
    97          4
   105          3
   106          3
   107        999
   108        194
   109         24
   110          3
   118          2
   136         79
   137          9
   138          4