##TITLE=Library Entry 35384
##JCAMP-DX=Revision 4.10 
##DATA TYPE=MASS SPECTRUM
##SAMPLE DESCRIPTION=Chemical Concepts
##NAMES=HP
##CAS NAME=2,6,10,14,18-Pentamethyl-2,6,10,14,18-eicosapentaene
##MOLFORM=C25H42
##CAS REGISTRY NO=75581-03-2
##MP= -300
##BP= -300
##MW= 342
##$RETENTION INDEX=0
##$CONDENSED SPECTRUM=NO
##NPOINTS= 220
##XYDATA=(XY..XY) 1 
    26          1
    27         22
    28          0
    29         40
    30          2
    31          1
    35          1
    36          2
    38          1
    39         27
    40         10
    41        439
    42         23
    43         81
    44         11
    45          4
    47          3
    48          2
    49          1
    50          2
    51          4
    52          2
    53         45
    54          6
    55        162
    56         15
    57         55
    58          2
    59          3
    60          1
    61          2
    63          1
    64          1
    65         12
    66          7
    67        103
    68        118
    69        999
    70         54
    71         24
    72          3
    73          1
    74          2
    75          1
    76          1
    77         28
    78          6
    79         54
    80         23
    81        499
    82         54
    83         59
    84          6
    85         11
    86          1
    87          2
    88          1
    89          1
    91         36
    92         15
    93        136
    94         34
    95        241
    96         24
    97         31
    98          5
    99          3
   100          0
   101          1
   103          2
   104          3
   105         30
   106         11
   107        103
   108         29
   109        114
   110         14
   111         20
   112          3
   113          3
   114          1
   115          3
   116          1
   117          3
   118          1
   119         31
   120         13
   121        140
   122         45
   123        101
   124         15
   125          8
   126          2
   127          1
   128          2
   129          2
   130          1
   131          3
   132          2
   133         24
   134         22
   135        117
   136         72
   137        120
   138         13
   139          2
   140          0
   141          2
   142          1
   143          2
   145          5
   146          2
   147         22
   148         16
   149         73
   150         24
   151          8
   152          2
   153          1
   154          0
   155          1
   156          0
   157          1
   159          8
   160          2
   161         33
   162          9
   163         34
   164          7
   165          3
   166          0
   167          3
   168          0
   169          1
   170          0
   171          1
   173          3
   174          0
   175         13
   176          4
   177         16
   178          5
   179          2
   180          0
   181          2
   182          0
   183          1
   185          9
   186          4
   187          5
   188          1
   189         22
   190         10
   191         21
   192         11
   193          3
   194          0
   195          0
   197          0
   199          1
   201          3
   202          2
   203         20
   204         27
   205         31
   206          7
   207          1
   208          0
   209          1
   210          2
   211          1
   212          0
   213          4
   214          1
   215          2
   216          1
   217          8
   218          5
   219          3
   220          1
   221          0
   223          1
   225          1
   227          0
   228          1
   229          2
   230          1
   231          1
   232          2
   233          2
   243          2
   244          0
   245          3
   246          1
   247          0
   255          1
   256          3
   257          5
   258          3
   259          7
   260          7
   261          1
   262          1
   271          3
   272          8
   273         22
   274          6
   275          1
   285          2
   286          1
   297          1
   299          4
   300          1
   313          1
   327          3
   340          2
   341          3
   342         22
   343          6
   344          3