##TITLE=Library Entry 100332
##JCAMP-DX=Revision 4.10 
##DATA TYPE=MASS SPECTRUM
##SAMPLE DESCRIPTION=A.Pleshkova, Nesmeyanov Inst.Org.Elem.Cpds, Moscow
##NAMES=HP
##CAS NAME=2,2-Bis(2-hydroxyphenyl)-propane
##MOLFORM=C15H16O2
##CAS REGISTRY NO=7559-72-0
##MP= -300
##BP= -300
##MW= 228
##$RETENTION INDEX=0
##$CONDENSED SPECTRUM=NO
##NPOINTS= 52
##XYDATA=(XY..XY) 1 
    51         69
    52         16
    65        142
    66         36
    67         12
    76         42
    77        127
    78         42
    79         54
    80         18
    89         63
    90         33
    91        624
    92         48
    93         19
    99         85
   100         17
   105         52
   106         30
   107        188
   108         19
   115        160
   117         21
   118         10
   119        999
   120         94
   121         21
   122         10
   133         62
   134        848
   135        541
   136         47
   137          8
   151         28
   152         73
   153         24
   154          6
   165        131
   166         36
   167         12
   176         36
   177         17
   178         10
   194         14
   195         56
   196         17
   213        238
   214         34
   215          9
   228        569
   229         81
   230         17