##TITLE=Library Entry 74642
##JCAMP-DX=Revision 4.10 
##DATA TYPE=MASS SPECTRUM
##SAMPLE DESCRIPTION=A.A.Kutin, Moscow, Russia
##NAMES=HP
##CAS NAME=Benzene, 1-(2-bromo-2-nitroethenyl)-4-nitro-
##MOLFORM=C8H5BrN2O4
##CAS REGISTRY NO=7559-38-8
##MP= -300
##BP= -300
##MW= 272
##$RETENTION INDEX=0
##$CONDENSED SPECTRUM=NO
##NPOINTS= 157
##XYDATA=(XY..XY) 1 
    33         43
    34         27
    36         21
    37         88
    38        153
    39        264
    40        352
    41         40
    42         20
    43         49
    44         88
    46        213
    48          7
    50        657
    51        573
    52         58
    53         22
    54          9
    55         28
    56         10
    57         19
    58          4
    61        111
    62        245
    63        391
    64         76
    65         39
    66         13
    67         10
    68          7
    69         18
    70          9
    71         12
    74        519
    75        870
    76        118
    77         85
    79        148
    80         53
    81         36
    82         40
    83          7
    84          7
    85         18
    86         35
    87         54
    89        934
    90        104
    91         65
    92         22
    93         12
    94          3
    95          9
    96          6
    97         21
    98         96
    99         84
   101        999
   102         82
   103         14
   104         20
   105         50
   107         26
   108          7
   109          2
   111          6
   112          4
   114         21
   115         14
   117        739
   118         73
   119         94
   120         14
   121          9
   122          5
   123          5
   124          2
   125          0
   128          6
   129          5
   130         10
   131         29
   132         11
   133         20
   135         53
   136          4
   137          1
   139          0
   140          1
   141          8
   142          1
   143          9
   144          1
   146         49
   147        108
   148         15
   150         45
   151          9
   152          3
   153          4
   154          2
   155          4
   156         18
   158         22
   159          1
   160          0
   161          2
   162         13
   163         26
   164          2
   165          3
   167         26
   168         10
   169         24
   170          9
   171          5
   172          2
   174          0
   175          0
   176          5
   177          5
   179         29
   180         39
   181         31
   182         39
   183          4
   184         14
   185          2
   186         13
   187          0
   188          0
   193         13
   195         46
   196        191
   197         50
   198        200
   199         19
   200         17
   201          1
   209         12
   210          2
   211         11
   212          1
   213          0
   214          8
   216          8
   223          1
   225        125
   226         47
   227        117
   228         47
   229          4
   242          0
   244          0
   272         62
   274         66
   275          5