##TITLE=Library Entry 67727
##JCAMP-DX=Revision 4.10 
##DATA TYPE=MASS SPECTRUM
##SAMPLE DESCRIPTION=Chemical Concepts
##NAMES=HP
##CAS NAME=1,4-Pentadiene, 2,3,3-trimethyl-
##MOLFORM=C8H14
##CAS REGISTRY NO=756-02-5
##MP= -300
##BP= -300
##MW= 110
##$RETENTION INDEX=817
##$CONDENSED SPECTRUM=NO
##NPOINTS= 69
##XYDATA=(XY..XY) 1 
    25          0
    26         10
    27        164
    28          0
    29         86
    30          1
    34          0
    35          0
    36          1
    37          6
    38         15
    39        271
    40         41
    41        542
    42         39
    43         42
    45          1
    46          1
    47          3
    48          1
    49          1
    50         17
    51         42
    52         20
    53        157
    54         29
    55        370
    56         38
    57         12
    58          0
    61          2
    62          5
    63         12
    64          2
    65         36
    66         13
    67        487
    68         78
    69        108
    70         19
    71          0
    74          1
    75          2
    76          0
    77         52
    78         11
    79         52
    80         35
    81         61
    82         18
    83         16
    84          0
    87          0
    88          0
    89          1
    91         24
    92          4
    93         62
    94          8
    95        999
    96         70
    97          2
   105          0
   107          0
   108          0
   109         11
   110        189
   111         16
   112          0