##TITLE=Library Entry 51886
##JCAMP-DX=Revision 4.10 
##DATA TYPE=MASS SPECTRUM
##SAMPLE DESCRIPTION=Chemical Concepts
##NAMES=HP
##CAS NAME=Methanone, (1-methyl-1H-imidazol-2-yl)[4b,5,6,7,8,8a,9,10-octahyd
ro-4b,8-dimethyl-2-(1-methylethyl)-9-phenanthrenyl]-, [4bS-(4b.alpha.,8.alph
a.,8a.beta.)]-
##MOLFORM=C24H32N2O
##CAS REGISTRY NO=75601-28-4
##MP= -300
##BP= -300
##MW= 364
##$RETENTION INDEX=0
##$CONDENSED SPECTRUM=NO
##NPOINTS= 306
##XYDATA=(XY..XY) 1 
    26          2
    27         15
    28         18
    29         13
    30          2
    31          0
    35          5
    36         11
    37          1
    38          3
    39         11
    40          7
    41         64
    42         31
    43         79
    44          4
    47          6
    48          0
    49          2
    50          1
    51          2
    52          3
    53         11
    54         24
    55         43
    56         18
    57         11
    58          1
    59          1
    60          1
    61          3
    62          0
    63          2
    65          7
    66          3
    67         11
    68          5
    69         20
    70          3
    71          4
    72          1
    73          3
    74          1
    75          2
    76          3
    77         16
    78          5
    79          9
    80          5
    81         53
    82        999
    83        324
    84         19
    85          3
    86          1
    87          1
    88          1
    89          2
    90          1
    91         28
    92          4
    93          7
    94          3
    95         21
    96        113
    97         16
    98          2
    99          1
   100          2
   101          1
   102          2
   103          5
   104          5
   105         12
   106          3
   107          8
   108          3
   109        175
   110        512
   111        153
   112         58
   113          6
   114          2
   115         33
   116         10
   117         47
   118          5
   119         48
   120          4
   121         16
   122          7
   123         86
   124         21
   125         22
   126          4
   127         14
   128         51
   129         41
   130         11
   131         27
   132         11
   133         15
   134          5
   135         10
   136         13
   137         18
   138          7
   139         21
   140          9
   141        128
   142         34
   143         50
   144          8
   145         12
   146          7
   147         11
   151         11
   152         53
   153         58
   154         34
   155         68
   156         17
   157         20
   158          5
   159         10
   160          7
   161          7
   162          4
   163         17
   164          5
   165         49
   166         32
   167         72
   168         32
   169         40
   170         12
   171         11
   172          4
   173         26
   174          8
   175         12
   176          4
   177          6
   178         17
   179         20
   180         11
   181         30
   182         15
   183         59
   184         15
   185         21
   186          5
   187          4
   188          3
   189          7
   190          4
   191          9
   192          6
   193          9
   194          5
   195         22
   196          8
   197         43
   198         10
   199         13
   200          3
   201          3
   202          3
   203          6
   204          4
   209         10
   210          5
   211         19
   212          6
   213          7
   214          4
   215          5
   216          5
   217          5
   218          3
   219          3
   220          3
   221          5
   222          3
   223         14
   224          6
   225         19
   226         12
   227         23
   228          8
   229          2
   230          1
   231          2
   232          1
   233          2
   234          2
   235          3
   236          2
   237         12
   238          6
   239         23
   240         14
   241         11
   242          6
   243          2
   244          1
   245          1
   246          1
   247          2
   248          1
   249          3
   250          2
   251          7
   252          5
   253         15
   254         20
   255         17
   256          4
   257          3
   258          1
   259          1
   260          1
   261          2
   262          3
   263          4
   264          3
   265         43
   266         18
   267         24
   268          7
   269          3
   270          4
   271          2
   272          1
   273          1
   274          1
   275          2
   276          2
   277          5
   278          4
   279         15
   280          5
   281          8
   282          3
   283          5
   284          1
   285          1
   286          1
   287          2
   288          1
   289          2
   290          2
   291          8
   292          4
   293         27
   294         10
   295          6
   296          3
   297          1
   298          2
   301          2
   302          1
   303          4
   304          2
   305          7
   306          8
   307         14
   308          7
   309          9
   313          2
   314          2
   315          5
   316          3
   317          4
   318          3
   319         41
   320         13
   321        197
   322         52
   323          7
   324          3
   329          9
   330          1
   331          2
   332          1
   333          1
   334          0
   335         53
   336        779
   337        188
   338         25
   339          3
   345          7
   346          3
   347          6
   348         10
   349         96
   350         28
   351          3
   361          9
   362         23
   363         47
   364        198
   365         55
   366          8
   367          1