##TITLE=Library Entry 23099
##JCAMP-DX=Revision 4.10 
##DATA TYPE=MASS SPECTRUM
##SAMPLE DESCRIPTION=Exported from NIST MS Search
##NAMES=HP
##CAS NAME=Butane, 1-(methylsulfonyl)-
##MOLFORM=C5H12O2S
##CAS REGISTRY NO=7560-59-0
##MP= -300
##BP= -300
##MW= 136
##$RETENTION INDEX=0
##$CONDENSED SPECTRUM=NO
##NPOINTS= 52
##XYDATA=(XY..XY) 1 
    26         30
    27        230
    28        200
    29        960
    30         20
    31         10
    32         10
    33         10
    34         10
    38         10
    39        120
    40         20
    41        660
    42         30
    43         10
    44         10
    45         20
    46         10
    47         20
    48         20
    50         10
    51         10
    53         20
    54         10
    55        110
    56        220
    57        999
    58         40
    61         10
    63         50
    64         50
    65         40
    76         20
    77         10
    78         10
    79         50
    80         60
    81        390
    82         10
    83         20
    94         90
    96         10
   107          9
   108          1
   109          1
   119         38
   120          6
   121         61
   122          3
   123          3
   136          4
   137          1