##TITLE=Library Entry 75339
##JCAMP-DX=Revision 4.10 
##DATA TYPE=MASS SPECTRUM
##SAMPLE DESCRIPTION=NIST Mass Spectrometry Data Center
##NAMES=HP
##CAS NAME=2,5-Difluoroanisole
##MOLFORM=C7H6F2O
##CAS REGISTRY NO=75626-17-4
##MP= -300
##BP= -300
##MW= 144
##$RETENTION INDEX=0
##$CONDENSED SPECTRUM=NO
##NPOINTS= 84
##XYDATA=(XY..XY) 1 
    14          1
    15         21
    26          1
    27          1
    29         16
    30          2
    31         42
    33          2
    36          1
    37         15
    38         13
    39         10
    43          2
    44          7
    45          5
    49          8
    50         54
    51         95
    52          3
    53          5
    55          4
    56         33
    57         88
    58          2
    60          2
    61         29
    62         36
    63        142
    64          9
    65          3
    66          7
    68         23
    69         19
    70         10
    71          5
    72          3
    73          8
    74         24
    75        112
    76          4
    77          6
    79          6
    80         13
    81         77
    82         32
    83          4
    86          4
    87          8
    88         11
    89          1
    90          1
    91          2
    92         10
    93         22
    94         15
    95         46
    96         32
    97         10
    98          1
    99         34
   100         30
   101        999
   102         58
   103          1
   110         10
   111          1
   112          8
   113         85
   114        143
   115         91
   116          5
   123          8
   125          1
   127          1
   128         10
   129        341
   130         23
   131          1
   141          5
   142          1
   143         22
   144        894
   145         72
   146          4