##TITLE=Library Entry 8192
##JCAMP-DX=Revision 4.10 
##DATA TYPE=MASS SPECTRUM
##SAMPLE DESCRIPTION=Japan AIST/NIMC Database- Spectrum MS-NW-1440
##NAMES=HP
##CAS NAME=1,3,5-Pentanetriol, 3-methyl-
##MOLFORM=C6H14O3
##CAS REGISTRY NO=7564-64-9
##MP= -300
##BP= -300
##MW= 134
##$RETENTION INDEX=0
##$CONDENSED SPECTRUM=NO
##NPOINTS= 98
##XYDATA=(XY..XY) 1 
    12          1
    13          1
    14          7
    15         51
    16          4
    17         22
    18        100
    19          6
    25          1
    26         13
    27        114
    28         76
    29         92
    30         22
    31        227
    32         20
    33          1
    37          3
    38          8
    39         92
    40         44
    41        258
    42         46
    43        999
    44         45
    45         66
    46          5
    47          4
    49          4
    50          7
    51         10
    52          7
    53         74
    54         13
    55         97
    56         41
    57        124
    58        136
    59        537
    60         20
    61         57
    62          2
    63          2
    65          8
    66          5
    67         62
    68         83
    69         64
    70         53
    71        432
    72         52
    73        134
    74          7
    75         11
    76          1
    77         10
    78          2
    79         17
    80          9
    81         23
    82          9
    83         75
    84         15
    85         31
    86         19
    87         15
    88         10
    89        387
    90         17
    91          9
    92          1
    93          3
    94          3
    95         12
    96         12
    97         26
    98         18
    99         12
   100         29
   101        122
   102         14
   103          5
   105          2
   107          1
   108          1
   109          6
   110         18
   111          4
   112         11
   113         11
   114          4
   115          7
   116          1
   117         11
   118          1
   119         28
   120          2
   133          1