##TITLE=Library Entry 16036
##JCAMP-DX=Revision 4.10 
##DATA TYPE=MASS SPECTRUM
##SAMPLE DESCRIPTION=JANCA2, 60(3)642(1977); K. BAILEY ET AL
##NAMES=HP
##CAS NAME=2,4-Dimethylamphetamine
##MOLFORM=C11H17N
##CAS REGISTRY NO=75659-61-9
##MP= -300
##BP= -300
##MW= 163
##$RETENTION INDEX=0
##$CONDENSED SPECTRUM=NO
##NPOINTS= 18
##XYDATA=(XY..XY) 1 
    41         70
    42         70
    44        999
    45         60
    51         50
    65         50
    77        120
    78         60
    79         50
    91        140
   103         60
   104         60
   105        190
   115         80
   117         60
   119        130
   120         90
   163         10