##TITLE=Library Entry 2967
##JCAMP-DX=Revision 4.10 
##DATA TYPE=MASS SPECTRUM
##SAMPLE DESCRIPTION=V.G.Zaikin, TIPS, Russian Acad. Sci., Moscow
##NAMES=HP
##CAS NAME=N-(2-Methylpropyl)heptafluorobutyramide
##MOLFORM=C8H10F7NO
##CAS REGISTRY NO=75668-25-6
##MP= -300
##BP= -300
##MW= 269
##$RETENTION INDEX=0
##$CONDENSED SPECTRUM=NO
##NPOINTS= 72
##XYDATA=(XY..XY) 1 
    30         67
    31        111
    38         25
    39        290
    40         57
    41        999
    42        164
    43        653
    44        125
    45         74
    46          9
    47          5
    50         42
    51         48
    52         12
    53         21
    54         25
    55        153
    56        738
    57        582
    58        425
    59          8
    68          3
    69        572
    70         19
    76          6
    77          4
    78         36
    79         12
    81         19
    84          6
    85          6
    90         16
    92          6
    93          8
    95          8
   100        151
   101          5
   107          8
   108        188
   109         40
   110         10
   119         55
   126          6
   128         16
   131         12
   150          8
   159          4
   166         10
   167          2
   168          8
   169        210
   170         10
   178         34
   179          8
   180          4
   194         49
   195          4
   197          6
   198         11
   213         10
   214        182
   215         13
   225         22
   226        322
   227        442
   228         82
   252          4
   254         61
   255          7
   268          5
   269          3