##TITLE=Library Entry 59561
##JCAMP-DX=Revision 4.10 
##DATA TYPE=MASS SPECTRUM
##SAMPLE DESCRIPTION=A.A.Kutin, Moscow, Russia
##NAMES=HP
##CAS NAME=(1,3,3,3-Tetrafluoro-2-trifluoromethyl-propenylsulfanylmethyl)-be
nzene
##MOLFORM=C11H7F7S
##CAS REGISTRY NO=75667-95-7
##MP= -300
##BP= -300
##MW= 304
##$RETENTION INDEX=0
##$CONDENSED SPECTRUM=NO
##NPOINTS= 144
##XYDATA=(XY..XY) 1 
    34          1
    37          9
    38         32
    39        162
    40         13
    41         32
    43          1
    45         42
    46          4
    47          2
    50         37
    51         70
    52         20
    53          4
    54          1
    55          1
    56          1
    57          2
    58          1
    59          1
    61          9
    62         34
    63        149
    65        270
    66         16
    69        106
    71          1
    72          1
    74          7
    75         12
    76          4
    77         17
    78          6
    79          3
    80          1
    81          1
    82          2
    83          3
    84          1
    85          2
    86          4
    87         10
    89         55
    91        999
    92        112
    93         19
    94          7
    95          1
    96          1
    97          1
    98          1
   100          2
   101          1
   102          1
   103          1
   104          1
   106          9
   107          1
   108          1
   109          7
   110          1
   112          4
   113         16
   114          1
   115          1
   116          1
   117          1
   118          1
   119          1
   121         13
   122          2
   123          1
   125          5
   126          1
   127          1
   128          1
   129          1
   131          1
   132          1
   133          1
   134          1
   137          1
   138          1
   139          1
   140          1
   141          1
   142          1
   144          4
   145          1
   146          1
   147          1
   150          1
   151          1
   152          1
   153          1
   154          1
   155          1
   156          1
   157          1
   158          1
   159          1
   163          6
   164          1
   165          1
   166          1
   167          1
   169          1
   170          1
   171          1
   175          8
   176          1
   177          1
   181          1
   182          1
   183          1
   184          1
   187          1
   188          1
   189          1
   194          4
   195          1
   196          1
   200          1
   201          1
   202          1
   213          3
   214          1
   215          1
   216          1
   217          1
   219          1
   220          1
   227          1
   231          1
   233          1
   234          1
   235          1
   251          1
   263          1
   283          1
   304          4
   305          1
   306          1
   307          1