##TITLE=Library Entry 70954
##JCAMP-DX=Revision 4.10 
##DATA TYPE=MASS SPECTRUM
##SAMPLE DESCRIPTION=Div. of Experiment Therapeutics WRAIR, WRAMC, Washingto
n DC 20307
##NAMES=HP
##CAS NAME=Thiourea, N,N-dicyclohexyl-N'-methyl-
##MOLFORM=C14H26N2S
##CAS REGISTRY NO=75670-65-4
##MP= -300
##BP= -300
##MW= 254
##$RETENTION INDEX=0
##$CONDENSED SPECTRUM=NO
##NPOINTS= 91
##XYDATA=(XY..XY) 1 
    41        379
    42         80
    43         59
    44         48
    45         15
    47         23
    49         15
    51         12
    53         88
    54         23
    55        485
    56        192
    57        177
    58          4
    59         25
    60         20
    61          1
    62         12
    65         12
    67         56
    68         18
    69         18
    70         25
    71          5
    72         17
    74        180
    75         37
    76         11
    77         17
    79         60
    81        165
    82         31
    83         78
    84         10
    85          4
    86          7
    87          1
    88          5
    89         13
    91         40
    93          4
    94          6
    96         23
    98        999
    99         58
   100          7
   106          4
   108          4
   109          1
   110         13
   111          1
   112         11
   114          1
   115         45
   116         19
   117          2
   123          2
   124          4
   125          1
   129         17
   130          8
   137          5
   138         64
   139         52
   140          5
   141          3
   142         15
   143          9
   152          3
   157          3
   169          4
   171        236
   172         30
   173         15
   178          2
   179          2
   180         35
   181         14
   182         10
   192          0
   197         15
   212          1
   221         13
   222          1
   224          4
   251          2
   253         59
   254        255
   255         38
   256         16
   257          2