##TITLE=Library Entry 8797
##JCAMP-DX=Revision 4.10 
##DATA TYPE=MASS SPECTRUM
##SAMPLE DESCRIPTION=H.J. MOECKEL & J. WEISS, HAHN-MEITNER-INST. BERLIN, W.
 G
##NAMES=HP
##CAS NAME=n-Butyl isopentyl disulphide
##MOLFORM=C9H20S2
##CAS REGISTRY NO=75679-09-3
##MP= -300
##BP= -300
##MW= 192
##$RETENTION INDEX=0
##$CONDENSED SPECTRUM=NO
##NPOINTS= 93
##XYDATA=(XY..XY) 1 
    15         11
    25          0
    26         10
    27        197
    29        364
    30         22
    33          0
    35          5
    37          1
    38          4
    39        101
    40         10
    41        376
    42         52
    43        999
    44         48
    45         64
    46         33
    47         67
    48          3
    49          2
    50          1
    51          4
    52          2
    53         22
    54         14
    55        120
    56         36
    57        263
    58         21
    59         28
    60         19
    61         14
    62          1
    63          1
    64          8
    65          3
    66          6
    67          6
    68          5
    69         30
    70         40
    71        382
    72         24
    73          3
    74          3
    75          0
    76          0
    77          0
    78          3
    79         25
    80          1
    81          2
    84          0
    85          2
    86          1
    87         39
    88         11
    89          7
    90          0
    91          0
    92          0
    93          4
    94          0
    95          0
    99          0
   100          0
   101          9
   102         15
   103         21
   104          2
   105          1
   106          0
   107          0
   120          0
   121          2
   122         34
   123          2
   124          2
   125          0
   135          1
   136         31
   137          2
   138          2
   139          0
   149          0
   190          0
   191          4
   192        101
   193         14
   194          9
   195          1
   196          0