##TITLE=Library Entry 89735
##JCAMP-DX=Revision 4.10 
##DATA TYPE=MASS SPECTRUM
##SAMPLE DESCRIPTION=James Little
##NAMES=HP
##CAS NAME=1-Propene-1,2,3-tricarboxylic acid, tributyl ester
##MOLFORM=C18H30O6
##CAS REGISTRY NO=7568-58-3
##MP= -300
##BP= -300
##MW= 342
##$RETENTION INDEX=0
##$CONDENSED SPECTRUM=NO
##NPOINTS= 54
##XYDATA=(XY..XY) 1 
    39         56
    40         11
    41        325
    42         18
    43         41
    53         11
    55         75
    56         95
    57        592
    58         28
    67         31
    69         23
    71          8
    75          9
    83         20
    84        104
    85         30
    86          4
    87          6
   101         16
   111         51
   112        999
   113         89
   114         21
   128         19
   129         55
   130         38
   131          8
   138        154
   139        477
   140         72
   141         12
   156        616
   157        890
   158         68
   159         14
   166         35
   167         12
   168         78
   169         10
   185         63
   186         22
   200         10
   211         10
   212        133
   213        215
   214         28
   226          5
   231         15
   241         36
   242         12
   268         45
   269        157
   270         31