##TITLE=Library Entry 62551
##JCAMP-DX=Revision 4.10 
##DATA TYPE=MASS SPECTRUM
##SAMPLE DESCRIPTION=A.Mazepa, Phys.-Chem.Institute, Odessa, Ukraine
##NAMES=HP
##CAS NAME=Benzene, 1-[(chloromethyl)sulfonyl]-4-methyl-
##MOLFORM=C8H9ClO2S
##CAS REGISTRY NO=7569-26-8
##MP= -300
##BP= -300
##MW= 204
##$RETENTION INDEX=0
##$CONDENSED SPECTRUM=NO
##NPOINTS= 42
##XYDATA=(XY..XY) 1 
    50         17
    51         40
    52          6
    53          4
    55          1
    57          1
    61          3
    62         18
    63         66
    64         14
    65        204
    66          8
    67          4
    69          1
    71          1
    74          3
    75          1
    76          2
    77         19
    78         10
    79          3
    86          2
    87          2
    89         46
    90         21
    91        999
    92         77
    93          2
    95          1
   105          3
   107          7
   111          1
   139         37
   140          2
   155        634
   156         60
   157         31
   158          2
   204        138
   205         12
   206         52
   207          3