##TITLE=Library Entry 3438
##JCAMP-DX=Revision 4.10 
##DATA TYPE=MASS SPECTRUM
##SAMPLE DESCRIPTION=Chemical Concepts
##NAMES=HP
##CAS NAME=2-Isopropenyl-5-methylhex-4-enal
##MOLFORM=C10H16O
##CAS REGISTRY NO=75697-98-2
##MP= -300
##BP= -300
##MW= 152
##$RETENTION INDEX=0
##$CONDENSED SPECTRUM=NO
##NPOINTS= 83
##XYDATA=(XY..XY) 1 
    26         13
    27        137
    28         35
    29        120
    30          7
    31         18
    37          9
    38         20
    39        256
    40         48
    41        999
    42         73
    43        307
    44         25
    45         14
    46          5
    50         16
    51         38
    52         17
    53        133
    54         27
    55        147
    56         57
    57         44
    58         50
    59         87
    60          5
    63         12
    65         48
    66         19
    67        210
    68        167
    69        999
    70         95
    71         86
    72         24
    73          4
    77         66
    78         13
    79        107
    80         32
    81        195
    82         67
    83        187
    84        329
    85         94
    86         11
    91         70
    92         14
    93         51
    94         33
    95         89
    96         35
    97         43
    98         10
    99          6
   100          5
   103          7
   105         25
   106          5
   107         54
   108         26
   109        186
   110         32
   111         29
   112          9
   113          5
   119         24
   120          5
   121         35
   122         17
   123        122
   124         29
   125         10
   134         12
   135          8
   137         62
   138         19
   139         10
   151          5
   152         36
   153          6
   154          2