##TITLE=Library Entry 85827
##JCAMP-DX=Revision 4.10 
##DATA TYPE=MASS SPECTRUM
##SAMPLE DESCRIPTION=NIST Mass Spectrometry Data Center
##NAMES=HP
##CAS NAME=Dimethyl allylphosphonate
##MOLFORM=C5H11O3P
##CAS REGISTRY NO=757-54-0
##MP= -300
##BP= -300
##MW= 150
##$RETENTION INDEX=0
##$CONDENSED SPECTRUM=NO
##NPOINTS= 82
##XYDATA=(XY..XY) 1 
    12          5
    13          5
    14         39
    15        199
    16         14
    17          6
    18         13
    19          2
    25          2
    26         14
    27         40
    28        225
    29        101
    30         20
    31         83
    32         65
    33         10
    37         19
    38         59
    39        370
    40         54
    41        285
    42         23
    43          7
    44          6
    45         25
    47        252
    48         31
    49         30
    50          3
    51          4
    53          6
    54         43
    55         46
    56         10
    57         13
    58          4
    59          3
    61          3
    62         23
    63         43
    64          5
    65         17
    66          9
    68         24
    69         13
    71          9
    73          3
    77         24
    79        667
    80         60
    81          8
    82          2
    86          4
    87          6
    88          4
    89          3
    93        114
    94        216
    96        459
    97         22
    98          3
   103         20
   104          4
   105         16
   109        999
   110        136
   111         40
   112          2
   117          5
   118          8
   119         11
   120         31
   121          9
   123        103
   124        135
   125          7
   132          3
   135         24
   149         79
   150        108
   151         10