##TITLE=Library Entry 49346
##JCAMP-DX=Revision 4.10 
##DATA TYPE=MASS SPECTRUM
##SAMPLE DESCRIPTION=Chemical Concepts
##NAMES=HP
##CAS NAME=1,4-Dioxaspiro[4.5]deca-6,9-dien-8-one, 7-methoxy-
##MOLFORM=C9H10O4
##CAS REGISTRY NO=75714-52-2
##MP= -300
##BP= -300
##MW= 182
##$RETENTION INDEX=0
##$CONDENSED SPECTRUM=NO
##NPOINTS= 119
##XYDATA=(XY..XY) 1 
    25         16
    26        162
    27        116
    28         70
    29        178
    30         39
    31         35
    36          5
    37         38
    38         81
    39        298
    40         43
    41         88
    42         79
    43        135
    44         19
    45         55
    46          2
    47          4
    48          3
    49         36
    50        244
    51        593
    52        204
    53        319
    54        188
    55        175
    56         28
    57         23
    58          4
    59         28
    60          5
    61         32
    62         78
    63         96
    64        148
    65         99
    66        147
    67         97
    68        122
    69        614
    70         73
    71         16
    72          4
    73         23
    74          7
    75          6
    76         10
    77         42
    78         30
    79        999
    80        113
    81         78
    82         76
    83         59
    84         33
    85         22
    86          4
    87          4
    91         12
    92         97
    93         43
    94        176
    95        529
    96        100
    97         57
    98        451
    99         47
   100          6
   101          4
   103          2
   104          2
   105         10
   106          8
   107         61
   108         70
   109        362
   110         77
   111        122
   112         15
   113        252
   114         14
   115          5
   119          2
   120          4
   121         21
   122        517
   123        136
   124         35
   125         55
   126        212
   127         20
   128          5
   135          3
   136          2
   137         51
   138         22
   139        600
   140        113
   141         24
   142          6
   143          3
   151        107
   152        121
   153         42
   154        513
   155         58
   156          7
   163          2
   164          7
   165          4
   166          2
   167         82
   168          8
   181         44
   182        801
   183         94
   184         40
   185          5