##TITLE=Library Entry 67311
##JCAMP-DX=Revision 4.10 
##DATA TYPE=MASS SPECTRUM
##SAMPLE DESCRIPTION=Exported from NIST MS Search
##NAMES=HP
##CAS NAME=Ethyne, dichloro-
##MOLFORM=C2Cl2
##CAS REGISTRY NO=7572-29-4
##MP= -300
##BP= -300
##MW= 94
##$RETENTION INDEX=0
##$CONDENSED SPECTRUM=NO
##NPOINTS= 16
##XYDATA=(XY..XY) 1 
    24        120
    25         10
    35        178
    37         58
    47        301
    48         33
    49         75
    59        250
    60         45
    61         96
    62         15
    94        999
    95         61
    96        647
    97         41
    98        106