##TITLE=Library Entry 22422
##JCAMP-DX=Revision 4.10 
##DATA TYPE=MASS SPECTRUM
##SAMPLE DESCRIPTION=Chemical Concepts
##NAMES=HP
##CAS NAME=Cyclohexane, 1-(1,1-dimethylethyl)-4-methyl-
##MOLFORM=C11H22
##CAS REGISTRY NO=75736-66-2
##MP= -300
##BP= -300
##MW= 154
##$RETENTION INDEX=0
##$CONDENSED SPECTRUM=NO
##NPOINTS= 83
##XYDATA=(XY..XY) 1 
    26          5
    27        165
    28         30
    29        302
    30          8
    31          1
    37          1
    38          4
    39        182
    40         34
    41        602
    42         78
    43        300
    44         12
    45          1
    46          1
    50          6
    51         21
    52         10
    53         92
    54         62
    55        691
    56        999
    57        912
    58         47
    59          1
    60          1
    62          1
    63          6
    64          2
    65         23
    66         13
    67        131
    68         51
    69        189
    70         44
    71         81
    72          6
    76          2
    77         31
    78          8
    79         39
    80         15
    81        226
    82         43
    83        181
    84         28
    85         44
    86          2
    87          1
    89          1
    90          1
    91         26
    92          6
    93         13
    94          9
    95         60
    96        309
    97        300
    98         37
    99         16
   100          1
   101          1
   102          1
   108          3
   109         25
   110          8
   111         11
   112         10
   113          9
   121          4
   122          2
   123         15
   124          5
   125          5
   126          6
   138          7
   139         36
   140          7
   152          4
   153          2
   154         21
   155          5