##TITLE=Library Entry 13999
##JCAMP-DX=Revision 4.10 
##DATA TYPE=MASS SPECTRUM
##SAMPLE DESCRIPTION=R. SELF, AGRIC. RES. COUNC., FOOD RES. INST., NORWICH,
 U
##NAMES=HP
##CAS NAME=N,S-Bis(heptafluorobutyryl)cysteine propyl ester
##MOLFORM=C14H11F14NO4S
##CAS REGISTRY NO=75743-29-2
##MP= -300
##BP= -300
##MW= 555
##$RETENTION INDEX=0
##$CONDENSED SPECTRUM=NO
##NPOINTS= 119
##XYDATA=(XY..XY) 1 
    28         64
    29         38
    30          5
    31         16
    32         64
    38         12
    39         36
    40          2
    41        250
    42         60
    43        999
    44         65
    45         18
    46         21
    47         31
    50         11
    51          4
    52          8
    53          2
    54         10
    55         31
    57          5
    58         10
    59         68
    60          8
    61         23
    63          9
    64          1
    66          8
    67          7
    68         19
    69        295
    70        104
    71         10
    73          5
    74         47
    75         31
    76          9
    77          2
    78          2
    81          3
    82          1
    86         24
    87         15
    91          2
    93          6
    96          5
    97          3
   100         24
   101         13
   102         86
   103        153
   104         17
   105         11
   107          2
   109         19
   113         22
   114          9
   119         36
   121          7
   131         12
   145        339
   146         32
   147         21
   150          9
   169        248
   170         10
   196         12
   197         32
   209         11
   210         21
   213          9
   214          9
   215         16
   218          8
   226         19
   227         10
   238        150
   239         64
   240        366
   241         25
   242          9
   243         15
   252          9
   253         15
   254         66
   255         90
   256         15
   264         12
   265         50
   266        220
   267         24
   270        160
   271         27
   272         64
   282         12
   283         43
   284         73
   288         15
   298         93
   299          7
   300         15
   301        138
   302         14
   312         17
   316         31
   325         12
   326         32
   353          8
   358        139
   359         16
   448         28
   450         35
   466         10
   468        338
   469         36
   470         18
   494         17
   555         12