##TITLE=Library Entry 31607
##JCAMP-DX=Revision 4.10 
##DATA TYPE=MASS SPECTRUM
##SAMPLE DESCRIPTION=Humboldt-Universitat zu Berlin, Department of Chemistry
, Analytical Group
##NAMES=HP
##CAS NAME=m-Azidophenyl sulfone
##MOLFORM=C12H8N6O2S
##CAS REGISTRY NO=75742-13-1
##MP= -300
##BP= -300
##MW= 300
##$RETENTION INDEX=0
##$CONDENSED SPECTRUM=NO
##NPOINTS= 176
##XYDATA=(XY..XY) 1 
    14          3
    15          2
    17          2
    18          7
    26         13
    27         20
    28         36
    29          5
    32          1
    36          1
    37         80
    38         94
    39        595
    40         45
    41          5
    42          3
    43          1
    45         28
    47          2
    48          8
    49          6
    50        139
    51         58
    52         41
    53          6
    54          3
    55          3
    56          1
    57          6
    58          5
    59          2
    60          2
    61         36
    62        113
    63        999
    64        395
    65         34
    66          7
    67          2
    68          3
    69         21
    70          6
    71          4
    72          1
    73          4
    74         29
    75         30
    76         58
    77         23
    78         18
    79         10
    80         10
    81          3
    82          8
    83         18
    84          5
    85          3
    86          4
    87         18
    88         36
    90        909
    91         84
    92         16
    93          7
    94          5
    95          7
    96          6
    97          2
    98          5
    99          5
   100          5
   101          9
   102         14
   103         22
   104          5
   105          2
   106          9
   107          2
   108          3
   109          7
   110          7
   111          4
   112          2
   113          6
   114         11
   115          7
   116          8
   117          6
   118         96
   119         10
   120          3
   121          2
   122          7
   123          6
   124          3
   125         21
   126         68
   127         48
   128         23
   129         19
   130         12
   131          3
   134          3
   135         10
   136          6
   137          2
   138          7
   139          5
   140         45
   141         27
   142         11
   143          2
   144          1
   145          1
   146          3
   147          3
   148          2
   149          1
   150          3
   151         15
   152        120
   153        212
   154        128
   155         20
   156          5
   159          2
   160          5
   161          2
   162          2
   163          2
   164          2
   165         10
   166         14
   167         18
   168         24
   169         13
   170          5
   171          4
   172         13
   173          8
   174          3
   175          1
   176          1
   177          3
   179        533
   180         95
   181         12
   182         40
   183          4
   184          3
   185          1
   187          4
   188          3
   189          1
   190          1
   195         17
   196         15
   197          4
   198          6
   199          9
   200          4
   201          3
   203          2
   215          2
   218          5
   227          5
   244         77
   245         10
   246          4
   248          2
   272          6
   273          1
   274          2
   300         51
   301          8
   302          3