##TITLE=Library Entry 68992
##JCAMP-DX=Revision 4.10 
##DATA TYPE=MASS SPECTRUM
##SAMPLE DESCRIPTION=A.A.Kutin, Moscow, Russia
##NAMES=HP
##CAS NAME=Furan-2-carboxamide, N-(5-chloro-2-hydroxyphenyl)-
##MOLFORM=C11H8ClNO3
##CAS REGISTRY NO=75748-60-6
##MP= -300
##BP= -300
##MW= 237
##$RETENTION INDEX=0
##$CONDENSED SPECTRUM=NO
##NPOINTS= 153
##XYDATA=(XY..XY) 1 
    35          1
    36          2
    37         18
    38         51
    39        172
    40         11
    41          8
    42          5
    43          3
    44          2
    45          1
    47          0
    48          0
    49          5
    50         26
    51         69
    52         35
    53         22
    54          6
    55          4
    56          1
    57          2
    60          1
    61          6
    62         10
    63         24
    64          6
    65          5
    66         14
    67         48
    68         12
    69          2
    70          1
    71          0
    72          2
    73         13
    74          3
    75          9
    76         20
    77          8
    78         53
    79         18
    80          4
    81          1
    82          0
    83          1
    84          1
    85          3
    86          5
    87         16
    88          4
    89          7
    90          3
    91          2
    92          1
    93          2
    95        999
    96         49
    97          5
    98          3
    99          6
   101          4
   102          1
   103          0
   104          0
   105          0
   106          0
   107          0
   108          0
   109          0
   112          5
   113          6
   114         65
   115          8
   116         21
   117          4
   118          1
   119          0
   124          2
   125          1
   126          2
   127          2
   128          3
   129         10
   130          0
   131          2
   134          0
   135          1
   136          0
   137          0
   139          0
   140          1
   142         29
   143          4
   144          9
   145          2
   146          1
   149          0
   151          1
   152          0
   153          0
   154          0
   155          0
   156          1
   157          0
   162          0
   163          1
   164          0
   165          1
   166          1
   167          0
   168          1
   169          7
   170          1
   171          3
   172          0
   173          0
   174          2
   175          0
   179          0
   180          3
   181          0
   182          1
   183          1
   185          0
   190          2
   191          3
   192          0
   193          0
   200          0
   201          0
   202          0
   203          1
   204          0
   205          0
   208          1
   209          1
   210          0
   211          0
   213          1
   218          1
   219         46
   220          7
   221         15
   222          1
   227          0
   235          0
   237        273
   238         36
   239         92
   240         11
   241          1
   242          0