##TITLE=Library Entry 13993
##JCAMP-DX=Revision 4.10 
##DATA TYPE=MASS SPECTRUM
##SAMPLE DESCRIPTION=R. SELF, AGRIC. RES. COUNC., FOOD RES. INST., NORWICH,
 U
##NAMES=HP
##CAS NAME=N,O-Bis(heptafluorobutyryl)serine propyl ester
##MOLFORM=C14H11F14NO5
##CAS REGISTRY NO=75743-14-5
##MP= -300
##BP= -300
##MW= 539
##$RETENTION INDEX=0
##$CONDENSED SPECTRUM=NO
##NPOINTS= 113
##XYDATA=(XY..XY) 1 
    29         23
    30          0
    31         14
    33          3
    36          0
    38          4
    39         21
    40         14
    41        263
    42         74
    43        999
    44         38
    45          8
    47          4
    50          2
    51          3
    52          4
    54          5
    55         32
    57         12
    58         11
    59          8
    65          5
    67          3
    68          4
    69        232
    70        171
    71          6
    72          6
    73          1
    74          3
    75          0
    76          2
    77          1
    83          0
    84          5
    85          0
    86         24
    87          2
    88          4
    90          6
    91          2
    92          2
    93          3
    95          0
    96          5
   100         23
   101          2
   107          3
   109         10
   110          0
   114          9
   119         26
   123          1
   128          3
   129          2
   131          2
   147          0
   149          3
   150          6
   159          3
   160          3
   169        168
   170          4
   188          4
   190         10
   191          2
   196          3
   197          9
   209          5
   210         80
   211          5
   214          2
   215          3
   218          7
   219          4
   226          4
   236          4
   237          4
   238        373
   239        494
   240         48
   241          4
   246          2
   252         12
   253         28
   254          7
   256         28
   264          7
   265         31
   266         39
   267          7
   268          4
   270         31
   271          2
   279         10
   280          4
   281          3
   282          6
   283         20
   284         49
   285         11
   300          9
   325          5
   326         19
   328          3
   432         21
   433          2
   452         29
   453          3
   478         15
   479          3
   480          4