##TITLE=Library Entry 8612
##JCAMP-DX=Revision 4.10 
##DATA TYPE=MASS SPECTRUM
##SAMPLE DESCRIPTION=P.FELKER,DEP. BOTANY PLANT PATHOL.,MICH. STATE UNIV.,MI
CH.,USA
##NAMES=HP
##CAS NAME=3-Methylbutyl N-(heptafluorobutyryl)leucinate
##MOLFORM=C15H22F7NO3
##CAS REGISTRY NO=75743-21-4
##MP= -300
##BP= -300
##MW= 397
##$RETENTION INDEX=0
##$CONDENSED SPECTRUM=NO
##NPOINTS= 18
##XYDATA=(XY..XY) 1 
    43        999
    69        679
    71        345
   114         11
   115          8
   119          5
   169         49
   226         50
   240        384
   253         24
   266         29
   271          9
   282        545
   310          2
   326          1
   328          6
   341         51
   354          1