##TITLE=Library Entry 62390
##JCAMP-DX=Revision 4.10 
##DATA TYPE=MASS SPECTRUM
##SAMPLE DESCRIPTION=P.FELKER,DEP. BOTANY PLANT PATHOL.,MICH. STATE UNIV.,MI
CH.,USA
##NAMES=HP
##CAS NAME=3-Methylbutyl N-(heptafluorobutyryl)phenylalaninate
##MOLFORM=C18H20F7NO3
##CAS REGISTRY NO=75742-89-1
##MP= -300
##BP= -300
##MW= 431
##$RETENTION INDEX=0
##$CONDENSED SPECTRUM=NO
##NPOINTS= 19
##XYDATA=(XY..XY) 1 
    69        116
    70        425
    71        335
    91        999
   103        184
   115          4
   119        142
   131        143
   148        515
   169         48
   175          8
   197          2
   218        174
   262          1
   316        137
   344          2
   362          3
   416          1
   431          2