##TITLE=Library Entry 74392
##JCAMP-DX=Revision 4.10 
##DATA TYPE=MASS SPECTRUM
##SAMPLE DESCRIPTION=NIST Mass Spectrometry Data Center, 1994
##NAMES=HP
##CAS NAME=Propanamide, N,N-dimethyl-
##MOLFORM=C5H11NO
##CAS REGISTRY NO=758-96-3
##MP= -300
##BP= -300
##MW= 101
##$RETENTION INDEX=866
##$CONDENSED SPECTRUM=NO
##NPOINTS= 36
##XYDATA=(XY..XY) 1 
    13          3
    14         11
    15        105
    18          7
    26         51
    27        192
    28        153
    29        332
    30         53
    31         10
    32          6
    38          5
    39         16
    40         23
    41         46
    42        311
    43         97
    44        834
    45        479
    46         79
    52          4
    53          8
    54          9
    55         73
    56         81
    57        404
    58        133
    59          5
    68          9
    70          8
    72        872
    73         62
    74          4
    86         14
   101        999
   102         64