##TITLE=Library Entry 31552
##JCAMP-DX=Revision 4.10 
##DATA TYPE=MASS SPECTRUM
##SAMPLE DESCRIPTION=Japan AIST/NIMC Database- Spectrum MS-NW-4364
##NAMES=HP
##CAS NAME=Butane, 2,3-dichloro-
##MOLFORM=C4H8Cl2
##CAS REGISTRY NO=7581-97-7
##MP= -300
##BP= -300
##MW= 126
##$RETENTION INDEX=763
##$CONDENSED SPECTRUM=NO
##NPOINTS= 73
##XYDATA=(XY..XY) 1 
    14          2
    15         11
    25          6
    26         53
    27        403
    28         34
    29        106
    30          2
    35          9
    36         18
    37         14
    38         24
    39        163
    40         13
    41         78
    42          3
    43         11
    44          1
    45          1
    47          4
    48          4
    49         45
    50         39
    51         40
    52         11
    53         80
    54         25
    55        441
    56         42
    57          2
    60          6
    61         25
    62        986
    63        999
    64        336
    65        353
    66          7
    72          1
    73          9
    74          1
    75         91
    76          7
    77         29
    78          2
    83         10
    85          8
    87          2
    88          1
    89         52
    90        292
    91         92
    92         99
    93         27
    94          1
    95          1
    96         12
    97         34
    98          9
    99         22
   100          2
   101          4
   109          3
   110          1
   111          7
   112          1
   113          3
   124          5
   125         13
   126         17
   127          9
   128         10
   129          2
   130          2