##TITLE=Library Entry 97775
##JCAMP-DX=Revision 4.10 
##DATA TYPE=MASS SPECTRUM
##SAMPLE DESCRIPTION=W. Breuer, Fac. Inorg. Chem., Univ. Duisburg, Duisburg,
 W. Ger.
##NAMES=HP
##CAS NAME=Pentafluorophenylbromine(V) tetrafluoride
##MOLFORM=C6BrF9
##CAS REGISTRY NO=75822-05-8
##MP= -300
##BP= -300
##MW= 322
##$RETENTION INDEX=0
##$CONDENSED SPECTRUM=NO
##NPOINTS= 39
##XYDATA=(XY..XY) 1 
    79        140
    81        140
    98        220
    99        270
   100         50
   117        999
   118        100
   119         20
   123         70
   124         90
   131         70
   136         70
   137         90
   138         10
   143         90
   148        140
   149         60
   155        230
   157         10
   162        130
   167        960
   168        650
   186        640
   193         70
   205        380
   224        100
   227         20
   229         20
   243        100
   246        970
   248        970
   265         60
   267         60
   284         70
   286         70
   303         70
   305         70
   322        230
   324        230