##TITLE=Library Entry 65962
##JCAMP-DX=Revision 4.10 
##DATA TYPE=MASS SPECTRUM
##SAMPLE DESCRIPTION=Japan AIST/NIMC Database- Spectrum MS-IW-4342
##NAMES=HP
##CAS NAME=1-Amino-2-methylpyridinium iodide
##MOLFORM=C6H9IN2
##CAS REGISTRY NO=7583-90-6
##MP= -300
##BP= -300
##MW= 236
##$RETENTION INDEX=0
##$CONDENSED SPECTRUM=NO
##NPOINTS= 94
##XYDATA=(XY..XY) 1 
    15          2
    16         29
    17         55
    18         62
    26          9
    27         17
    28         41
    29          1
    30          2
    31          2
    32          3
    36          1
    37         10
    38         21
    39         87
    40         42
    41         25
    42         13
    43          5
    44          4
    45          5
    46         15
    49          4
    50         40
    51         96
    52         55
    53         39
    54         14
    55          4
    56          1
    57          6
    60          1
    61          7
    62         11
    63         31
    64         26
    65        191
    66        454
    67         87
    68          5
    69          3
    70          1
    71          4
    74          1
    75          3
    76          5
    77         12
    78        159
    79         20
    80         10
    81          6
    82          2
    83          3
    84          1
    85          3
    87          1
    88          1
    90          2
    91         12
    92        282
    93        999
    94         78
    95          5
    96          1
    97          3
    99          1
   103          1
   104         15
   105          4
   106          2
   107          5
   108         79
   109          7
   111          2
   119          3
   123          1
   125          1
   127        137
   128        157
   135          1
   143          2
   168          1
   169          5
   181          8
   182          3
   183          3
   194          6
   195         10
   196          2
   209          1
   210          4
   211          1
   219          3
   220          1