##TITLE=Library Entry 89579
##JCAMP-DX=Revision 4.10 
##DATA TYPE=MASS SPECTRUM
##SAMPLE DESCRIPTION=NIST Mass Spectrometry Data Center, 1990.
##NAMES=HP
##CAS NAME=1,2,3,4-Tetrahydronaphthalene-d12
##MOLFORM=C10D12
##CAS REGISTRY NO=75840-23-2
##MP= -300
##BP= -300
##MW= 144
##$RETENTION INDEX=0
##$CONDENSED SPECTRUM=NO
##NPOINTS= 86
##XYDATA=(XY..XY) 1 
    16          2
    17          4
    18         33
    19          2
    26          1
    28         29
    30         93
    31          6
    32         19
    33          1
    34          4
    38          8
    40         35
    42        183
    43          6
    44         10
    45          3
    46         22
    50          4
    52         84
    54        153
    55          9
    56         39
    57          4
    58         23
    60         12
    61         30
    62         14
    63          7
    64         34
    65          4
    66        100
    67         14
    68         53
    69         17
    70        109
    71          5
    72          4
    74          4
    76         22
    77          3
    78         23
    79          5
    80         24
    81          3
    82        128
    83          3
    84        187
    85         14
    86         13
    87          1
    88          4
    89          1
    90          6
    92          2
    94         39
    95          3
    96          4
    97          1
    98        314
    99         28
   100          3
   106          4
   108         32
   110        107
   112        999
   113         85
   114         10
   122        119
   123         14
   124         33
   125         14
   126         98
   127          8
   132          3
   134         13
   136         31
   137          5
   138         14
   139          2
   140          5
   141          2
   142         52
   143         49
   144        312
   145         33