##TITLE=Library Entry 856
##JCAMP-DX=Revision 4.10 
##DATA TYPE=MASS SPECTRUM
##SAMPLE DESCRIPTION=W.KROSZCZYNSKI,INST. ORG. CHEM., POL. ACAD. SCI., WARSA
W, PO
##NAMES=HP
##CAS NAME=3'H-Cycloprop[1,2]androsta-1,4,6-triene-3,17-dione, 1'-carboethox
y-1'-cyano-1.beta.,2.beta.-dihydro-
##MOLFORM=C24H27NO4
##CAS REGISTRY NO=75857-76-0
##MP= -300
##BP= -300
##MW= 393
##$RETENTION INDEX=0
##$CONDENSED SPECTRUM=NO
##NPOINTS= 379
##XYDATA=(XY..XY) 1 
    18         59
    19          4
    20          0
    21          0
    22          0
    23          0
    24          1
    25          2
    26         23
    27        299
    28        102
    29        999
    30         24
    31          8
    32          0
    33          1
    34          0
    35          0
    36          3
    37          3
    38          6
    39        174
    40         44
    41        441
    42         65
    43        106
    44         24
    45         22
    46          1
    47          2
    48          0
    49          0
    50         10
    51         58
    52         47
    53        179
    54         44
    55        237
    56         27
    57         16
    58         10
    59          8
    60          1
    61          1
    62          3
    63         37
    64         48
    65        109
    66         36
    67        231
    68         70
    69         50
    70         10
    71          8
    72          1
    73          2
    74          5
    75         16
    76         21
    77        190
    78         76
    79        151
    80         34
    81        111
    82         24
    83         17
    84          5
    85          6
    86          3
    87          5
    88         10
    89         43
    90         30
    91        226
    92         42
    93         67
    94         16
    95         43
    96         12
    97         30
    98         10
    99          5
   100          1
   101         16
   102         39
   103         78
   104         49
   105        127
   106         29
   107        113
   108         21
   109         16
   110         10
   111          6
   112          7
   113         14
   114         14
   115        220
   116         74
   117         73
   118         26
   119         39
   120         23
   121         30
   122          3
   123         16
   124         10
   125         10
   126         19
   127         89
   128        162
   129        146
   130         55
   131        103
   132         38
   133         28
   134         14
   135          7
   136          9
   137          5
   138         12
   139         52
   140         90
   141        140
   142         85
   143         76
   144         39
   145         43
   146         20
   147         14
   148         11
   149         89
   150         19
   151         28
   152         78
   153        132
   154         97
   155         97
   156         51
   157         54
   158         35
   159         25
   160         14
   161         11
   162         10
   163         10
   164         21
   165         89
   166        129
   167        114
   168         85
   169         77
   170         51
   171        146
   172         53
   173         24
   174          9
   175          8
   176         11
   177         25
   178         57
   179         62
   180         87
   181         79
   182         61
   183         56
   184         38
   185         45
   186         19
   187          9
   188          8
   189         15
   190         43
   191         42
   192         42
   193         45
   194         61
   195         70
   196         77
   197         49
   198         27
   199         61
   200         18
   201         11
   202         11
   203         23
   204         37
   205         35
   206         43
   207         41
   208         49
   209         50
   210         81
   211         39
   212         22
   213         34
   214         16
   215          9
   216         15
   217         22
   218         38
   219         35
   220         56
   221         46
   222         64
   223         55
   224         47
   225         27
   226         20
   227         20
   228         10
   229          8
   230         11
   231         16
   232         26
   233         32
   234         47
   235         43
   236         53
   237         43
   238         21
   239         17
   240         22
   241         17
   242         11
   243          8
   244         13
   245         27
   246         27
   247         29
   248         57
   249         38
   250         34
   251         20
   252         18
   253         13
   254         29
   255         12
   256          8
   257          7
   258         10
   259         13
   260         24
   261         25
   262         49
   263         44
   264         32
   265         22
   266         19
   267         13
   268         57
   269         19
   270          9
   271          5
   272          9
   273         11
   274         26
   275         20
   276         51
   277         41
   278         34
   279         14
   280         32
   281         40
   282         21
   283         10
   284          8
   285          5
   286         13
   287         12
   288         17
   289         12
   290         34
   291         40
   292         67
   293         27
   294         27
   295         13
   296         11
   297          7
   298          3
   299          2
   300          5
   301          7
   302         19
   303         12
   304        112
   305         73
   306         38
   307         15
   308         32
   309         16
   310          9
   311          4
   312          3
   313          3
   314         12
   315          7
   316          4
   317          3
   318         16
   319         32
   320         75
   321         28
   322         42
   323         22
   324         13
   325          7
   326          5
   327          3
   328          2
   329          4
   330         13
   331         11
   332         97
   333         38
   334         15
   335          7
   336         38
   337         26
   338         14
   339          4
   340          3
   341          2
   342          2
   343          2
   344          1
   345          2
   346         10
   347         39
   348         44
   349         23
   350        462
   351        133
   352         22
   353          4
   354          1
   355          1
   356          1
   357          1
   358          1
   359          1
   360         26
   361         10
   362          4
   363          3
   364         38
   365         48
   366         15
   367          3
   368          1
   369          1
   370          1
   371          1
   372          0
   373          1
   374          2
   375          4
   376          6
   377          6
   378        145
   379         46
   380         14
   381          4
   382          2
   383          0
   384          0
   385          0
   386          0
   387          0
   388          0
   389          0
   390          1
   391          2
   393        312
   394        114
   395         21
   396          3
   397          1