##TITLE=Library Entry 24051
##JCAMP-DX=Revision 4.10 
##DATA TYPE=MASS SPECTRUM
##SAMPLE DESCRIPTION=NIST Mass Spectrometry Data Center
##NAMES=HP
##CAS NAME=13-Methyltetradecanal
##MOLFORM=C15H30O
##CAS REGISTRY NO=75853-51-9
##MP= -300
##BP= -300
##MW= 226
##$RETENTION INDEX=1680
##$CONDENSED SPECTRUM=NO
##NPOINTS= 71
##XYDATA=(XY..XY) 1 
    26          3
    27         93
    28         21
    29        228
    31         10
    38          3
    39        118
    40         25
    41        779
    42        164
    43        983
    44        254
    45         80
    46          3
    48          1
    50          2
    51          6
    53         57
    54        113
    55        655
    56        498
    57        999
    58         64
    65         11
    66         70
    67        373
    68        416
    69        569
    70        216
    71        365
    72         70
    81        315
    82        628
    83        342
    84        110
    85        177
    94         14
    95        286
    96        312
    97        182
    98         41
    99         37
   109        140
   110        100
   111         87
   112         26
   113         15
   123         73
   124         69
   125         27
   126         34
   127          9
   137         38
   138         20
   139          9
   140         10
   151         14
   152         20
   154         18
   155          3
   165          6
   166          7
   167          6
   180         19
   181          3
   182         19
   183          4
   193          2
   208          9
   211          2
   226          1