##TITLE=Library Entry 7125
##JCAMP-DX=Revision 4.10 
##DATA TYPE=MASS SPECTRUM
##SAMPLE DESCRIPTION=W.KROSZCZYNSKI,INST. ORG. CHEM., POL. ACAD. SCI., WARSA
W, PO
##NAMES=HP
##CAS NAME=3'H-Cycloprop(1,2)-5-cholest-1-en-3-one, 1'-carboethoxy-1'-cyano-
1,2-dihydro-
##MOLFORM=C32H49NO3
##CAS REGISTRY NO=75857-80-6
##MP= -300
##BP= -300
##MW= 495
##$RETENTION INDEX=0
##$CONDENSED SPECTRUM=NO
##NPOINTS= 478
##XYDATA=(XY..XY) 1 
    20          0
    22          0
    23          0
    24          0
    25          2
    26          8
    27         88
    28         20
    29        385
    30         11
    31          6
    32          1
    33          0
    34          0
    35          1
    36          0
    37          1
    38          5
    39         55
    40         18
    41        546
    42         68
    43        999
    44         39
    45          6
    46          0
    47          3
    48          1
    49          0
    50          4
    51          5
    52         14
    53         77
    54         28
    55        617
    56        109
    57        490
    58         21
    59          2
    60          0
    61          0
    62          0
    63          3
    64         12
    65         39
    66         17
    67        309
    68        139
    69        358
    70         81
    71        187
    72          9
    73          2
    74          2
    75          5
    76          2
    77         94
    78         33
    79        302
    80         67
    81        365
    82         74
    83        161
    84         29
    85         31
    86          4
    87          1
    88          0
    89          6
    90          5
    91        242
    92         48
    93        287
    94         91
    95        357
    96         40
    97         94
    98         13
    99          5
   100          3
   101          2
   102          7
   103         23
   104         28
   105        180
   106         61
   107        240
   108         81
   109        171
   110         26
   111         57
   112         10
   113          6
   114          8
   115         21
   116         33
   117         71
   118         52
   119        136
   120         79
   121        179
   122         78
   123        114
   124         27
   125         27
   126         26
   127         10
   128         21
   129         38
   130         45
   131         90
   132         42
   133         94
   134         42
   135         79
   136         49
   137         46
   138         26
   139         11
   140         47
   141         21
   142         20
   143         44
   144         32
   145         87
   146         56
   147        103
   148         37
   149         57
   150         11
   151         22
   152         16
   153         13
   154         18
   155         31
   156         25
   157         44
   158         41
   159        105
   160         65
   161         79
   162         26
   163         26
   164          9
   165         13
   166         13
   167         20
   168         83
   169         33
   170         36
   171         34
   172         56
   173         92
   174         65
   175         50
   176         21
   177         14
   178          8
   179         16
   180         11
   181         21
   182         18
   183         21
   184         29
   185         40
   186         39
   187         52
   188        126
   189         43
   190         20
   191         12
   192         11
   193         23
   194         14
   195         21
   196         21
   197         19
   198         24
   199         24
   200         19
   201         35
   202         19
   203         17
   204         22
   205         17
   206         19
   207         17
   208         13
   209         17
   210         17
   211         19
   212         26
   213         36
   214         24
   215         32
   216         16
   217         14
   218        121
   219         42
   220         30
   221         58
   222         18
   223         14
   224         16
   225         24
   226         22
   227         42
   228         25
   229         42
   230         18
   231         51
   232         64
   233         41
   234         24
   235         17
   236         13
   237         12
   238         18
   239         15
   240         23
   241         15
   242         26
   243         43
   244         22
   245         31
   246         16
   247         16
   248          8
   249          8
   250         14
   251         13
   252         16
   253         13
   254         18
   255         12
   256         19
   257          8
   258         23
   259         15
   260         10
   261         10
   262         18
   263         19
   264         12
   265          8
   266         31
   267         18
   268         31
   269         26
   270         21
   271         14
   272         20
   273         10
   274         10
   275         35
   276         13
   277         10
   278         10
   279          8
   280         24
   281         17
   282         33
   283         11
   284         22
   285         13
   286         13
   287         16
   288         19
   289          5
   290          4
   291          6
   292          9
   293          7
   294         68
   295         38
   296         52
   297         22
   298         31
   299         24
   300         18
   301         12
   302          3
   303          2
   304          1
   305          3
   306          5
   307          3
   308         19
   309         27
   310         24
   311         14
   312         77
   313         45
   314         31
   315         26
   316          8
   317          3
   318          3
   319          7
   320          8
   321          3
   322         13
   323         14
   324         16
   325         14
   326        146
   327         57
   328        315
   329         87
   330         13
   331          2
   332          1
   333          1
   334          2
   335          4
   336         28
   337         12
   338         18
   339         30
   340        433
   341        244
   342         98
   343         24
   344          4
   345          0
   346          1
   347          3
   348          2
   349          4
   350          5
   351          6
   352          7
   353         10
   354         33
   355         39
   356         35
   357         10
   358          3
   359          1
   360          0
   361          1
   362          2
   363          3
   364         14
   365         14
   366         16
   367        121
   368         44
   369         19
   370         28
   371          8
   372          3
   373          1
   374          1
   375          1
   376          2
   377          2
   378          3
   379          4
   380         14
   381         12
   382         87
   383         54
   384         18
   385          5
   386          3
   387          1
   388          1
   389          1
   390          2
   391          2
   392          7
   393          6
   394         11
   395          5
   396          7
   397          7
   398          2
   399          2
   400          5
   401          1
   402          3
   403          2
   404          3
   405          1
   406          8
   407          4
   408          6
   409          5
   410         30
   411         15
   412          5
   413          4
   414          2
   415          2
   416          2
   417          1
   418          1
   419          1
   420          2
   421         12
   422         18
   423          8
   424         16
   425          9
   426          9
   427          3
   428          1
   429          0
   430          1
   431          2
   432          9
   433          4
   434         22
   435          6
   436          3
   437          3
   438         41
   439         20
   440         10
   441          4
   442          3
   443          2
   444          1
   445          0
   446          1
   447          2
   448          9
   449         37
   450         26
   451         14
   452         24
   453        152
   454         52
   455         10
   456          1
   457          0
   458          1
   459          1
   460          1
   461          1
   462          4
   463          5
   464          3
   465          4
   466         45
   467        238
   468         80
   469         17
   470          2
   471          1
   472          0
   473          1
   474          0
   475          1
   476          2
   477         17
   478         30
   479         15
   480        103
   481         40
   482          9
   483          1
   484          0
   485          0
   486          0
   487          0
   488          0
   489          0
   490          1
   491          1
   492          1
   493          5
   495        356
   496        143
   497         33
   498          6
   499          1