##TITLE=Library Entry 94513
##JCAMP-DX=Revision 4.10 
##DATA TYPE=MASS SPECTRUM
##SAMPLE DESCRIPTION=NIST Mass Spectrometry Data Center, 1994
##NAMES=HP
##CAS NAME=2,3-Difluorobenzyl alcohol
##MOLFORM=C7H6F2O
##CAS REGISTRY NO=75853-18-8
##MP= -300
##BP= -300
##MW= 144
##$RETENTION INDEX=0
##$CONDENSED SPECTRUM=NO
##NPOINTS= 87
##XYDATA=(XY..XY) 1 
    14          5
    16          1
    17         10
    18          8
    19          4
    20          6
    26          9
    27         12
    28         18
    29        350
    30         53
    31        306
    32          6
    33          8
    37         55
    38         82
    39         77
    40          7
    44         17
    45          0
    47          7
    48         12
    49         39
    50        173
    51        138
    52         23
    53         11
    55         12
    56         36
    57        161
    58          8
    60          9
    61         73
    62        122
    63        346
    64         35
    65         16
    68         96
    69         80
    70         57
    72         27
    73         29
    74         88
    75        262
    76         35
    77         79
    79          8
    80         25
    81         92
    82         11
    83         21
    84         12
    85         14
    86         16
    87         26
    88         76
    89         22
    92         24
    93         51
    94         78
    95        773
    96        182
    97        110
    98         10
    99         20
   100         13
   101        113
   102          8
   105         21
   106          9
   107         83
   108          9
   112         19
   113        198
   114        245
   115        999
   116         74
   123        581
   124        137
   125        151
   126        104
   127        273
   128         21
   141         72
   143        436
   144        861
   145         61