##TITLE=Library Entry 5162
##JCAMP-DX=Revision 4.10 
##DATA TYPE=MASS SPECTRUM
##SAMPLE DESCRIPTION=K. Jacobson, LBC, NIDDK, NIH, Bethesda, MD 20892
##NAMES=HP
##CAS NAME=Methylamine, N-[4-(1-pyrrolidinyl)-2-butynyl]-
##MOLFORM=C9H16N2
##CAS REGISTRY NO=75858-55-8
##MP= -300
##BP= -300
##MW= 152
##$RETENTION INDEX=0
##$CONDENSED SPECTRUM=NO
##NPOINTS= 105
##XYDATA=(XY..XY) 1 
    41         36
    42        999
    43        190
    44        446
    45         11
    46          2
    47          3
    48          1
    49          2
    50         44
    51        126
    52        215
    53        236
    54        138
    55        262
    56         71
    57         37
    58         16
    59          6
    60          4
    61          5
    62          5
    63          4
    64         13
    65         56
    66         85
    67        167
    68        158
    69         38
    70        725
    71        153
    72         23
    73          3
    74          3
    75         51
    76          0
    77         27
    78         16
    79         38
    80        234
    81        126
    82        137
    83        303
    84        152
    85         10
    86          0
    87          0
    88          3
    89          1
    90          0
    91         16
    92         18
    93         78
    94         85
    95         73
    96         24
    97          5
    98          3
    99          2
   100          1
   103          4
   104          2
   105          5
   106         24
   107         14
   108        181
   109         22
   110         22
   111          5
   112          1
   113          1
   115          1
   116          0
   117          4
   118         11
   119          5
   120        262
   121        874
   122        166
   123         85
   124         13
   125          3
   126          2
   127          1
   128          0
   129          0
   132          1
   133          2
   134          1
   135          5
   136          3
   137          3
   138          2
   139          0
   140          1
   142          0
   143          0
   147          0
   148          0
   149          0
   150          1
   151         37
   152         24
   153         11
   154          2