##TITLE=Library Entry 857
##JCAMP-DX=Revision 4.10 
##DATA TYPE=MASS SPECTRUM
##SAMPLE DESCRIPTION=W.KROSZCZYNSKI,INST. ORG. CHEM., POL. ACAD. SCI., WARSA
W, PO
##NAMES=HP
##CAS NAME=3H-Cycloprop(1,2)androsta-1,4,6-trien-3-one, 1'-carboethoxy-1'-cy
ano-1.beta.2.beta.-dihydro-17.beta.-hydroxy-
##MOLFORM=C24H29NO4
##CAS REGISTRY NO=75857-75-9
##MP= -300
##BP= -300
##MW= 395
##$RETENTION INDEX=0
##$CONDENSED SPECTRUM=NO
##NPOINTS= 371
##XYDATA=(XY..XY) 1 
    25          1
    26         16
    27        238
    28         51
    29        999
    30         47
    31         77
    34          0
    35          0
    36          0
    37          3
    38          4
    39        112
    40         30
    41        357
    42         35
    43        204
    44        113
    45         61
    46          3
    47          1
    48          0
    49          1
    50          5
    51         43
    52         33
    53        136
    54         25
    55        250
    56         29
    57        276
    58         38
    59          5
    60          1
    61          1
    62          1
    63         31
    64         37
    65         89
    66         31
    67        185
    68         85
    69         59
    70         12
    71         24
    72          1
    73          2
    74          3
    75         12
    76          9
    77        161
    78         59
    79        195
    80         35
    81        130
    82         24
    83         24
    84          7
    85         12
    86          4
    87          3
    88          3
    89         25
    90         17
    91        230
    92         34
    93        106
    94         31
    95         51
    96         12
    97         60
    98         14
    99          2
   100          2
   101         10
   102         23
   103         68
   104         42
   105        109
   106         59
   107        127
   108         45
   109         32
   110         15
   111         12
   112          5
   113         11
   114         13
   115        163
   116         62
   117         73
   118         31
   119         35
   120         25
   121         16
   122         11
   123         18
   124         13
   125         13
   126         19
   127         72
   128        153
   129        126
   130         55
   131         65
   132         46
   133         90
   134         22
   135         12
   136          6
   137          4
   138         11
   139         46
   140         83
   141        144
   142         72
   143         75
   144         40
   145         49
   146         30
   147         19
   148          8
   149          7
   150         44
   151         68
   152         92
   153        123
   154         84
   155         91
   156         59
   157         58
   158         39
   159         29
   160         22
   161         11
   162          9
   163         10
   164         23
   165         87
   166        130
   167        134
   168         95
   169         73
   170         49
   171        116
   172         51
   173         34
   174         11
   175          9
   176         12
   177         37
   178         70
   179         66
   180         76
   181         85
   182         77
   183         62
   184         37
   185         38
   186         25
   187         15
   189         24
   190         44
   191         56
   192         62
   193         66
   194         77
   195         71
   196         87
   197         72
   198         40
   199         51
   200         19
   201          9
   202         21
   203         34
   204         46
   205         53
   206         51
   207         44
   208         60
   209         51
   210         78
   211         43
   212         28
   213         19
   214         17
   215         23
   216         29
   217         28
   218         89
   219         49
   220         48
   221         37
   222         64
   223         40
   224         46
   225         26
   226         18
   227         19
   228         21
   229         14
   230         18
   231         20
   232         35
   233         32
   234         45
   235         31
   236         47
   237         28
   238         26
   239         14
   240         17
   241         15
   242         19
   243         14
   244         14
   245         42
   246         35
   247         26
   248         38
   249         32
   250         35
   251         17
   252         14
   253         11
   254         24
   255          8
   256         16
   257          9
   258         12
   259         12
   260         23
   261         21
   262         39
   263         24
   264         25
   265         24
   266         25
   267         14
   268         39
   269         16
   270         16
   271         12
   272         14
   273         11
   274         18
   275         15
   276         28
   277         20
   278         38
   279         26
   280         26
   281         12
   282         20
   283         21
   284         14
   285          9
   286          6
   287          7
   288         21
   289         16
   290         23
   291          8
   292         19
   293         21
   294         48
   295         18
   296         10
   297          5
   298          8
   299          5
   300          3
   301          3
   302          8
   303          9
   304         19
   305         12
   306         59
   307         37
   308         38
   309         14
   310         18
   311          5
   312          4
   313          3
   314          3
   315          3
   316         16
   317          9
   318          4
   319          4
   320         20
   321         37
   322        111
   323         44
   324         30
   325         15
   326          8
   327          7
   328          5
   329          3
   330          6
   331          8
   332         10
   333          7
   334         72
   335         23
   336         23
   337          7
   338         24
   339         15
   340         10
   341          4
   342          3
   343          2
   344          2
   345          2
   346          2
   347          2
   348         14
   349         33
   350         40
   351         23
   352        363
   353        112
   354         17
   355          2
   356          1
   357          0
   359          1
   360          3
   361          2
   362         27
   363         11
   364          1
   365          6
   366          0
   367         35
   368         14
   369          0
   370          1
   371          1
   372          0
   373          1
   374          2
   375          1
   376          5
   377         11
   378          9
   379          5
   380        117
   381         32
   382          6
   383          1
   384          1
   385          1
   386          0
   387          0
   388          1
   389          0
   390          1
   391          1
   392          1
   393          3
   394          2
   395        292
   396        112
   397         24
   398          3
   399          1