##TITLE=Library Entry 35083
##JCAMP-DX=Revision 4.10 
##DATA TYPE=MASS SPECTRUM
##SAMPLE DESCRIPTION=Chemical Concepts
##NAMES=HP
##CAS NAME=Pentanedioic acid, 2,4-dimethyl-, monomethyl ester
##MOLFORM=C8H14O4
##CAS REGISTRY NO=7586-22-3
##MP= -300
##BP= -300
##MW= 174
##$RETENTION INDEX=0
##$CONDENSED SPECTRUM=NO
##NPOINTS= 102
##XYDATA=(XY..XY) 1 
    25          1
    26         22
    27        226
    28         35
    29        196
    30         12
    31         61
    33         22
    35          4
    37          6
    38         11
    39        189
    40         39
    41        575
    42        115
    43        161
    44         15
    45        508
    46         14
    47          5
    49          5
    50          7
    51         15
    52          7
    53         57
    54         14
    55        199
    56        733
    57        383
    58         30
    59        406
    60         26
    61         11
    62          1
    63          4
    65         10
    66          5
    67         48
    68         42
    69        999
    70        103
    71         49
    72         17
    73        195
    74        102
    75          6
    77          7
    79          4
    81         17
    82          8
    83          7
    84          3
    85         22
    86         16
    87        147
    88        560
    89         31
    90          4
    91          4
    94          2
    95         15
    96         31
    97        121
    98         19
    99         41
   100         51
   101        465
   102         32
   103          4
   109          3
   111          4
   112          3
   113        190
   114        488
   115        423
   116         36
   117          5
   123          2
   124          5
   125          1
   126          2
   127         13
   128        511
   129         76
   130          7
   131          2
   132         19
   133          2
   141          8
   142        209
   143        365
   144         31
   145          4
   149          2
   154          1
   155          2
   156         53
   157         22
   158          2
   159          1
   167          1
   175          2