##TITLE=Library Entry 84128
##JCAMP-DX=Revision 4.10 
##DATA TYPE=MASS SPECTRUM
##SAMPLE DESCRIPTION=Chemical Concepts
##NAMES=HP
##CAS NAME=Chromium, tris[1,2-ethanediylbis[dimethylphosphine]-P,P']-, (oc-6
-11)-
##MOLFORM=C18H48CrP6
##CAS REGISTRY NO=75862-30-5
##MP= -300
##BP= -300
##MW= 502
##$RETENTION INDEX=0
##$CONDENSED SPECTRUM=NO
##NPOINTS= 177
##XYDATA=(XY..XY) 1 
    26         73
    27        207
    28         76
    29        100
    30          3
    31          3
    33         11
    34          4
    35          7
    36          1
    37          3
    38          8
    39         83
    40         31
    41        217
    42         27
    43         41
    44         82
    45        427
    46        158
    47        139
    48         27
    50          5
    51         11
    52         13
    53         23
    54         15
    55         77
    56         20
    57        268
    58         88
    59        440
    60         38
    61        547
    62        551
    63         29
    64          2
    65          9
    66          4
    67         41
    68         11
    69         22
    70         10
    71         43
    72          9
    73        132
    74         14
    75        206
    76         87
    78         17
    79         65
    80          5
    81         30
    82         13
    83         10
    84          4
    85          4
    86          1
    87         17
    88         83
    89         96
    90         55
    91         40
    93         28
    94          4
    95         24
    96          6
    97          4
    98          2
    99          1
   100          1
   101          3
   102          1
   103         19
   104          5
   105         22
   106         10
   107        999
   108         43
   109         12
   110          4
   111          3
   112          2
   113         26
   114         15
   115          4
   116          2
   117          7
   118          4
   119         20
   120         10
   121         11
   122        867
   123         38
   124          4
   125          1
   126          2
   127          6
   128          4
   129          3
   131          4
   132          1
   133         17
   134         31
   135        634
   136         42
   137          5
   138          2
   140          2
   141          1
   142          1
   143          2
   144          2
   145          5
   146          1
   147          5
   148          2
   149         11
   150         34
   151         11
   153          1
   155          2
   157          1
   158         16
   159          9
   160          2
   161          3
   162          2
   163          3
   164          2
   165          1
   168          1
   171          1
   172          3
   173          9
   174         47
   175         11
   176         78
   177          7
   186          2
   187          2
   188          1
   189          2
   190          1
   191          1
   195          1
   200          6
   201          1
   202        108
   203         21
   204          3
   207          1
   211          1
   215          2
   217         13
   218          3
   219          1
   249          1
   261          1
   263         26
   264          4
   275          1
   277          1
   335          1
   336          1
   337         19
   338          3
   339          1
   350          6
   351          9
   352        148
   353         37
   354          7
   500          1
   502         17
   503          6
   504          1