##TITLE=Library Entry 89988
##JCAMP-DX=Revision 4.10 
##DATA TYPE=MASS SPECTRUM
##SAMPLE DESCRIPTION=A.A.Kutin, Moscow, Russia
##NAMES=HP
##CAS NAME=2,2-Dimethylcyclopropanecarboxamide
##MOLFORM=C6H11NO
##CAS REGISTRY NO=75885-58-4
##MP= -300
##BP= -300
##MW= 113
##$RETENTION INDEX=0
##$CONDENSED SPECTRUM=NO
##NPOINTS= 60
##XYDATA=(XY..XY) 1 
    33          1
    37          9
    38         27
    39        244
    41        746
    42        160
    43         81
    44        312
    45         21
    46          6
    47          0
    49          4
    50         23
    51         38
    52         24
    53        152
    54        122
    55        914
    56         61
    57         15
    58         43
    59        156
    60          5
    61          3
    62          4
    63          6
    65         23
    67        199
    68         94
    69        503
    70        876
    71        106
    72        524
    73         26
    74          2
    75          0
    76          1
    77          7
    78          4
    79          9
    80         24
    81        167
    82         15
    83         11
    84         12
    85          6
    86          1
    92          1
    94         29
    95        104
    96        491
    97        101
    98        355
    99         23
   100          1
   110          5
   112        213
   113        999
   114         89
   115          6