##TITLE=Library Entry 28792
##JCAMP-DX=Revision 4.10 
##DATA TYPE=MASS SPECTRUM
##SAMPLE DESCRIPTION=Darrick Lee, Cayman Chemical, Ann Arbor, MI
##NAMES=HP
##CAS NAME=4-Fluoromethcathinone
##MOLFORM=C10H12FNO
##CAS REGISTRY NO=7589-35-7
##MP= -300
##BP= -300
##MW= 181
##$RETENTION INDEX=0
##$CONDENSED SPECTRUM=NO
##NPOINTS= 72
##XYDATA=(XY..XY) 1 
    40          4
    41         17
    42         66
    43         37
    44          4
    45          2
    49          2
    50         24
    51         16
    52          2
    53          3
    54          8
    55         10
    56        129
    58        999
    59         38
    60          1
    61          2
    62          4
    63          6
    68         11
    69         22
    70          5
    73          2
    74         18
    75        100
    76          9
    77          5
    80          1
    81          2
    82          1
    83          3
    86          1
    87          1
    89          1
    92          2
    93          4
    94         16
    95        154
    96         16
    97          3
   101          3
   102          1
   103          4
   104          1
   105          1
   107          4
   108          2
   109         10
   110          1
   120          2
   121          3
   123         68
   124          6
   133          5
   134          1
   135          2
   136          2
   138          2
   146          1
   148          2
   149          1
   150          5
   151          6
   152          2
   162          1
   164          1
   165          3
   166          7
   167          1
   177          1
   180          1