##TITLE=Library Entry 86202
##JCAMP-DX=Revision 4.10 
##DATA TYPE=MASS SPECTRUM
##SAMPLE DESCRIPTION=Japan AIST/NIMC Database- Spectrum MS-NW-5488
##NAMES=HP
##CAS NAME=Benzeneethanol, 4-fluoro-
##MOLFORM=C8H9FO
##CAS REGISTRY NO=7589-27-7
##MP= -300
##BP= -300
##MW= 140
##$RETENTION INDEX=0
##$CONDENSED SPECTRUM=NO
##NPOINTS= 93
##XYDATA=(XY..XY) 1 
    15          2
    18          1
    26          2
    27          9
    28          8
    29          8
    30          1
    31         40
    32          2
    33          1
    37          3
    38          6
    39         27
    40          1
    41          2
    42          1
    43          9
    44          3
    45          2
    49          2
    50         15
    51         19
    52          3
    53          1
    54          1
    55          1
    56          3
    57         35
    58          2
    59         13
    60          3
    61          6
    62          9
    63         27
    64          4
    65          6
    68          3
    69          7
    70          7
    71          1
    73          2
    74          8
    75         17
    76          3
    77          7
    78          2
    79          1
    80          1
    81         11
    82          4
    83        115
    84          8
    85          3
    86          3
    87          2
    88          1
    89         16
    90          4
    91         12
    92          2
    93          1
    94          3
    95         11
    96         22
    97          6
    98          1
    99          1
   101         17
   102          3
   103          6
   104          1
   105          5
   106          2
   107         22
   108          9
   109        999
   110        303
   111         20
   112          6
   120          5
   121         14
   122         20
   123          7
   124          1
   125          1
   135          1
   136          1
   137          9
   138          3
   139          2
   140        225
   141         20
   142          1