##TITLE=Library Entry 69655
##JCAMP-DX=Revision 4.10 
##DATA TYPE=MASS SPECTRUM
##SAMPLE DESCRIPTION=NIST Mass Spectrometry Data Center, 1994
##NAMES=HP
##CAS NAME=2-Butenoic acid, 2-cyano-3-methyl-, ethyl ester
##MOLFORM=C8H11NO2
##CAS REGISTRY NO=759-58-0
##MP= -300
##BP= -300
##MW= 153
##$RETENTION INDEX=0
##$CONDENSED SPECTRUM=NO
##NPOINTS= 76
##XYDATA=(XY..XY) 1 
     4          4
    12          3
    13          4
    14         26
    15        140
    16          9
    17          3
    18         10
    19          3
    26        123
    27        634
    28        204
    29        542
    30         63
    31         12
    32          5
    37         79
    38        100
    39        239
    40         39
    41         93
    42         90
    43         79
    44         21
    45         42
    49         11
    50         63
    51        129
    52        207
    53        621
    54        148
    55         17
    56          5
    57          2
    59         27
    62          6
    63         37
    64         82
    65         43
    66        274
    67        162
    68         48
    69         42
    70          5
    75         17
    76         20
    77          6
    78         26
    79         68
    80        141
    81         60
    82         22
    83          4
    84          4
    85         31
    92          4
    93          4
    94         21
    95          4
    96        347
    97        999
    98         65
    99          4
   107        119
   108        627
   109         64
   110         20
   111          2
   120          5
   125        400
   126         32
   127          3
   135          2
   138          5
   153        126
   154         13