##TITLE=Library Entry 11919
##JCAMP-DX=Revision 4.10 
##DATA TYPE=MASS SPECTRUM
##SAMPLE DESCRIPTION=NIST Mass Spectrometry Data Center, 1994
##NAMES=HP
##CAS NAME=Eptam
##MOLFORM=C9H19NOS
##CAS REGISTRY NO=759-94-4
##MP= -300
##BP= -300
##MW= 189
##$RETENTION INDEX=1348
##$CONDENSED SPECTRUM=NO
##NPOINTS= 71
##XYDATA=(XY..XY) 1 
    15         22
    18          1
    27        298
    28         58
    29        337
    30         81
    31          2
    33          1
    35         26
    37          2
    39         71
    41        288
    42        184
    43        999
    44         51
    45         22
    46         14
    47         16
    52          1
    54         13
    55          7
    56         46
    57          8
    58         68
    59         20
    60         11
    61         36
    62         26
    63          4
    64          1
    68          5
    70         52
    71          8
    72         27
    73          3
    74          1
    75         50
    76          4
    77          2
    82          1
    84          9
    86        584
    87         29
    89        147
    90         22
    91          9
    98          7
   100         31
   101          2
   102          1
   103          3
   104         14
   118          5
   119          1
   126          1
   128        812
   129         66
   130          6
   131          1
   132        232
   133         19
   134         12
   146          1
   156          2
   160         71
   161         12
   162          4
   189        218
   190         24
   191         10
   192          1