##TITLE=Library Entry 15382
##JCAMP-DX=Revision 4.10 
##DATA TYPE=MASS SPECTRUM
##SAMPLE DESCRIPTION=W.T.RAINEY OAK RIDGE NATIONAL LABORATORY,OAK RIDGE,TN.U
SA
##NAMES=HP
##CAS NAME=Urea, N-ethyl-N-nitroso-
##MOLFORM=C3H7N3O2
##CAS REGISTRY NO=759-73-9
##MP= -300
##BP= -300
##MW= 117
##$RETENTION INDEX=0
##$CONDENSED SPECTRUM=NO
##NPOINTS= 30
##XYDATA=(XY..XY) 1 
    30        620
    31        109
    32         94
    38         36
    39         58
    40        102
    41        138
    42        437
    43        978
    44        999
    45         80
    46         43
    53         14
    54          7
    55         29
    56        299
    57         58
    58         14
    59        313
    60         21
    69         14
    70         21
    71         29
    72         14
    73         14
    74        642
    75         29
    88         14
   102          7
   117         65