##TITLE=Library Entry 55861
##JCAMP-DX=Revision 4.10 
##DATA TYPE=MASS SPECTRUM
##SAMPLE DESCRIPTION=Chemical Concepts
##NAMES=HP
##CAS NAME=Acetamide, N,N-bis(1-methylethyl)-
##MOLFORM=C8H17NO
##CAS REGISTRY NO=759-22-8
##MP= -300
##BP= -300
##MW= 143
##$RETENTION INDEX=1060
##$CONDENSED SPECTRUM=NO
##NPOINTS= 46
##XYDATA=(XY..XY) 1 
    26          4
    27         94
    29          5
    30         29
    31          2
    35          0
    37          1
    38          1
    39         46
    40          9
    41        142
    42        128
    43        369
    44        678
    45         17
    52          1
    54          7
    55          0
    56         14
    57          5
    58        304
    59         13
    60          5
    68          5
    69         10
    70         36
    71          3
    72          6
    82          0
    83          0
    84         13
    85          3
    86        999
    87         65
    88          3
    98          0
   100        207
   101         14
   102          3
   114          3
   126          0
   128         36
   129          4
   143        204
   144         24
   145          2