##TITLE=Library Entry 17013
##JCAMP-DX=Revision 4.10 
##DATA TYPE=MASS SPECTRUM
##SAMPLE DESCRIPTION=V.G.Zaikin, TIPS, Russian Acad. Sci., Moscow
##NAMES=HP
##CAS NAME=6-Methoxy-2-hexanol
##MOLFORM=C7H16O2
##CAS REGISTRY NO=75919-19-6
##MP= -300
##BP= -300
##MW= 132
##$RETENTION INDEX=0
##$CONDENSED SPECTRUM=NO
##NPOINTS= 44
##XYDATA=(XY..XY) 1 
    39         55
    40         16
    41        229
    42         57
    43        206
    44         46
    45        999
    46         23
    47         12
    50          3
    51          6
    53         12
    54         15
    55         81
    56        268
    57         79
    58        112
    59         24
    60          4
    61          6
    63          6
    65          4
    66          4
    67         77
    68         10
    69         19
    70          6
    71        176
    72         15
    73          3
    77          5
    79          8
    81          6
    82         90
    83         16
    84          3
    85         88
    86         10
    87         19
    88         10
    99          5
   100          3
   114         14
   117          3