##TITLE=Library Entry 83081
##JCAMP-DX=Revision 4.10 
##DATA TYPE=MASS SPECTRUM
##SAMPLE DESCRIPTION=Gary D. Byrd, R. J. Reynolds Tobacco Company
##NAMES=HP
##CAS NAME=5-Hydroxy-1-methyl-5-(3-pyridyl)pyrrolidin-2-one
##MOLFORM=C10H12N2O2
##CAS REGISTRY NO=75919-05-0
##MP= -300
##BP= -300
##MW= 192
##$RETENTION INDEX=0
##$CONDENSED SPECTRUM=NO
##NPOINTS= 112
##XYDATA=(XY..XY) 1 
    15         11
    26          6
    27         24
    28         28
    29          6
    30         16
    31          3
    32          9
    37          2
    38          4
    39         13
    40          2
    41          4
    42         10
    43          5
    44          6
    45          1
    49          4
    50         46
    51        163
    52         34
    53         19
    54          6
    55         56
    56         10
    57          4
    58        146
    59          6
    60          1
    61          1
    62          4
    63          9
    64          4
    65          8
    66          3
    67          2
    68         11
    69          3
    70          1
    72          1
    73          2
    74          2
    75          5
    76         11
    77         27
    78        503
    79        154
    80         23
    81          2
    82          1
    84          3
    86        191
    87         11
    88          1
    89          6
    90          5
    91          4
    92          6
    93         11
    94          2
    95          1
    96          1
   102          1
   103          1
   104         15
   105         24
   106        999
   107        123
   108         12
   109          1
   114         71
   115          5
   116         40
   117         24
   118         16
   119         21
   120          4
   121          7
   122          5
   123          1
   130          1
   131          9
   132         13
   133         25
   134        218
   135         47
   136          8
   137         15
   138          1
   144          5
   145         10
   146          4
   147          2
   148          1
   149          3
   150          1
   159          2
   160          2
   161         60
   162        226
   163        768
   164        101
   165          9
   166          1
   173          3
   174         32
   175         12
   176          2
   177          2
   191         18
   192         15
   193          3