##TITLE=Library Entry 109146
##JCAMP-DX=Revision 4.10 
##DATA TYPE=MASS SPECTRUM
##SAMPLE DESCRIPTION=P.A. Leclercq, Lab. Instrum. Anal., Eindhoven Univ. Tec
hnol., Netherlands
##NAMES=HP
##CAS NAME=Cyclohexanecarboxylic acid, 4-propyl-, 4-butoxy-2,3-dicyanophenyl
 ester
##MOLFORM=C22H28N2O3
##CAS REGISTRY NO=75941-67-2
##MP= -300
##BP= -300
##MW= 368
##$RETENTION INDEX=0
##$CONDENSED SPECTRUM=NO
##NPOINTS= 61
##XYDATA=(XY..XY) 1 
    15         10
    27        109
    29        272
    30          6
    39         79
    41        437
    42         40
    43        101
    51          8
    53         53
    55        373
    56         48
    57        303
    58         14
    65         15
    67        139
    69        873
    70         55
    71         11
    76          6
    77         26
    78         10
    79         40
    81        189
    82        163
    83        522
    84         33
    87          4
    88          8
    91         10
    92          4
    93          8
    95         51
    96         31
    97         11
   103          6
   104         19
   105         12
   109         27
   110         30
   124        177
   125        999
   126        105
   131          9
   132         21
   133          7
   151          5
   153        317
   154         33
   160        252
   161         76
   162          7
   173          4
   200          4
   201          4
   215          7
   216         12
   217         11
   334          2
   368          4
   369          1