##TITLE=Library Entry 109147
##JCAMP-DX=Revision 4.10 
##DATA TYPE=MASS SPECTRUM
##SAMPLE DESCRIPTION=P.A. Leclercq, Lab. Instrum. Anal., Eindhoven Univ. Tec
hnol., Netherlands
##NAMES=HP
##CAS NAME=Cyclohexanecarboxylic acid, 4-propyl-, 2,3-dicyano-4-(pentyloxy)p
henyl ester
##MOLFORM=C23H30N2O3
##CAS REGISTRY NO=75941-50-3
##MP= -300
##BP= -300
##MW= 382
##$RETENTION INDEX=0
##$CONDENSED SPECTRUM=NO
##NPOINTS= 43
##XYDATA=(XY..XY) 1 
    18         12
    27        121
    28         40
    29        180
    39         74
    41        413
    42         53
    43        301
    44         12
    53         48
    55        404
    57        246
    58         11
    65         11
    67        146
    69        832
    70         85
    71         47
    77         19
    79         43
    81        172
    82        165
    83        551
    84         36
    95         51
    96         28
    97         40
   104         17
   109         24
   110         13
   125        999
   126        106
   131          9
   132         21
   138         12
   139         35
   153        321
   154         34
   160        200
   161         77
   167         19
   230          9
   231         11