##TITLE=Library Entry 33315
##JCAMP-DX=Revision 4.10 
##DATA TYPE=MASS SPECTRUM
##SAMPLE DESCRIPTION=Chemical Concepts
##NAMES=HP
##CAS NAME=Benzenecarboximidic acid, (phenylmethylene)hydrazide
##MOLFORM=C14H13N3
##CAS REGISTRY NO=75955-17-8
##MP= -300
##BP= -300
##MW= 223
##$RETENTION INDEX=0
##$CONDENSED SPECTRUM=NO
##NPOINTS= 92
##XYDATA=(XY..XY) 1 
    27         91
    28        209
    29        154
    36        147
    37          1
    38         96
    39        148
    40        328
    41        744
    42         64
    43        182
    44         40
    45         82
    46          8
    50         57
    51        150
    52         15
    54          6
    55        149
    56         96
    57        278
    58          9
    60         52
    61          5
    65         56
    66          5
    67        127
    68        999
    69        162
    70         49
    71        113
    72         11
    73         63
    74          6
    75         34
    76         90
    77        352
    78         59
    79          6
    80          2
    81         73
    82          7
    83         85
    84          8
    85         77
    86          7
    88          2
    89         47
    90         38
    91         53
    92          5
    93         69
    94          5
    95         58
    96          7
    97         75
    98          3
    99         34
   100          3
   103         52
   104        458
   105         45
   109         38
   110          3
   111         51
   112          5
   119        176
   120         15
   121         40
   122         62
   123         35
   124          3
   129         50
   130          5
   131        179
   132         16
   146        668
   147         66
   148          7
   167         32
   168          3
   180         70
   181         37
   182          3
   207        131
   208        105
   209         10
   221         40
   222        498
   223        614
   224        111
   225          5