##TITLE=Library Entry 98633
##JCAMP-DX=Revision 4.10 
##DATA TYPE=MASS SPECTRUM
##SAMPLE DESCRIPTION=A. Brossi, LC, NIDDK, NIH, Bethesda, MD 20892
##NAMES=HP
##CAS NAME=1,2,5,6-Tetrahydropyridine, 1-methyl-6-phenyl-
##MOLFORM=C12H15N
##CAS REGISTRY NO=75954-40-4
##MP= -300
##BP= -300
##MW= 173
##$RETENTION INDEX=0
##$CONDENSED SPECTRUM=NO
##NPOINTS= 115
##XYDATA=(XY..XY) 1 
    42        446
    43         19
    44         24
    45          3
    46          0
    47          7
    48          4
    49         34
    50         43
    51        128
    52         39
    53         51
    54         53
    55         19
    56          8
    57         26
    58          5
    60          1
    61          2
    62         11
    63         43
    64         12
    65         60
    66         14
    67         14
    68         29
    69          9
    70         10
    71          8
    73          6
    74         13
    75         14
    76         24
    77        158
    78        122
    79         17
    80         20
    81         14
    82         23
    83          4
    84         24
    85          3
    86         18
    87          5
    88          4
    89         42
    90         18
    91        156
    92         16
    93          7
    94        148
    95         19
    96        257
    97         18
    98          7
    99          1
   100          0
   101          4
   102         21
   103         46
   104         76
   105         10
   106          2
   107          1
   109          0
   110          0
   111          1
   113          2
   114          2
   115         64
   116         26
   117         39
   118        999
   119        211
   120         19
   121          1
   124          1
   125          1
   126          4
   127         22
   128         60
   129         28
   130         25
   131         21
   132         16
   133          2
   139          4
   140          2
   141         15
   142          8
   143         13
   144         40
   145         11
   146          4
   147          0
   148          0
   149          3
   150          1
   152          0
   153          1
   154          7
   155          3
   156         10
   157          7
   158         32
   159          4
   167          2
   168          2
   169          1
   170         20
   171          3
   172        136
   173        556
   174         78
   175          6