##TITLE=Library Entry 58853
##JCAMP-DX=Revision 4.10 
##DATA TYPE=MASS SPECTRUM
##SAMPLE DESCRIPTION=Japan AIST/NIMC Database- Spectrum MS-NW-3552
##NAMES=HP
##CAS NAME=1H-Indazole, 6-nitro-
##MOLFORM=C7H5N3O2
##CAS REGISTRY NO=7597-18-4
##MP= -300
##BP= -300
##MW= 163
##$RETENTION INDEX=0
##$CONDENSED SPECTRUM=NO
##NPOINTS= 92
##XYDATA=(XY..XY) 1 
    12          2
    13          1
    14          1
    15          1
    16          3
    18          1
    24          1
    25          5
    26         14
    27         21
    28        113
    29          9
    30         94
    31          1
    32          1
    36          8
    37         66
    38        113
    39        195
    40         20
    41          9
    42          5
    43          6
    44          4
    46         17
    48          4
    49         18
    50         77
    51         92
    52        139
    53         15
    54          8
    55          2
    60          9
    61         78
    62        243
    63        586
    64        124
    65         38
    66         17
    67          3
    68          3
    69          2
    72          1
    73          5
    74         16
    75         19
    76         32
    77         23
    78        126
    79         13
    80          4
    81          1
    84          3
    85         13
    86         35
    87         49
    88         74
    89         40
    90        999
    91         74
    92          3
    93          1
    99          2
   100          1
   101          1
   103          2
   104          8
   105        281
   106         24
   107          2
   108          1
   109          1
   110          1
   115          2
   116         40
   117        442
   118         41
   119          2
   130          1
   131          3
   132          1
   133        156
   134         14
   135          7
   146          2
   147         10
   148          1
   162          2
   163        915
   164         80
   165          7