##TITLE=Library Entry 6531
##JCAMP-DX=Revision 4.10 
##DATA TYPE=MASS SPECTRUM
##SAMPLE DESCRIPTION=L. Cohen, LC, NIDDK, NIH, Bethesda, MD 20892
##NAMES=HP
##CAS NAME=Monoethylmalonate monoamide
##MOLFORM=C5H9NO3
##CAS REGISTRY NO=7597-56-0
##MP= -300
##BP= -300
##MW= 131
##$RETENTION INDEX=0
##$CONDENSED SPECTRUM=NO
##NPOINTS= 68
##XYDATA=(XY..XY) 1 
    42        837
    43        999
    44        747
    45        220
    46          8
    50          6
    51          8
    52          4
    53          4
    54          2
    55         24
    56         10
    57         24
    58         11
    59        409
    60        532
    61        134
    62          9
    63          5
    65          7
    67          7
    68         11
    69         73
    70        116
    71         17
    73         13
    74         13
    75          2
    76          4
    77         12
    78         22
    79          6
    81          8
    82          6
    83         12
    84          6
    85         29
    86        542
    87        100
    88        447
    89         21
    90          5
    91         13
    92          4
    93          1
    95          6
    96          4
    97         10
    98          2
    99          4
   102         31
   103        197
   104         10
   105         15
   106          5
   109          4
   111          1
   113          1
   115          1
   116          2
   119          2
   120          1
   121          1
   124          2
   125          4
   131        138
   132         19
   133          1