##TITLE=Library Entry 49483
##JCAMP-DX=Revision 4.10 
##DATA TYPE=MASS SPECTRUM
##SAMPLE DESCRIPTION=T. ANDO,FAC. AGRIC.,TOKYO UNIV. AGRIC. TECHNOL.,TOKYO,J
APAN
##NAMES=HP
##CAS NAME=(5E,7E)-Dodecadienal
##MOLFORM=C12H20O
##CAS REGISTRY NO=75983-35-6
##MP= -300
##BP= -300
##MW= 180
##$RETENTION INDEX=0
##$CONDENSED SPECTRUM=NO
##NPOINTS= 34
##XYDATA=(XY..XY) 1 
    41        200
    43         80
    53         40
    54         90
    55        150
    65         50
    66        140
    67        710
    68        140
    69        100
    77        150
    78        180
    79        950
    80        999
    81        360
    82        160
    83         40
    91        150
    92         20
    93        480
    94        200
    95        280
    96         50
    97         60
    98        400
   107         80
   109         80
   110         10
   123        210
   136        470
   137        130
   151         70
   180        420
   181         60