##TITLE=Library Entry 52572
##JCAMP-DX=Revision 4.10 
##DATA TYPE=MASS SPECTRUM
##SAMPLE DESCRIPTION=Chemical Concepts
##NAMES=HP
##CAS NAME=2-Cyclohex-1-one, 5,5-dimethyl-3-hydroxy-, 1,1'-methylenebis
##MOLFORM=C17H24O4
##CAS REGISTRY NO=7599-99-7
##MP= -300
##BP= -300
##MW= 292
##$RETENTION INDEX=0
##$CONDENSED SPECTRUM=NO
##NPOINTS= 188
##XYDATA=(XY..XY) 1 
    26         30
    27         85
    29        112
    30          7
    31          5
    37          5
    38         16
    39        175
    40        122
    41        331
    42        127
    43        113
    44          9
    45         10
    46          2
    47          2
    48          1
    49          2
    50         17
    51         30
    52         16
    53         91
    54        112
    55        536
    56        638
    57         63
    58          3
    59          5
    60          4
    61          7
    62          3
    63          7
    64          2
    65         16
    66         10
    67        100
    68        181
    69        197
    70        151
    71         19
    72          3
    73          6
    74          3
    75          1
    76          2
    77         20
    78          8
    79         28
    80         13
    81        109
    82         59
    83        999
    84        239
    85         18
    86          2
    89          2
    90          3
    91         18
    92          4
    93          9
    94          7
    95         61
    96         66
    97        130
    98         14
    99          3
   103          2
   104          3
   105          6
   106          5
   107          8
   108          9
   109        176
   110         44
   111         14
   112        200
   113         20
   114          2
   115          3
   116          1
   117          3
   118          1
   119          4
   120          1
   121          4
   122          3
   123         19
   124         78
   125         47
   126          5
   127          1
   128          3
   129          4
   130          1
   131          1
   132          1
   133          3
   134          9
   135          5
   136          3
   137        134
   138         13
   139          4
   140        204
   141         31
   142          3
   143          1
   145          1
   147          6
   148          2
   152        371
   153         49
   154          9
   155          1
   160          1
   161          1
   162          3
   163          4
   164          2
   165         77
   166         14
   167          9
   168          2
   169          1
   170          1
   171          2
   175          3
   176          2
   177         10
   178          2
   179          3
   180         17
   181          3
   182          1
   183          2
   184          1
   185          2
   189          1
   190         18
   191         13
   192          4
   193          9
   194          3
   195          5
   196          1
   203          2
   204          5
   205          2
   206          1
   207          3
   208         13
   209          2
   210          0
   217          5
   218          3
   219          1
   220          1
   221          1
   222          1
   223          1
   229          1
   231          9
   232          3
   233          9
   234          2
   246          5
   247          1
   248          1
   249          5
   250          1
   257          2
   258          1
   259          9
   260          1
   261          1
   262          1
   263          0
   264          3
   265          0
   273          6
   274         26
   275          5
   276          1
   277         13
   278          2
   292         78
   293         15
   294          2