##TITLE=Library Entry 29804
##JCAMP-DX=Revision 4.10 
##DATA TYPE=MASS SPECTRUM
##SAMPLE DESCRIPTION=RADIAN CORP
##NAMES=HP
##CAS NAME=2-Propanol, 1,1,1-tribromo-2-methyl-
##MOLFORM=C4H7Br3O
##CAS REGISTRY NO=76-08-4
##MP= -300
##BP= -300
##MW= 308
##$RETENTION INDEX=0
##$CONDENSED SPECTRUM=NO
##NPOINTS= 91
##XYDATA=(XY..XY) 1 
    17          1
    25          2
    26         17
    27         78
    29         22
    30          1
    31        127
    35          3
    36         14
    37         11
    38         21
    39         59
    40         11
    41        214
    42         44
    43        396
    44         10
    45          6
    50         26
    51         33
    52         11
    53         66
    54         10
    55         30
    56          3
    57          1
    59        999
    60         37
    61          5
    63          2
    64          2
    65          2
    66          1
    67          2
    68          2
    69         13
    70         18
    71         20
    72          1
    73          2
    76          1
    77          4
    80         13
    82         15
    83          2
    86          4
    95          6
   104          5
   105         46
   106         29
   107         34
   108         30
   116          1
   117         10
   118          3
   119         12
   120          3
   121        394
   122         15
   123        395
   124         12
   131          6
   133         16
   134          3
   135          1
   149        122
   150         19
   151        128
   152         18
   170         29
   172         57
   174         25
   185         28
   187         52
   189         25
   212          3
   213         47
   214         31
   215         81
   216         48
   217         22
   218         20
   231          3
   249          4
   251         16
   253         15
   255          4
   293          6
   295         23
   297         22
   299          6