##TITLE=Library Entry 29727
##JCAMP-DX=Revision 4.10 
##DATA TYPE=MASS SPECTRUM
##SAMPLE DESCRIPTION=NIST Mass Spectrometry Data Center, 1990.
##NAMES=HP
##CAS NAME=2,3-Butanediol, 2,3-dimethyl-
##MOLFORM=C6H14O2
##CAS REGISTRY NO=76-09-5
##MP= -300
##BP= -300
##MW= 118
##$RETENTION INDEX=850
##$CONDENSED SPECTRUM=NO
##NPOINTS= 26
##XYDATA=(XY..XY) 1 
    15         19
    27         37
    28          1
    29         45
    30          1
    31        113
    32          1
    38         12
    39         89
    40         27
    41        201
    42         61
    43        397
    44         19
    45         12
    55         38
    57        324
    59        999
    60         34
    67         22
    69         13
    83         29
    85        163
    86         12
   100         24
   103         27