##TITLE=Library Entry 16660
##JCAMP-DX=Revision 4.10 
##DATA TYPE=MASS SPECTRUM
##SAMPLE DESCRIPTION=Japan AIST/NIMC Database- Spectrum MS-NW-6844
##NAMES=HP
##CAS NAME=2-Propanol, 1,1,1-trichloro-
##MOLFORM=C3H5Cl3O
##CAS REGISTRY NO=76-00-6
##MP= -300
##BP= -300
##MW= 162
##$RETENTION INDEX=916
##$CONDENSED SPECTRUM=NO
##NPOINTS= 83
##XYDATA=(XY..XY) 1 
    12          1
    13          2
    14          5
    15         22
    18          2
    25          3
    26         12
    27        133
    28         10
    29         50
    30          2
    31          5
    32          1
    35          8
    36         20
    37          8
    38          9
    39         15
    40          1
    41          2
    42          9
    43         77
    44          5
    45        999
    46         23
    47         22
    48         16
    49         14
    50          5
    51          4
    53          2
    55          7
    56          1
    57          2
    60          4
    61          8
    62          7
    63        116
    64          5
    65         38
    66          1
    67          1
    72          2
    73          6
    74          1
    75          9
    76          8
    77          3
    78          3
    82         19
    83         41
    84         13
    85         27
    86          2
    87          5
    91         90
    92          3
    93         30
    94          1
    95          1
    97          3
    99          2
   109          4
   110          2
   111         28
   112         10
   113         17
   114          6
   115          3
   116          1
   117          9
   119          9
   121          3
   125          4
   126          1
   127         33
   128          2
   129         19
   130          1
   131          3
   147          4
   149          4
   151          1