##TITLE=Library Entry 55248
##JCAMP-DX=Revision 4.10 
##DATA TYPE=MASS SPECTRUM
##SAMPLE DESCRIPTION=Exported from NIST MS Search
##NAMES=HP
##CAS NAME=Propane, 1,2,3-trichloro-1,1,2,3,3-pentafluoro-
##MOLFORM=C3Cl3F5
##CAS REGISTRY NO=76-17-5
##MP= -300
##BP= -300
##MW= 236
##$RETENTION INDEX=0
##$CONDENSED SPECTRUM=NO
##NPOINTS= 95
##XYDATA=(XY..XY) 1 
    24          1
    28          2
    31         60
    32          2
    35          6
    36          2
    37          2
    38          1
    43          2
    44          1
    45          1
    47         23
    49          8
    50          9
    51          1
    55          3
    59          1
    61          1
    62          5
    66         22
    67          1
    68          7
    69        163
    70          2
    73          1
    74          6
    75          1
    78          8
    79          1
    80          3
    81          4
    82          8
    83          1
    84          5
    85        999
    86         12
    87        324
    88          4
    90          1
    92          1
    93         16
    94          1
    96          1
    97          8
    98          1
    99          3
   100          1
   101         80
   102          1
   103         51
   104          1
   105          8
   108          3
   110          1
   111          3
   112          5
   114          3
   115         20
   116          9
   117         63
   118          5
   120          1
   131         34
   132         49
   133          1
   134         31
   135          2
   136          1
   147         13
   148          1
   149          4
   150          1
   151         51
   152          2
   153         33
   154          1
   155          2
   163          1
   165          1
   166          3
   167          5
   168          1
   169          5
   171          1
   173          1
   201        212
   202          7
   203        135
   204          4
   205         22
   206          1
   217          1
   219          1
   221          1
   223          1