##TITLE=Library Entry 74716
##JCAMP-DX=Revision 4.10 
##DATA TYPE=MASS SPECTRUM
##SAMPLE DESCRIPTION=Japan AIST/NIMC Database- Spectrum MS-NW-5559
##NAMES=HP
##CAS NAME=Ethane, 1,1,2,2-tetrachloro-1,2-difluoro-
##MOLFORM=C2Cl4F2
##CAS REGISTRY NO=76-12-0
##MP= -300
##BP= -300
##MW= 202
##$RETENTION INDEX=681
##$CONDENSED SPECTRUM=NO
##NPOINTS= 82
##XYDATA=(XY..XY) 1 
    12          4
    24          5
    31        128
    32          1
    35         38
    37         12
    43          9
    47        103
    48          1
    49         34
    50          3
    59         11
    61          3
    62         11
    66         86
    67          9
    68         25
    70          2
    72          1
    74          3
    75          3
    76          1
    78         43
    79          1
    80         13
    82         88
    83          2
    84         59
    85         43
    86          9
    87         13
    94         11
    96          8
    97         11
    98          1
    99          4
   101        999
   102         12
   103        632
   104          8
   105        104
   106          1
   113         16
   115         10
   117        250
   118          3
   119        243
   120          3
   121         81
   122          1
   123          9
   129          1
   131          1
   132        103
   133          3
   134         70
   135          2
   136         11
   148         26
   150         27
   151          2
   152         10
   153          2
   154          2
   155          2
   164          1
   166          1
   167        631
   168         16
   169        609
   170         14
   171        196
   172          5
   173         22
   183          3
   185          4
   187          2
   188          1
   190          1
   202          3
   204          4
   206          2