##TITLE=Library Entry 55520
##JCAMP-DX=Revision 4.10 
##DATA TYPE=MASS SPECTRUM
##SAMPLE DESCRIPTION=Exported from NIST MS Search
##NAMES=HP
##CAS NAME=Ethane, 1,2-dichloro-1,1,2,2-tetrafluoro-
##MOLFORM=C2Cl2F4
##CAS REGISTRY NO=76-14-2
##MP= -300
##BP= -300
##MW= 170
##$RETENTION INDEX=352
##$CONDENSED SPECTRUM=NO
##NPOINTS= 70
##XYDATA=(XY..XY) 1 
    12          2
    19          1
    24          1
    28          1
    31         94
    32          1
    33          1
    35         12
    36          1
    37          4
    38          1
    43          1
    44          1
    47         19
    48          1
    49          7
    50         49
    51          2
    58          5
    59          3
    61          4
    62          3
    63          1
    65          1
    66         31
    67          2
    68         10
    69         41
    70          1
    78          3
    80          1
    81          2
    82          2
    83          1
    84          3
    85        999
    86         14
    87        328
    88          4
    95          1
    96          1
    97          1
    98          1
    99          1
   100         61
   101         86
   102          1
   103         58
   104          1
   105          9
   112          1
   113          1
   114          1
   115          1
   116         12
   117          1
   118          4
   119          1
   133          1
   135        523
   136         14
   137        170
   138          5
   151         24
   152          1
   153         16
   154          1
   155          3
   170          1
   172          1