##TITLE=Library Entry 55454
##JCAMP-DX=Revision 4.10 
##DATA TYPE=MASS SPECTRUM
##SAMPLE DESCRIPTION=Exported from NIST MS Search
##NAMES=HP
##CAS NAME=Pentafluoroethyl chloride
##MOLFORM=C2ClF5
##CAS REGISTRY NO=76-15-3
##MP= -300
##BP= -300
##MW= 154
##$RETENTION INDEX=270
##$CONDENSED SPECTRUM=NO
##NPOINTS= 24
##XYDATA=(XY..XY) 1 
    30         13
    31        337
    35         23
    36          8
    37          7
    38          3
    40          5
    43          5
    47         16
    49          5
    50         93
    58          4
    60          3
    62          2
    68          9
    69        520
    70          5
    85        999
    87        326
    88          4
   100         30
   119        564
   135        237
   137         77