##TITLE=Library Entry 33967
##JCAMP-DX=Revision 4.10 
##DATA TYPE=MASS SPECTRUM
##SAMPLE DESCRIPTION=Exported from NIST MS Search
##NAMES=HP
##CAS NAME=Perfluoropropane
##MOLFORM=C3F8
##CAS REGISTRY NO=76-19-7
##MP= -300
##BP= -300
##MW= 188
##$RETENTION INDEX=0
##$CONDENSED SPECTRUM=NO
##NPOINTS= 21
##XYDATA=(XY..XY) 1 
    12         24
    19         10
    24          4
    31        288
    36          1
    43          6
    50         93
    55          1
    62          7
    69        999
    74          2
    75          3
    81          7
    93          6
   100         66
   112          1
   119         90
   131          2
   150          1
   169        246
   188          1