##TITLE=Library Entry 53137
##JCAMP-DX=Revision 4.10 
##DATA TYPE=MASS SPECTRUM
##SAMPLE DESCRIPTION=Japan AIST/NIMC Database- Spectrum MS-NW-8783
##NAMES=HP
##CAS NAME=3-Bromocamphor
##MOLFORM=C10H15BrO
##CAS REGISTRY NO=76-29-9
##MP= -300
##BP= -300
##MW= 230
##$RETENTION INDEX=0
##$CONDENSED SPECTRUM=NO
##NPOINTS= 101
##XYDATA=(XY..XY) 1 
    15          3
    18          1
    26          5
    27         77
    28         13
    29         48
    30          1
    31          1
    36          1
    38          6
    39        135
    40         36
    41        309
    42         21
    43        118
    44          4
    45          3
    46          1
    50          8
    51         31
    52         19
    53         77
    54         19
    55        417
    56         20
    57         69
    58          5
    59         10
    60          3
    62          2
    63          8
    64          2
    65         35
    66         11
    67        169
    68         89
    69        371
    70         24
    71          2
    74          1
    75          1
    76          1
    77         50
    78         10
    79         61
    80         17
    81        284
    82         45
    83        999
    84         66
    85          2
    89          1
    91         53
    92          9
    93         46
    94         11
    95        180
    96         14
    97         23
    98          2
   103          2
   105         13
   106          4
   107         70
   108         68
   109         92
   110        179
   111         13
   117          1
   119          5
   120          1
   121         32
   122          9
   123        890
   124         88
   125          4
   133          8
   134          1
   135         10
   136          8
   137          2
   146          5
   147          2
   148          6
   149          3
   150          9
   151        413
   152         47
   153          3
   159          1
   161          1
   173          1
   175          1
   187          7
   188          2
   189          8
   190          1
   230        104
   231         11
   232        102
   233         11