##TITLE=Library Entry 68092
##JCAMP-DX=Revision 4.10 
##DATA TYPE=MASS SPECTRUM
##SAMPLE DESCRIPTION=Chemical Concepts
##NAMES=HP
##CAS NAME=3-Oxabicyclo[3.2.1]octane-2,4-dione, 1,8,8-trimethyl-
##MOLFORM=C10H14O3
##CAS REGISTRY NO=76-32-4
##MP= -300
##BP= -300
##MW= 182
##$RETENTION INDEX=0
##$CONDENSED SPECTRUM=NO
##NPOINTS= 89
##XYDATA=(XY..XY) 1 
    26         11
    27        168
    28         34
    29         84
    30          1
    31          1
    37          1
    38          7
    39        167
    40         31
    41        437
    42         22
    43         36
    44          4
    45          3
    46          2
    47          0
    49          0
    50          9
    51         30
    52         16
    53         80
    54         18
    55        351
    56         17
    57          1
    58          0
    59          1
    60          0
    61          0
    62          2
    63          8
    64          1
    65         31
    66         11
    67        193
    68         29
    69        641
    70         34
    71          2
    72          0
    73          0
    74          0
    75          0
    76          0
    77         48
    78         10
    79         52
    80         15
    81         32
    82         43
    83        479
    84         32
    85          0
    86          0
    89          0
    91         25
    92          4
    93         30
    94         14
    95        999
    96         95
    97         19
    98          1
    99          0
   103          0
   105          5
   106          0
   107          5
   108          2
   109         28
   110        156
   111         14
   112          1
   119          0
   120          2
   121          1
   122          0
   123        218
   124         20
   125          1
   126          0
   136          0
   137          5
   138        427
   139         45
   140          2
   155          2
   183          1