##TITLE=Library Entry 1547
##JCAMP-DX=Revision 4.10 
##DATA TYPE=MASS SPECTRUM
##SAMPLE DESCRIPTION=Japan AIST/NIMC Database- Spectrum MS-NW-4908
##NAMES=HP
##CAS NAME=2,2,3,3-Tetrafluoro-1-propanol
##MOLFORM=C3H4F4O
##CAS REGISTRY NO=76-37-9
##MP= -300
##BP= -300
##MW= 132
##$RETENTION INDEX=640
##$CONDENSED SPECTRUM=NO
##NPOINTS= 61
##XYDATA=(XY..XY) 1 
    13          1
    14          5
    15          9
    18          2
    20          4
    24          1
    25          3
    26          7
    27          5
    28         24
    29        185
    30         14
    31        999
    32         24
    33         82
    34          1
    36          1
    37          2
    38          1
    42          7
    43         11
    44         11
    45         30
    46          3
    47          3
    49         69
    50          7
    51        187
    52          3
    53          1
    55          1
    56          1
    57          2
    60          5
    61         37
    62          9
    63         13
    64         30
    65         61
    66          1
    67          5
    69          6
    71          1
    73          1
    75          3
    80          7
    81         11
    82        266
    83         17
    91          5
    92          3
    93          6
    95          3
    96          1
   100          2
   101          9
   102          5
   111          4
   112         84
   113          3
   131          1