##TITLE=Library Entry 22006
##JCAMP-DX=Revision 4.10 
##DATA TYPE=MASS SPECTRUM
##SAMPLE DESCRIPTION=Insect Chem. Ecol. Lab., USDA, Beltsville, MD 20705
##NAMES=HP
##CAS NAME=2,2-Dimethyl-1,3-butanediol
##MOLFORM=C6H14O2
##CAS REGISTRY NO=76-35-7
##MP= -300
##BP= -300
##MW= 118
##$RETENTION INDEX=0
##$CONDENSED SPECTRUM=NO
##NPOINTS= 52
##XYDATA=(XY..XY) 1 
    41        454
    42         56
    43        289
    44         21
    45        323
    46          8
    47          4
    49          6
    50          4
    51          9
    52          2
    53         27
    54         11
    55        247
    56        999
    57        252
    58         14
    59         35
    60          1
    61         12
    63         24
    65          2
    67         13
    68          2
    69         91
    70        103
    71         28
    72         17
    73         35
    74          9
    75          1
    81          2
    82          4
    83         22
    84          6
    85         52
    86          6
    87         45
    88          4
    89          2
    91          1
    95          2
    99          3
   100         10
   101         26
   102          1
   103          9
   105          1
   109          1
   117          1
   118          8
   119          2