##TITLE=Library Entry 50393
##JCAMP-DX=Revision 4.10 
##DATA TYPE=MASS SPECTRUM
##SAMPLE DESCRIPTION=NIST Mass Spectrometry Data Center
##NAMES=HP
##CAS NAME=Methoxyflurane
##MOLFORM=C3H4Cl2F2O
##CAS REGISTRY NO=76-38-0
##MP= -300
##BP= -300
##MW= 164
##$RETENTION INDEX=722
##$CONDENSED SPECTRUM=NO
##NPOINTS= 86
##XYDATA=(XY..XY) 1 
    14          6
    15         98
    16          1
    24          1
    25          1
    26          2
    27          5
    28          3
    29         50
    30          9
    31         28
    32          4
    33          2
    35         14
    36          3
    37          5
    38          1
    40          1
    41          3
    42          2
    43          4
    44         18
    45          5
    47         87
    48         63
    49         25
    50         27
    51         31
    52          1
    53          2
    59          1
    60          6
    61          3
    62          4
    63         31
    64          3
    65          5
    66          9
    67        144
    68          4
    69         48
    70          1
    76         17
    77          2
    78         15
    79         29
    81        999
    82         68
    83        264
    84         13
    85        180
    86          4
    87         32
    95         91
    96          3
    97         43
    98        163
    99          9
   100         54
   101          9
   103          5
   105          1
   110          4
   111          2
   112          2
   113          3
   114          5
   115          2
   116          3
   118          1
   129         15
   130          1
   131          5
   132         13
   133        118
   134         11
   135         77
   136          3
   137         13
   145         46
   146          2
   147         29
   148          1
   149          5
   163          1
   165          1