##TITLE=Library Entry 14749
##JCAMP-DX=Revision 4.10 
##DATA TYPE=MASS SPECTRUM
##SAMPLE DESCRIPTION=Patti Price, Georgia Bureau of Investigation, Decatur,
 Georgia
##NAMES=HP
##CAS NAME=Fluoxymesterone
##MOLFORM=C20H29FO3
##CAS REGISTRY NO=76-43-7
##MP= -300
##BP= -300
##MW= 336
##$RETENTION INDEX=2954
##$CONDENSED SPECTRUM=NO
##NPOINTS= 251
##XYDATA=(XY..XY) 1 
    41        334
    42         24
    43        999
    44         40
    45         33
    47         24
    51         22
    52         18
    53        119
    54         20
    55        251
    56         19
    57         96
    58         80
    59         57
    60          9
    63         15
    65         51
    66         24
    67        144
    68         30
    69         73
    70         13
    71        415
    72         69
    73         28
    75         11
    77        163
    78         29
    79        222
    80         38
    81         82
    82         24
    83         64
    84         15
    85         48
    86          5
    87         15
    88         17
    89         11
    91        212
    92         42
    93        120
    94         44
    95        155
    96         48
    97         81
    98         15
    99         32
   100         14
   101         21
   102         11
   103         47
   104         18
   105        165
   106         56
   107        196
   108         78
   109        260
   110         58
   111         92
   112         40
   113         36
   114          7
   115         77
   116         32
   117         60
   118         24
   119        117
   120         54
   121        194
   122        184
   123        337
   124        247
   125        101
   126         23
   127         40
   128         66
   129         76
   130         30
   131        130
   132         39
   133        138
   134         70
   135        146
   136         82
   137        221
   138         70
   139         56
   140         13
   141         55
   142         43
   143         99
   144         55
   145         97
   146         57
   147        136
   148        125
   149        112
   150         33
   151         58
   152         44
   153         45
   154         26
   155         71
   156         31
   157         85
   158         41
   159         90
   160         74
   161        140
   162         97
   163        117
   164         49
   165         63
   166         33
   167         39
   168         20
   169         49
   170         26
   171         70
   172         58
   173         98
   174         47
   175        204
   176         82
   177         90
   178         37
   179         40
   180         29
   181        102
   182         40
   183         90
   184         39
   185        100
   186         86
   187         71
   188         52
   189         55
   190         36
   191         81
   192         50
   193         33
   194         31
   195         73
   196         58
   197        121
   198        148
   199        132
   200         46
   201         51
   202         37
   203         60
   204         54
   205         36
   206        119
   207         75
   208         19
   209         63
   210         40
   211         68
   212         64
   213         97
   214         56
   215         56
   216         41
   217         34
   218         22
   219         16
   220         10
   221         37
   222         32
   223        101
   224         35
   225        175
   226         47
   227        142
   228         67
   229         47
   230         28
   231         33
   232         15
   233         32
   234         13
   235         21
   236         10
   237         51
   238         67
   239         35
   240         88
   241         71
   242         29
   243         82
   244         39
   245         71
   246         33
   247         58
   248         16
   251         60
   252         32
   253         14
   254         36
   255         63
   256         99
   257         55
   258         39
   259         51
   260         43
   261         23
   262         17
   263         76
   264         14
   265        133
   266         89
   267         26
   268          7
   269         14
   270         24
   271         15
   272         24
   273         37
   274        113
   275         26
   276          8
   277         13
   278          9
   279        304
   280         95
   281         30
   282         10
   283         83
   284         19
   285         34
   286          9
   288         11
   296         11
   298        160
   299         37
   300         25
   301         28
   303         25
   314         21
   316         97
   317         32
   318        137
   319         29
   321         19
   334          8
   336        471
   337        109
   338         12