##TITLE=Library Entry 67808
##JCAMP-DX=Revision 4.10 
##DATA TYPE=MASS SPECTRUM
##SAMPLE DESCRIPTION=NIST Mass Spectrometry Data Center
##NAMES=HP
##CAS NAME=Bornyl acetate
##MOLFORM=C12H20O2
##CAS REGISTRY NO=76-49-3
##MP= -300
##BP= -300
##MW= 196
##$RETENTION INDEX=1285
##$CONDENSED SPECTRUM=NO
##NPOINTS= 108
##XYDATA=(XY..XY) 1 
    14          9
    15         53
    16          1
    17          1
    26          4
    27         76
    28         20
    29         78
    30          2
    31          4
    37          1
    38          3
    39        111
    40         23
    41        286
    42         40
    43        697
    44         21
    45         10
    50          5
    51         21
    52         11
    53         85
    54         15
    55        154
    56         13
    57         24
    58          3
    59          4
    60          2
    61          6
    62          2
    63          6
    64          1
    65         43
    66         14
    67        161
    68         50
    69        136
    70         22
    71         44
    72         26
    73          2
    75          1
    77        101
    78         19
    79        126
    80        134
    81         98
    82         68
    83         70
    84         39
    85         12
    86          4
    87          1
    89          2
    90          1
    91        114
    92        126
    93        477
    94         80
    95        999
    96         84
    97         24
    98         10
    99         12
   100          2
   102          1
   103          6
   104          2
   105         43
   106          9
   107         86
   108        195
   109        138
   110        103
   111         56
   112          9
   113         24
   114          3
   115          2
   117          3
   119         13
   121        466
   122         46
   123         20
   124          2
   125         10
   126          3
   127          2
   128          1
   134          2
   135         11
   136        386
   137         52
   138          4
   139         12
   140          1
   141          1
   151          1
   152          3
   153          8
   154         90
   155         11
   156          1
   163          1
   196         15
   197          2