##TITLE=Library Entry 73670
##JCAMP-DX=Revision 4.10 
##DATA TYPE=MASS SPECTRUM
##SAMPLE DESCRIPTION=NIST Mass Spectrometry Data Center, 1990.
##NAMES=HP
##CAS NAME=Heptachlor
##MOLFORM=C10H5Cl7
##CAS REGISTRY NO=76-44-8
##MP= -300
##BP= -300
##MW= 370
##$RETENTION INDEX=1887
##$CONDENSED SPECTRUM=NO
##NPOINTS= 145
##XYDATA=(XY..XY) 1 
    27         19
    28         33
    32         11
    35         14
    37         26
    38         45
    39        223
    40         16
    47         17
    49         39
    50         56
    51         55
    60         25
    61         66
    62         63
    63         86
    64         44
    65        364
    66         35
    71         16
    72         24
    73        103
    74         89
    75         76
    79         19
    80         19
    82         14
    83         34
    84         61
    85         85
    86         64
    87         31
    94         14
    95         42
    96         50
    97        118
    98        124
    99        166
   100        999
   101        101
   102        330
   103         32
   106         26
   107         34
   108         73
   109         61
   110         33
   111         35
   113         15
   114         56
   115         81
   116         48
   117         64
   118         20
   119         69
   120         58
   121         62
   122         42
   123         46
   124         23
   125         21
   130         48
   131         28
   132        128
   133        134
   134         90
   135        169
   136         34
   137         88
   139         19
   141         64
   143         84
   145         35
   147         20
   150         23
   151         31
   157         22
   158         26
   159         41
   160         91
   161         24
   162         32
   165         36
   167         44
   169         43
   170         22
   171         21
   183         30
   185         16
   193         22
   194        103
   195         55
   196         76
   197         30
   203         19
   204         19
   217         42
   219         36
   228         28
   229         28
   230        123
   231         39
   232         93
   233         19
   234         37
   235        191
   236         83
   237        290
   238        131
   239        198
   240         81
   241         71
   242         32
   251         12
   253         18
   264        131
   265         50
   266        156
   267         52
   268         74
   270        408
   272        722
   273         55
   274        610
   275         40
   276        256
   277         17
   278         62
   299         37
   300         20
   301         63
   302         25
   303         39
   304         19
   335         89
   336         16
   337        170
   338         23
   339        131
   340         19
   341         55
   370         34
   372         66
   374         63
   376         35