##TITLE=Library Entry 77931
##JCAMP-DX=Revision 4.10 
##DATA TYPE=MASS SPECTRUM
##SAMPLE DESCRIPTION=RADIAN CORP
##NAMES=HP
##CAS NAME=1(3H)-Isobenzofuranone, 3,3-bis(3,5-dibromo-4-hydroxyphenyl)-
##MOLFORM=C20H10Br4O4
##CAS REGISTRY NO=76-62-0
##MP= -300
##BP= -300
##MW= 630
##$RETENTION INDEX=0
##$CONDENSED SPECTRUM=NO
##NPOINTS= 135
##XYDATA=(XY..XY) 1 
    16         71
    50        152
    51         54
    53        256
    62        322
    63        387
    64         51
    74        124
    75        179
    76        559
    77         99
    79         27
    80         27
    86         80
    87         85
    88          7
    89         37
    90        278
    91        300
    92         50
    93          7
    94         29
    98         47
    99         58
   100         57
   101         20
   104        999
   105          2
   106        246
   107        116
   110         37
   111         62
   112         37
   113         43
   117         52
   119         56
   121         50
   122         55
   123         47
   124         45
   125          8
   131         55
   133         38
   135         43
   137        158
   138        405
   139        496
   140         83
   141        159
   142         94
   143        171
   144         85
   149         11
   150        203
   151         82
   161         70
   162         10
   163         45
   166         97
   167        112
   168         59
   169        110
   170        251
   171        122
   172        226
   173         14
   174         70
   175         27
   185         58
   186         70
   187        178
   188         47
   195        100
   196         42
   197         59
   198         13
   199         31
   200         74
   209          4
   210         59
   211        401
   212        257
   213        406
   214         96
   217         75
   219         67
   221         68
   222         59
   223        178
   224        100
   225         74
   241          5
   242        103
   246        146
   247         20
   248        152
   249         48
   251         86
   253          5
   274        239
   275         58
   276        252
   277        131
   279        152
   281         75
   301         55
   302        398
   303        148
   304        393
   305         89
   313         30
   320         61
   322         61
   349         57
   351         57
   381        174
   383        335
   384         54
   385        172
   428         78
   430        134
   432         57
   502          5
   507        230
   508         35
   509        665
   510        140
   511        632
   512        139
   513        213
   514         14
   630         10
   632         44
   634         75
   636         28