##TITLE=Library Entry 56111
##JCAMP-DX=Revision 4.10 
##DATA TYPE=MASS SPECTRUM
##SAMPLE DESCRIPTION=Finnigan MAT: Toxicological Library (LIBR-TX)
##NAMES=HP
##CAS NAME=2(3H)-Benzofuranone, 3-(.beta.-diethylaminoethyl)-3-phenyl-
##MOLFORM=C20H23NO2
##CAS REGISTRY NO=76-65-3
##MP= -300
##BP= -300
##MW= 309
##$RETENTION INDEX=2226
##$CONDENSED SPECTRUM=NO
##NPOINTS= 29
##XYDATA=(XY..XY) 1 
    56         61
    58         87
    71         21
    84         34
    86        999
    87         76
    99         21
   100         15
   115         24
   126          7
   131          9
   152         50
   153         23
   165         31
   166          8
   178         29
   181         19
   194          6
   195          4
   207         34
   209         46
   237          7
   238          1
   278          0
   279          0
   294         51
   295         11
   309         20
   310          4