##TITLE=Library Entry 33206
##JCAMP-DX=Revision 4.10 
##DATA TYPE=MASS SPECTRUM
##SAMPLE DESCRIPTION=NIST Mass Spectrometry Data Center
##NAMES=HP
##CAS NAME=Cyclopentobarbital
##MOLFORM=C12H14N2O3
##CAS REGISTRY NO=76-68-6
##MP= -300
##BP= -300
##MW= 234
##$RETENTION INDEX=1864
##$CONDENSED SPECTRUM=NO
##NPOINTS= 148
##XYDATA=(XY..XY) 1 
    15          1
    26          6
    27         43
    28         13
    29          6
    30          2
    31          1
    37          3
    38         13
    39        173
    40         38
    41        266
    42         18
    43         25
    44         48
    45          4
    46          2
    49          1
    50         24
    51         70
    52         57
    53        104
    54         25
    55         21
    56          6
    57          4
    58          4
    59          1
    60          2
    61          3
    62          7
    63         23
    64          8
    65        159
    66        255
    67        999
    68         65
    69         14
    70         29
    71          2
    72          1
    73          1
    74          2
    75          3
    76          6
    77        130
    78         53
    79         73
    80         34
    81         23
    82         34
    83          7
    84          1
    85          1
    86          1
    87          3
    88          1
    89          7
    90          4
    91         64
    92         16
    93         31
    94         42
    95         11
    96         52
    97         88
    98         27
    99          2
   101          1
   102          4
   103         11
   104         23
   105         62
   106         41
   107         69
   108         32
   109         22
   110          4
   111          1
   112          2
   113          1
   114          1
   115         15
   116          4
   117         17
   118          5
   119          5
   120          7
   121         17
   122         16
   123          5
   124         21
   125          6
   126         12
   127          1
   128          2
   129          2
   130          2
   131          2
   132         18
   133         63
   134          8
   135          2
   136          2
   139          1
   140          3
   141         18
   142          3
   143          1
   144          1
   145          2
   146          2
   147          2
   148          4
   149         17
   150        101
   151         25
   152          3
   153         50
   154          5
   155          3
   156          1
   161          1
   162          1
   163          2
   164          1
   165          6
   166          4
   167         21
   168         80
   169        417
   170         36
   171          4
   174          1
   175          4
   176         16
   177          2
   191          2
   192         60
   193        564
   194         60
   195          6
   204          1
   205          5
   206          1
   219          1
   233          1
   234          2