##TITLE=Library Entry 81564
##JCAMP-DX=Revision 4.10 
##DATA TYPE=MASS SPECTRUM
##SAMPLE DESCRIPTION=Japan AIST/NIMC Database- Spectrum MS-NW-2659
##NAMES=HP
##CAS NAME=Benzenemethanol, .alpha.,.alpha.-diphenyl-
##MOLFORM=C19H16O
##CAS REGISTRY NO=76-84-6
##MP= -300
##BP= -300
##MW= 260
##$RETENTION INDEX=0
##$CONDENSED SPECTRUM=NO
##NPOINTS= 134
##XYDATA=(XY..XY) 1 
    17          2
    18          7
    26          1
    27          7
    28          7
    38          1
    39         12
    41          1
    43          1
    50         15
    51         67
    52          8
    53          2
    55          1
    57          1
    62          4
    63         10
    64          3
    65          4
    74          6
    75          7
    76         15
    77        383
    78         45
    79          5
    81          1
    82          1
    86          3
    87          4
    88          3
    89          5
    90          1
    91         26
    92          1
    93          2
    94          5
    95          1
    97          1
    98          2
    99          2
   100          2
   101          5
   102          3
   103          2
   104          3
   105        999
   106         82
   107          9
   108          3
   110          1
   111          1
   112          1
   113          8
   114          3
   115         14
   116          2
   118          6
   119         13
   120          9
   121          7
   122          1
   126          3
   127          5
   128          6
   129          4
   130          1
   137          1
   138          1
   139          9
   140          1
   141          2
   150          2
   151          6
   152         28
   153         22
   154        293
   155        219
   156         25
   157          1
   162          1
   163         10
   164         13
   165        180
   166         46
   167         40
   168          6
   176          2
   177          1
   178          1
   180          1
   181         48
   182        209
   183        968
   184        135
   185         10
   186          1
   187          2
   188          1
   189          4
   190          1
   191          1
   200          2
   201          2
   202          8
   203          2
   211          1
   213          5
   214          1
   215         14
   216          5
   217          1
   225          1
   226          8
   227          4
   228         10
   229          4
   230          1
   231          1
   237          4
   238          3
   239         34
   240         14
   241         88
   242        155
   243         90
   244         53
   245          9
   246          1
   257          1
   258          1
   259         10
   260        191
   261         39
   262          4