##TITLE=Library Entry 40035
##JCAMP-DX=Revision 4.10 
##DATA TYPE=MASS SPECTRUM
##SAMPLE DESCRIPTION=Chemical Concepts
##NAMES=HP
##CAS NAME=Methadone
##MOLFORM=C21H27NO
##CAS REGISTRY NO=76-99-3
##MP= -300
##BP= -300
##MW= 309
##$RETENTION INDEX=2145
##$CONDENSED SPECTRUM=NO
##NPOINTS= 186
##XYDATA=(XY..XY) 1 
    27          8
    28          3
    29         37
    30          6
    39          5
    41         24
    42         28
    43          6
    44         26
    45          4
    51          5
    53          3
    54          3
    55         30
    56         34
    57         59
    58         12
    60          5
    61          2
    63          3
    65          5
    67          8
    68          6
    69         28
    70         36
    71         44
    72        999
    73         76
    74          3
    75          1
    76          3
    77         14
    78          3
    79          5
    80          2
    81         17
    82          8
    83         16
    84         11
    85         38
    86         78
    87          5
    89          3
    91         43
    92          4
    93          5
    94          2
    95         12
    96          6
    97         16
    98          5
    99          7
   101          2
   102          9
   103          6
   104          2
   105         22
   106          2
   107          4
   108          2
   109          9
   110          4
   111         11
   112          5
   113          6
   114          2
   115         24
   116          5
   117         16
   118          3
   119          2
   120          2
   121          5
   122          2
   123          7
   124          3
   125          7
   126          3
   127          7
   128          8
   129         16
   130          8
   131          4
   132          1
   133          2
   134          2
   135          3
   136          3
   137          6
   138          2
   139          6
   140          2
   141          4
   143          2
   144          2
   145          3
   146          2
   147          4
   148          1
   149         13
   150          3
   151          4
   152          9
   153          4
   154          1
   155          4
   157          2
   158          2
   159          2
   160          7
   161          2
   163          5
   164          5
   165         34
   166          9
   167         11
   168          2
   169          3
   171          2
   175          1
   176          4
   177          5
   178         22
   179         17
   180          8
   181          3
   182          1
   183          2
   184          2
   185          3
   187          1
   189          5
   190          3
   191          9
   192          4
   193         15
   194          7
   195         18
   196          3
   197          2
   199          2
   201          1
   202          2
   203          2
   204          2
   205          3
   206          1
   207          9
   208         15
   209          3
   211          2
   213          2
   217          1
   219          2
   220          1
   221          2
   222          3
   223         59
   224         14
   225          2
   227          1
   228          2
   230          1
   234          2
   236          6
   237          2
   239          1
   241          2
   242          1
   250          1
   251          1
   252          1
   253          2
   259          1
   264          1
   265          7
   266          1
   279          1
   280          2
   294         65
   295         15
   296          2
   308          1
   309         24
   310          8
   311          1