##TITLE=Library Entry 45499
##JCAMP-DX=Revision 4.10 
##DATA TYPE=MASS SPECTRUM
##SAMPLE DESCRIPTION=Japan AIST/NIMC Database- Spectrum MS-NW-4946
##NAMES=HP
##CAS NAME=1-Butene, 3,4-dichloro-
##MOLFORM=C4H6Cl2
##CAS REGISTRY NO=760-23-6
##MP= -300
##BP= -300
##MW= 124
##$RETENTION INDEX=769
##$CONDENSED SPECTRUM=NO
##NPOINTS= 67
##XYDATA=(XY..XY) 1 
    12          2
    13          2
    14          5
    15          2
    24          1
    25          8
    26         65
    27        277
    28         31
    29          5
    35          9
    36         30
    37         20
    38         30
    39        356
    40         15
    41         10
    43          1
    44          2
    47          4
    48          5
    49         94
    50         59
    51         97
    52         36
    53        380
    54         60
    55          3
    60          5
    61         36
    62         73
    63         23
    64         23
    65          5
    72          1
    73         13
    74          2
    75        999
    76         35
    77        317
    78         10
    79          2
    83          4
    84          1
    85          3
    86          1
    87         11
    88        207
    89        436
    90         87
    91        141
    92          8
    96          6
    97          3
    98          4
    99          3
   105          1
   109          7
   111          5
   115          2
   117          1
   123          1
   124         19
   125          2
   126         13
   127          1
   128          2