##TITLE=Library Entry 24693
##JCAMP-DX=Revision 4.10 
##DATA TYPE=MASS SPECTRUM
##SAMPLE DESCRIPTION=Japan AIST/NIMC Database- Spectrum MS-NW-8359
##NAMES=HP
##CAS NAME=Hexanoyl chloride, 2-ethyl-
##MOLFORM=C8H15ClO
##CAS REGISTRY NO=760-67-8
##MP= -300
##BP= -300
##MW= 162
##$RETENTION INDEX=1040
##$CONDENSED SPECTRUM=NO
##NPOINTS= 86
##XYDATA=(XY..XY) 1 
    15          4
    18          1
    26          8
    27        107
    28         18
    29        152
    30          3
    35          7
    36         81
    37          3
    38         28
    39         90
    40         15
    41        304
    42         57
    43        238
    44          9
    45          2
    49          1
    50          4
    51          8
    52          3
    53         26
    54         12
    55        477
    56        106
    57        999
    58         47
    59          1
    60          1
    61          1
    62          1
    63          8
    65          5
    66          1
    67         11
    68         10
    69         62
    70        115
    71         44
    72          6
    73         15
    74          1
    75          1
    77          4
    78          2
    79          3
    80          3
    81          4
    82          5
    83        159
    84         12
    85          2
    87          5
    88         15
    89          1
    91         46
    92          5
    93         14
    94          1
    95          1
    97         12
    98         70
    99         92
   100          7
   101          3
   102          1
   105          8
   106        157
   107          9
   108         51
   109          3
   111          4
   115          2
   116          2
   117          1
   119          8
   121          2
   125          1
   126         70
   127         30
   128          3
   133          4
   134          9
   135          2
   136          3