##TITLE=Library Entry 39613
##JCAMP-DX=Revision 4.10 
##DATA TYPE=MASS SPECTRUM
##SAMPLE DESCRIPTION=Japan AIST/NIMC Database- Spectrum MS-NW- 334
##NAMES=HP
##CAS NAME=DL-Norvaline
##MOLFORM=C5H11NO2
##CAS REGISTRY NO=760-78-1
##MP= -300
##BP= -300
##MW= 117
##$RETENTION INDEX=0
##$CONDENSED SPECTRUM=NO
##NPOINTS= 42
##XYDATA=(XY..XY) 1 
    14          1
    15         10
    17          2
    18          7
    26          8
    27         60
    28        148
    29         52
    30        464
    31          7
    32          2
    33          1
    37          2
    38          6
    39         34
    40          6
    41         36
    42         48
    43         46
    44         77
    45         15
    46         30
    50          2
    51          2
    52          2
    53          6
    54          8
    55         60
    56         29
    57         29
    58          1
    68          2
    69          1
    70         10
    71          2
    72        999
    73         48
    74        239
    75         20
    76          1
    82          1
    88          3