##TITLE=Library Entry 3378
##JCAMP-DX=Revision 4.10 
##DATA TYPE=MASS SPECTRUM
##SAMPLE DESCRIPTION=Exported from NIST MS Search
##NAMES=HP
##CAS NAME=Pentane, 3-methylene-
##MOLFORM=C6H12
##CAS REGISTRY NO=760-21-4
##MP= -300
##BP= -300
##MW= 84
##$RETENTION INDEX=592
##$CONDENSED SPECTRUM=NO
##NPOINTS= 58
##XYDATA=(XY..XY) 1 
    12          1
    13          1
    14          7
    15         69
    16          2
    25          1
    26         42
    27        495
    28         99
    29        345
    30          8
    31          1
    32          1
    33          1
    36          1
    37          8
    38         30
    39        392
    40         74
    41        999
    42        314
    43         99
    44          4
    49          2
    50         30
    51         59
    52         28
    53        152
    54         84
    55        749
    56        314
    57         15
    58          1
    61          1
    62          3
    63          7
    64          1
    65         14
    66          7
    67         50
    68          9
    69        893
    70         48
    71          1
    73          1
    74          1
    75          1
    76          1
    77          4
    78          1
    79          3
    80          1
    81          2
    82          1
    83          8
    84        424
    85         28
    86          1