##TITLE=Library Entry 56440
##JCAMP-DX=Revision 4.10 
##DATA TYPE=MASS SPECTRUM
##SAMPLE DESCRIPTION=Div. of Experiment Therapeutics WRAIR, WRAMC, Washingto
n DC 20307
##NAMES=HP
##CAS NAME=2-[3,4-Dichloroanilino]-7-[[3,4-dichlorobenzyl]amino]-4-[[2-[diet
hylamino]ethyl]amino]quinazoline
##MOLFORM=C27H28Cl4N6
##CAS REGISTRY NO=76005-01-1
##MP= -300
##BP= -300
##MW= 576
##$RETENTION INDEX=0
##$CONDENSED SPECTRUM=NO
##NPOINTS= 133
##XYDATA=(XY..XY) 1 
    42         24
    43          2
    44         33
    45          0
    51          0
    52          0
    54          2
    56         34
    58        105
    59          2
    63          4
    64          0
    65          1
    68          1
    70         16
    71         26
    72          2
    73          1
    75          3
    76          0
    77          2
    78          1
    84         20
    86        999
    87         40
    89         10
    90          3
    91          1
    97          0
    99        200
   100         18
   101          1
   102          3
   103          1
   104          2
   105          4
   106          0
   109          0
   111          2
   113          2
   115          3
   116          2
   117          1
   118          3
   123          5
   124          4
   125          6
   126          0
   127          3
   129          2
   130          2
   131          1
   132          1
   133          2
   135          2
   137          0
   140          0
   142          0
   143          1
   144          0
   145          2
   146          2
   147          1
   148          0
   150          0
   152          1
   154          0
   157          1
   159         49
   161         39
   163          7
   171          2
   172          1
   173          0
   174          0
   186          2
   188          0
   203          0
   213          0
   240          4
   241          1
   242          1
   252          0
   253          0
   254          0
   255          0
   267          7
   268          2
   269          2
   274          0
   275          1
   276          0
   277          1
   280          0
   281          0
   294          0
   302          1
   303          0
   304          1
   305          0
   306          0
   317          1
   318          1
   319          1
   320          1
   330          1
   331          5
   332          1
   333          2
   334          1
   344          0
   345          1
   346          0
   347          1
   427          0
   428          0
   476          3
   477         13
   478         10
   479         19
   480         12
   481         10
   482          5
   483          3
   484          1
   490          6
   491          1
   492          6
   493          1
   494          3
   495          0
   504          1
   506          1