##TITLE=Library Entry 60441
##JCAMP-DX=Revision 4.10 
##DATA TYPE=MASS SPECTRUM
##SAMPLE DESCRIPTION=NIST Mass Spectrometry Data Center
##NAMES=HP
##CAS NAME=Pentafluoropropionic acid, benzyl ester
##MOLFORM=C10H7F5O2
##CAS REGISTRY NO=76008-52-1
##MP= -300
##BP= -300
##MW= 254
##$RETENTION INDEX=0
##$CONDENSED SPECTRUM=NO
##NPOINTS= 66
##XYDATA=(XY..XY) 1 
    26          2
    27          6
    28          1
    29          4
    31          8
    37          3
    38         10
    39         61
    40          5
    41         14
    42          1
    43          1
    44          3
    45         16
    47          1
    49          2
    50         46
    51         85
    52         24
    53          7
    61          4
    62         17
    63         55
    64         17
    65        145
    66          9
    69         74
    70          1
    73          1
    74          9
    75          6
    76          7
    77        102
    78         26
    79         47
    80          3
    81          1
    83          2
    85          1
    86          3
    87          2
    89         98
    90        473
    91        999
    92         83
    93          3
   100         14
   101          1
   105         29
   106          5
   107         49
   108          4
   109          6
   110          1
   119        101
   120          3
   127          7
   128          1
   135          7
   136          1
   147          4
   177          1
   225          2
   254        232
   255         29
   256          3