##TITLE=Library Entry 34049
##JCAMP-DX=Revision 4.10 
##DATA TYPE=MASS SPECTRUM
##SAMPLE DESCRIPTION=Chemical Concepts
##NAMES=HP
##CAS NAME=2-Propenoic acid, 2-methyl-, 3-methyl-2-methylene-3-butenyl ester
##MOLFORM=C10H14O2
##CAS REGISTRY NO=76003-37-7
##MP= -300
##BP= -300
##MW= 166
##$RETENTION INDEX=0
##$CONDENSED SPECTRUM=NO
##NPOINTS= 72
##XYDATA=(XY..XY) 1 
    24          0
    26          1
    27         65
    29         12
    35          0
    37          3
    38         14
    39        236
    40         56
    41        848
    42         31
    43         28
    49          0
    50          6
    51         15
    52         33
    53         73
    54          6
    55         15
    56          0
    61          0
    62          1
    63          3
    64          1
    65         19
    66         11
    67         19
    68         11
    69        999
    70         44
    71          0
    75          0
    76          0
    77         21
    78          6
    79        230
    80         43
    81         19
    82          3
    83          3
    87          2
    91          1
    92          1
    93          9
    94          1
    95         11
    96         39
    97         90
    98          5
    99          0
   105          4
   107          6
   108          1
   109          5
   110         12
   111          1
   120          2
   121         19
   122          3
   123         10
   124          8
   125          1
   133          0
   135          0
   137         12
   138         13
   139          1
   148          0
   149          0
   151          5
   166         32
   167          3