##TITLE=Library Entry 1878
##JCAMP-DX=Revision 4.10 
##DATA TYPE=MASS SPECTRUM
##SAMPLE DESCRIPTION=Chemical Concepts
##NAMES=HP
##CAS NAME=1-Hexen-4-yne, 3-ethylidene-2-methyl-
##MOLFORM=C9H12
##CAS REGISTRY NO=76003-39-9
##MP= -300
##BP= -300
##MW= 120
##$RETENTION INDEX=0
##$CONDENSED SPECTRUM=NO
##NPOINTS= 81
##XYDATA=(XY..XY) 1 
    25          5
    26         88
    27        619
    28         12
    29         35
    34          2
    35          0
    36          5
    37         80
    38        144
    39        999
    40        103
    41        462
    42         23
    43          4
    45          1
    46          2
    48          4
    49         28
    50        300
    51        639
    52        323
    53        294
    54         29
    55         32
    56         14
    57          6
    58         32
    59         13
    60          8
    61         44
    62         96
    63        253
    64         65
    65        279
    66         78
    67        105
    68          7
    69          1
    70          2
    71          1
    72          1
    73         22
    74        102
    75         77
    76         58
    77        700
    78        424
    79        693
    80         73
    81          8
    84          2
    85          7
    86         12
    87         15
    88          1
    89         29
    90         11
    91        519
    92         97
    93         49
    94          4
    97          1
    98          3
    99          1
   101         10
   102         16
   103        182
   104         81
   105        762
   106         62
   110          0
   114          1
   115         27
   116          5
   117         37
   118          9
   119         82
   120        749
   121         64
   122          1