##TITLE=Library Entry 34052
##JCAMP-DX=Revision 4.10 
##DATA TYPE=MASS SPECTRUM
##SAMPLE DESCRIPTION=Chemical Concepts
##NAMES=HP
##CAS NAME=2-Butenoic acid, 3-methyl-2-methylene-3-butenyl ester
##MOLFORM=C10H14O2
##CAS REGISTRY NO=76003-38-8
##MP= -300
##BP= -300
##MW= 166
##$RETENTION INDEX=0
##$CONDENSED SPECTRUM=NO
##NPOINTS= 76
##XYDATA=(XY..XY) 1 
    25          0
    26          2
    27         30
    28          1
    29          6
    30          0
    31          0
    32          0
    36          0
    37          3
    38          7
    39        123
    40         27
    41        221
    42         12
    43         15
    44          1
    50          3
    51          9
    52         17
    53         37
    54          4
    55         10
    57          0
    60          0
    62          1
    63          3
    65         11
    66          6
    67         13
    68         10
    69        999
    70         43
    71          3
    72          0
    75          0
    77         12
    78          3
    79        118
    80         19
    81          9
    82          2
    83          3
    84          1
    86          0
    87          5
    91          1
    92          0
    93          3
    94          0
    95          3
    96         15
    97         66
    98         10
    99          0
   104          0
   105          3
   106          0
   107          1
   109          3
   110          1
   119          0
   120          0
   121          4
   122          1
   123          3
   124          2
   125          0
   133          0
   135          0
   137          1
   138          1
   148          0
   151          2
   166         23
   167          2