##TITLE=Library Entry 18414
##JCAMP-DX=Revision 4.10 
##DATA TYPE=MASS SPECTRUM
##SAMPLE DESCRIPTION=J. SHAW, BORRISTON RESEARCH, ROCKVILLE, MD, USA
##NAMES=HP
##CAS NAME=Benzoic acid, 2,5-dichloro-3-hydroxy-6-methoxy-
##MOLFORM=C8H6Cl2O4
##CAS REGISTRY NO=7600-50-2
##MP= -300
##BP= -300
##MW= 236
##$RETENTION INDEX=0
##$CONDENSED SPECTRUM=NO
##NPOINTS= 175
##XYDATA=(XY..XY) 1 
    17         40
    18         90
    19          8
    25         76
    26         47
    29        641
    30         76
    31        156
    33         25
    35         48
    36         86
    37        117
    38         90
    39         99
    41         35
    42         25
    43         28
    45        526
    47         65
    49        243
    50        317
    51        162
    53        999
    54         44
    55         17
    56         10
    57          8
    60        227
    61        335
    62        282
    63        282
    65        100
    66         35
    67         30
    69         84
    71         36
    73        217
    74         32
    75         55
    77        325
    78         33
    79         79
    80         21
    81          8
    83         35
    84        104
    85        285
    87        453
    88         71
    89        161
    90         41
    91         28
    92          5
    93         18
    95         83
    96         99
    97        201
    98         48
    99         96
   100         17
   101         45
   102         14
   103         24
   104          9
   105         17
   106          9
   107         41
   108         13
   109         17
   111         36
   113        262
   114         28
   115         79
   116          9
   117          4
   118          8
   119         22
   120         47
   121        106
   122         33
   123         63
   124         14
   125         24
   126         18
   127         44
   128         28
   129         48
   130         17
   131         22
   133         55
   135         30
   136          4
   137          5
   138          1
   139          4
   140          6
   141         51
   142         12
   143         18
   144          4
   145          5
   147         68
   148         37
   149        134
   150         24
   151         65
   152          5
   153         10
   154          6
   155         10
   156          4
   157         25
   158          5
   159          9
   160         14
   161          6
   162         14
   163         44
   164          9
   165         53
   166          4
   167         21
   168          5
   169          8
   170          2
   171          8
   172          4
   173          2
   175         96
   176         33
   177         92
   178         22
   179         32
   180          5
   181          4
   182          8
   183         17
   184          4
   185          9
   186          8
   187          1
   189         90
   190         36
   191         60
   192         22
   193         24
   194          4
   195          6
   199          1
   200          6
   201          1
   203         82
   204         41
   205         60
   206         29
   207         32
   208          8
   209         12
   210          1
   211          1
   217          4
   218         12
   219         83
   220         16
   221        169
   222         14
   223         82
   224          6
   225         12
   236        185
   237         20
   238        115
   239         10
   240         18
   241          1