##TITLE=Library Entry 61757
##JCAMP-DX=Revision 4.10 
##DATA TYPE=MASS SPECTRUM
##SAMPLE DESCRIPTION=Japan AIST/NIMC Database- Spectrum MS-NW-5827
##NAMES=HP
##CAS NAME=1H-Indene, 2,3,4,7-tetrahydro-
##MOLFORM=C9H12
##CAS REGISTRY NO=7603-37-4
##MP= -300
##BP= -300
##MW= 120
##$RETENTION INDEX=1047
##$CONDENSED SPECTRUM=NO
##NPOINTS= 82
##XYDATA=(XY..XY) 1 
    14          2
    15          4
    26          8
    27         60
    28          2
    29          6
    37          6
    38         18
    39        147
    40         22
    41         91
    42          6
    43          4
    44          4
    45          3
    49          2
    50         35
    51         86
    52         31
    53         37
    54          7
    55         12
    56          2
    57         45
    58         59
    59         16
    60          3
    61          9
    62         24
    63         63
    64         14
    65         98
    66         47
    67         15
    68          2
    69          1
    70          1
    71          1
    73          2
    74         14
    75         10
    76          9
    77        120
    78        138
    79        199
    80         36
    81          5
    82          1
    83          2
    84          4
    85          4
    86          7
    87          8
    88          4
    89         37
    90         13
    91        999
    92        673
    93         66
    94          5
    95          3
    96          1
    98          2
    99          1
   100          4
   101          2
   102         13
   103         49
   104         17
   105        195
   106         20
   107          2
   113          4
   114          5
   115        152
   116         48
   117        470
   118        342
   119        144
   120        686
   121         73
   122          5