##TITLE=Library Entry 3988
##JCAMP-DX=Revision 4.10 
##DATA TYPE=MASS SPECTRUM
##SAMPLE DESCRIPTION=Chemical Concepts
##NAMES=HP
##CAS NAME=9-Borabicyclo[3.3.1]nonane, 9-(1-ethyl-1-butenyl)-, (E)-
##MOLFORM=C14H25B
##CAS REGISTRY NO=76036-41-4
##MP= -300
##BP= -300
##MW= 204
##$RETENTION INDEX=0
##$CONDENSED SPECTRUM=NO
##NPOINTS= 123
##XYDATA=(XY..XY) 1 
    27        453
    28         34
    29        203
    30          4
    36         42
    37        138
    38        103
    39        485
    40        292
    41        999
    42         78
    43         53
    49         16
    50        122
    51        301
    52        201
    53        706
    54        139
    55        350
    56         43
    57         15
    59          3
    60          9
    61         24
    62         24
    63         99
    64        132
    65        387
    66        208
    67        484
    68         82
    69         74
    70         12
    71          6
    73          6
    74         14
    75         30
    76         98
    77        287
    78        246
    79        473
    80        184
    81        199
    82        148
    83         76
    84         47
    85         16
    87          7
    88         22
    89         80
    90        123
    91        501
    92        610
    93        421
    94        134
    95        141
    96         53
    97         24
    98          6
   100          3
   101          7
   102         13
   103         42
   104         59
   105        216
   106        179
   107        164
   108         84
   109         57
   110         21
   111         10
   112         11
   113          6
   114          6
   115         10
   116         13
   117         41
   118         87
   119        419
   120        708
   121        186
   122         47
   123         25
   124          5
   125          3
   127          5
   129          5
   130          6
   131         15
   132         47
   133        186
   134        112
   135         40
   136         14
   137          8
   138          7
   139          4
   144          4
   145         11
   146         29
   147        106
   148        117
   149         25
   150          9
   159          6
   160         44
   161        158
   162        135
   163         25
   164          4
   173          7
   174         49
   175        177
   176         36
   177          8
   179          3
   180          4
   189          8
   190          4
   203        102
   204        388
   205         69
   206          6