##TITLE=Library Entry 47371
##JCAMP-DX=Revision 4.10 
##DATA TYPE=MASS SPECTRUM
##SAMPLE DESCRIPTION=NIST Mass Spectrometry Data Center
##NAMES=HP
##CAS NAME=(Phenylsulfonyl)acetonitrile
##MOLFORM=C8H7NO2S
##CAS REGISTRY NO=7605-28-9
##MP= -300
##BP= -300
##MW= 181
##$RETENTION INDEX=0
##$CONDENSED SPECTRUM=NO
##NPOINTS= 61
##XYDATA=(XY..XY) 1 
    12          2
    13          6
    14          3
    25          1
    26          4
    27         13
    28          6
    37          8
    38         24
    39         55
    40         56
    41          5
    44          1
    45          3
    46          2
    48         15
    49         11
    50        151
    51        387
    52         20
    53         10
    57          2
    58          2
    59          1
    61          4
    62          9
    63         13
    64          8
    65         15
    66          2
    69         14
    70          3
    71          2
    73         10
    74         39
    75         29
    77        999
    78         70
    79          2
    81          4
    82          3
    89          6
    90          3
    91          1
    93          1
    95          2
    97         17
    98          1
    99          1
   108          3
   109          3
   110          1
   116          3
   125          9
   141        401
   142         29
   143         19
   144          1
   181         35
   182          3
   183          1