##TITLE=Library Entry 107288
##JCAMP-DX=Revision 4.10 
##DATA TYPE=MASS SPECTRUM
##SAMPLE DESCRIPTION=NIST Mass Spectrometry Data Center, 2010
##NAMES=HP
##CAS NAME=Ethyl (phenylthio)acetate
##MOLFORM=C10H12O2S
##CAS REGISTRY NO=7605-25-6
##MP= -300
##BP= -300
##MW= 196
##$RETENTION INDEX=1498
##$CONDENSED SPECTRUM=NO
##NPOINTS= 95
##XYDATA=(XY..XY) 1 
    14          1
    15          2
    26          3
    27         21
    28          5
    29         52
    30          2
    31          5
    37          1
    38          4
    39         31
    40          2
    41          2
    42         18
    43          9
    44          3
    45        196
    46         12
    47         11
    48          1
    49          1
    50         24
    51         79
    52          8
    53          3
    57          4
    58          6
    59          5
    60          1
    61          6
    63         13
    64          2
    65         75
    66         11
    67          1
    69         36
    70          3
    71          5
    72          1
    73          2
    74         10
    75          8
    76          8
    77        114
    78         38
    79         48
    80          3
    81          5
    82         12
    83          6
    84          5
    85          1
    86          1
    89          5
    90          2
    91         25
    92          2
    93          2
    94          2
    95          3
    96          1
    97          8
    98          1
   103          1
   105          6
   106          2
   107          1
   108         25
   109        113
   110         47
   111          9
   112          2
   119          1
   121         37
   122         11
   123        999
   124         85
   125         50
   126          5
   134          1
   135          1
   137          6
   138          1
   139          1
   149          1
   150          2
   151          9
   152          1
   153          1
   168          9
   169          1
   196        517
   197         61
   198         28
   199          3