##TITLE=Library Entry 41014
##JCAMP-DX=Revision 4.10 
##DATA TYPE=MASS SPECTRUM
##SAMPLE DESCRIPTION=Chemical Concepts
##NAMES=HP
##CAS NAME=2,2-Dimethyl-1-(1-trimethylsilyl-3,4-dihydro-1H-isoquinolin-2-yl)
propan-1-one
##MOLFORM=C17H27NOSi
##CAS REGISTRY NO=76068-90-1
##MP= -300
##BP= -300
##MW= 289
##$RETENTION INDEX=0
##$CONDENSED SPECTRUM=NO
##NPOINTS= 149
##XYDATA=(XY..XY) 1 
    26          1
    27         14
    28         16
    29         97
    30          4
    31          5
    38          1
    39         25
    40          4
    41        138
    42         19
    43         38
    44         17
    45        109
    46          8
    47          6
    50          3
    51          9
    52          2
    53          7
    54          3
    55         19
    56         10
    57        573
    58         38
    59         43
    60          3
    61          4
    63          5
    65          7
    67          2
    68          2
    69         15
    70          9
    71          5
    72         13
    73        999
    74         85
    75         77
    76          8
    77         37
    78         19
    79          9
    83          4
    84          3
    85         56
    86          6
    89          7
    90         10
    91         22
    92          2
    93          2
   100         47
   101        124
   102         30
   103         53
   104         35
   105         49
   106          4
   107          3
   113          3
   114          6
   115         52
   116        155
   117        438
   118         54
   119          9
   120          1
   121          3
   127          3
   128          9
   129         16
   130        145
   131         88
   132        370
   133         48
   134          3
   135          3
   141          2
   142          5
   143         48
   144         12
   145         21
   146         10
   147          7
   148          2
   149         11
   156          3
   157          4
   158         55
   159         15
   160          9
   161          7
   162          2
   163          2
   170          4
   171          2
   172          6
   173          4
   174         27
   175          4
   184          3
   185          1
   186          4
   187          2
   188         31
   189         15
   190          5
   191          1
   198          1
   199          2
   200          4
   201          2
   202         14
   203          6
   204        359
   205         73
   206         18
   207          2
   214          3
   215          2
   216         95
   217         21
   218          9
   219          2
   231          3
   232         32
   233         24
   234          4
   244          4
   245          1
   246         99
   247         47
   248         11
   249          2
   258          8
   259          3
   260          3
   272          4
   273          3
   274        316
   275         76
   276         19
   277          3
   288         11
   289        450
   290        109
   292         29
   293          4