##TITLE=Library Entry 100342
##JCAMP-DX=Revision 4.10 
##DATA TYPE=MASS SPECTRUM
##SAMPLE DESCRIPTION=Chemical Concepts
##NAMES=HP
##CAS NAME=1,3-Cyclopentadiene, 1,2,3,4-tetramethyl-5-methylene-
##MOLFORM=C10H14
##CAS REGISTRY NO=76089-59-3
##MP= -300
##BP= -300
##MW= 134
##$RETENTION INDEX=0
##$CONDENSED SPECTRUM=NO
##NPOINTS= 72
##XYDATA=(XY..XY) 1 
    26          3
    27         77
    29         15
    37          1
    38          6
    39         92
    40         10
    41        114
    42          4
    43          1
    50         25
    51         73
    52         28
    53         59
    54          4
    55         14
    56          0
    57          2
    58         13
    59          3
    61          1
    62          8
    63         34
    64         23
    65         59
    66         17
    67         15
    69          1
    70          2
    74          6
    75          8
    76          6
    77         86
    78         26
    79         49
    80          4
    81          1
    83          1
    86          2
    87          3
    89         11
    90          3
    91        197
    92         21
    93         27
    94          2
   101          2
   102          8
   103         43
   104         34
   105         49
   106          9
   107          3
   113          2
   114          3
   115         58
   116         26
   117         69
   118         29
   119        999
   120         93
   121          3
   127          3
   128          6
   129          4
   131          6
   132          5
   133        138
   134        433
   135         50
   136          2
   137          0