##TITLE=Library Entry 21661
##JCAMP-DX=Revision 4.10 
##DATA TYPE=MASS SPECTRUM
##SAMPLE DESCRIPTION=V.G.Zaikin, TIPS, Russian Acad. Sci.
##NAMES=HP
##CAS NAME=trans-2-Methyl-4-n-pentylthiane
##MOLFORM=C11H22S
##CAS REGISTRY NO=76097-71-7
##MP= -300
##BP= -300
##MW= 186
##$RETENTION INDEX=0
##$CONDENSED SPECTRUM=NO
##NPOINTS= 63
##XYDATA=(XY..XY) 1 
    53        160
    54        110
    55        999
    56        160
    57        110
    58         30
    59        180
    60        170
    61        320
    65         60
    66         10
    67        330
    68        150
    69        560
    70        130
    71         60
    73        140
    74        170
    75        230
    77         40
    79         70
    81        670
    82        130
    83        210
    84         50
    85         60
    87        470
    88        110
    89         50
    95        230
    96        240
    97        140
    98         20
    99         50
   101        290
   102         40
   103         20
   109        140
   110         50
   111         30
   115        260
   116         60
   117         20
   123         70
   124         50
   125         20
   129        460
   130         50
   131         30
   143        230
   144         50
   145         20
   157        460
   158         85
   159         30
   171        820
   172        100
   173         50
   185         30
   186        670
   187         87
   188         34
   189          4