##TITLE=Library Entry 19334
##JCAMP-DX=Revision 4.10 
##DATA TYPE=MASS SPECTRUM
##SAMPLE DESCRIPTION=NIST Mass Spectrometry Data Center
##NAMES=HP
##CAS NAME=Hexan-3-yl trifluoroacetate
##MOLFORM=C8H13F3O2
##CAS REGISTRY NO=761-34-2
##MP= -300
##BP= -300
##MW= 198
##$RETENTION INDEX=796
##$CONDENSED SPECTRUM=NO
##NPOINTS= 83
##XYDATA=(XY..XY) 1 
    14          1
    15          7
    20          1
    26         10
    27        153
    28         33
    29        173
    30          5
    31          9
    33          5
    37          2
    38          6
    39        116
    40         24
    41        623
    42        138
    43        391
    44         27
    45          9
    46          1
    47         25
    48          1
    50         16
    51         13
    52          4
    53         31
    54         40
    55        999
    56        231
    57        101
    58          6
    59         15
    60          3
    61         43
    62          2
    63          2
    65          4
    66          2
    67         12
    69        516
    70         13
    71         28
    72          3
    73          1
    77          2
    78          9
    79          2
    81          1
    82          1
    83         11
    84        287
    85        348
    86         23
    87          1
    91          1
    93          2
    95          2
    97         30
    99        122
   100          6
   106          1
   112          7
   113          8
   114          1
   115          5
   119          1
   125          9
   126          1
   127          2
   129          1
   131          1
   139          1
   140          9
   141          3
   150          1
   153          2
   154         43
   155        147
   156          9
   157          1
   168          7
   169         41
   170          3