##TITLE=Library Entry 76321
##JCAMP-DX=Revision 4.10 
##DATA TYPE=MASS SPECTRUM
##SAMPLE DESCRIPTION=Chemical Concepts
##NAMES=HP
##CAS NAME=Ethane, 1,1-dibromo-2,2-diethoxy-
##MOLFORM=C6H12Br2O2
##CAS REGISTRY NO=761-17-1
##MP= -300
##BP= -300
##MW= 274
##$RETENTION INDEX=0
##$CONDENSED SPECTRUM=NO
##NPOINTS= 84
##XYDATA=(XY..XY) 1 
    35          2
    36          6
    38          4
    39         10
    40          8
    41         34
    42         44
    43        101
    44         30
    45         80
    47        649
    49          4
    53          2
    54          1
    55          9
    56          4
    57          9
    58         12
    59         32
    60          7
    69          5
    71         22
    72          8
    73         25
    75        448
    76         14
    77          8
    79          7
    80          6
    81          9
    82          7
    83          3
    84          8
    85          1
    86         13
    87          5
    89          1
    90          1
    91         16
    92         29
    93         72
    94         25
    95         55
    96          4
    97          2
    99          9
   100          2
   101         12
   103        999
   104         65
   106         13
   107         15
   108          9
   109          4
   111          1
   119          4
   120         12
   121         39
   122         63
   123         40
   124         43
   125          3
   138          2
   139          1
   140          2
   150          4
   151          2
   152          5
   153          1
   171          7
   172          3
   173         13
   174          5
   175          7
   176          1
   201         35
   202         10
   203         60
   205         32
   229         15
   230          6
   231         31
   232          4
   233         12