##TITLE=Library Entry 25007
##JCAMP-DX=Revision 4.10 
##DATA TYPE=MASS SPECTRUM
##SAMPLE DESCRIPTION=Chemical Concepts
##NAMES=HP
##CAS NAME=Acetic acid, cyano(hydroxyimino)-, 1,1-dimethylethyl ester
##MOLFORM=C7H10N2O3
##CAS REGISTRY NO=76101-98-9
##MP= -300
##BP= -300
##MW= 170
##$RETENTION INDEX=0
##$CONDENSED SPECTRUM=NO
##NPOINTS= 64
##XYDATA=(XY..XY) 1 
    25          1
    26         14
    27         79
    28         86
    29        162
    30         65
    31         17
    37          5
    38         17
    39        111
    40         25
    41        377
    42         21
    43        137
    44         46
    45          7
    49          2
    50          7
    51          7
    52         39
    53         29
    54          9
    55         42
    56        288
    57        999
    58         47
    59        718
    60         23
    61          1
    66          0
    67          7
    68          4
    69         65
    70          8
    71          1
    72          0
    73          7
    74          0
    80          0
    81          0
    83          1
    84          0
    85          1
    86          0
    88          6
    95          0
    96          1
    97         39
    98          1
   109          2
   110          0
   111          2
   112          0
   114          1
   115          4
   132          1
   141          0
   143          0
   149          1
   153          1
   155        130
   156          9
   157          1
   171          2