##TITLE=Library Entry 49856
##JCAMP-DX=Revision 4.10 
##DATA TYPE=MASS SPECTRUM
##SAMPLE DESCRIPTION=RESEARCH LABORATORY, STATE ALCOHOL MONOPOLY ALKO, HELSI
NKI, FINLAND; IRMA NYKANEN ET AL
##NAMES=HP
##CAS NAME=Bicyclo[2.2.1]heptan-2-ol, 1,3,3-trimethyl-, acetate, (1S-exo)-
##MOLFORM=C12H20O2
##CAS REGISTRY NO=76109-40-5
##MP= -300
##BP= -300
##MW= 196
##$RETENTION INDEX=0
##$CONDENSED SPECTRUM=NO
##NPOINTS= 74
##XYDATA=(XY..XY) 1 
    27         24
    29         27
    39         34
    40         10
    41        124
    42         13
    43        634
    44         20
    45         10
    51          6
    52          3
    53         37
    54         10
    55         82
    56         20
    57         34
    58          6
    59         13
    65         13
    66          6
    67         79
    68         20
    69        117
    70         13
    71         68
    72        124
    73         10
    77         31
    78          6
    79         79
    80        396
    81        999
    82        120
    83         55
    84         55
    85         20
    86         20
    91         31
    92         55
    93        231
    94         44
    95         51
    96         13
    97         24
    98         17
    99         13
   105         13
   106          6
   107        127
   108         27
   109         68
   110         13
   111         55
   112          6
   113         17
   114         24
   115         31
   116          3
   121        165
   122         20
   123         27
   124          6
   125          6
   126          6
   135         34
   136        175
   137         31
   138          6
   139         20
   152          6
   153         17
   154         27
   185          3
   196          3