##TITLE=Library Entry 18949
##JCAMP-DX=Revision 4.10 
##DATA TYPE=MASS SPECTRUM
##SAMPLE DESCRIPTION=NIST Mass Spectrometry Data Center, 1990.
##NAMES=HP
##CAS NAME=1-Butene, 1-chloro-, (Z)-
##MOLFORM=C4H7Cl
##CAS REGISTRY NO=7611-86-1
##MP= -300
##BP= -300
##MW= 90
##$RETENTION INDEX=0
##$CONDENSED SPECTRUM=NO
##NPOINTS= 35
##XYDATA=(XY..XY) 1 
    14         17
    15         46
    18         21
    25         28
    26        183
    27        360
    28        141
    29        186
    36         16
    37         60
    38        119
    39        660
    40         47
    41        100
    47         22
    48         19
    49        127
    50        121
    51        132
    52         35
    53        239
    54        245
    55        999
    56         45
    61         38
    62        157
    63         27
    64         58
    73         18
    75        328
    76         18
    77         95
    89         34
    90        298
    92         99