##TITLE=Library Entry 97934
##JCAMP-DX=Revision 4.10 
##DATA TYPE=MASS SPECTRUM
##SAMPLE DESCRIPTION=N.Klyuev, Institute of Ecology & Evolution, RAS, Moscow
##NAMES=HP
##CAS NAME=1H-Benzimidazole, 2-[[1-(hydroxyimino)ethyl]azo]-
##MOLFORM=C9H9N5O
##CAS REGISTRY NO=76128-52-4
##MP= -300
##BP= -300
##MW= 203
##$RETENTION INDEX=0
##$CONDENSED SPECTRUM=NO
##NPOINTS= 53
##XYDATA=(XY..XY) 1 
    40        161
    41        264
    42        164
    43         60
    50         74
    51        144
    52        147
    53         52
    54         13
    57         50
    58        569
    59         25
    63        299
    64        209
    65         83
    75         35
    76         64
    77        164
    78        100
    79         44
    89         47
    90        858
    91        283
    92         57
   102         20
   103         52
   104        181
   105         18
   106          8
   116         38
   117        489
   118        999
   119        166
   120         11
   131        186
   132        329
   133         63
   134        270
   135         26
   144         25
   145         35
   146         10
   157         10
   158        112
   159         18
   172        100
   173        297
   174         33
   175         13
   176         11
   186         15
   203        109
   204         18