##TITLE=Library Entry 47320
##JCAMP-DX=Revision 4.10 
##DATA TYPE=MASS SPECTRUM
##SAMPLE DESCRIPTION=NIST Mass Spectrometry Data Center, 1994
##NAMES=HP
##CAS NAME=Isothiocyanic acid, (p-phenylazo)phenyl ester
##MOLFORM=C13H9N3S
##CAS REGISTRY NO=7612-96-6
##MP= -300
##BP= -300
##MW= 239
##$RETENTION INDEX=0
##$CONDENSED SPECTRUM=NO
##NPOINTS= 92
##XYDATA=(XY..XY) 1 
    26         12
    27         48
    28         18
    32          7
    37         32
    38         61
    39        118
    40         12
    41          5
    44         14
    45         14
    50        229
    51        515
    52         49
    53          4
    56          2
    57          6
    58          5
    59          3
    60          3
    61         14
    62         40
    63        171
    64        113
    65         21
    66          3
    67          3
    69         22
    70         32
    71          4
    72          3
    73          7
    74         62
    75         98
    76        115
    77        999
    78         67
    81          6
    82          9
    83         20
    84         19
    86          2
    87          5
    88         11
    89          2
    90        260
    91         24
    92          3
    93          8
    94          7
    95          6
    96          5
    97          3
    99          2
   102         47
   103          6
   105        115
   106         15
   107         70
   108         31
   109         22
   110          3
   120          6
   121          3
   126          5
   127          7
   128          3
   130          7
   134        870
   135         85
   136         42
   137          3
   139          2
   140          2
   150          6
   151         19
   152         54
   153         11
   162        225
   163         22
   164         12
   177          3
   179          2
   207         15
   208          3
   209          3
   210          7
   211          5
   239        386
   240         64
   241         25
   242          3