##TITLE=Library Entry 95556
##JCAMP-DX=Revision 4.10 
##DATA TYPE=MASS SPECTRUM
##SAMPLE DESCRIPTION=Exported from NIST MS Search
##NAMES=HP
##CAS NAME=Benzene, 1,1'-(3-methyl-1-propene-1,3-diyl)bis-
##MOLFORM=C16H16
##CAS REGISTRY NO=7614-93-9
##MP= -300
##BP= -300
##MW= 208
##$RETENTION INDEX=1740
##$CONDENSED SPECTRUM=NO
##NPOINTS= 91
##XYDATA=(XY..XY) 1 
    27         23
    38          5
    39         47
    40          4
    41         11
    50         21
    51         76
    52         17
    53         17
    62          9
    63         46
    64          9
    65         77
    66          5
    70          8
    74         11
    75         17
    76         40
    77        118
    78         36
    79         32
    82         20
    83         20
    86          4
    87          8
    88         16
    89        115
    90         11
    91        410
    92         38
    94         12
    95         27
    96         21
    97          7
   101         18
   102         31
   103         70
   104         47
   105         68
   106         10
   113          6
   114          6
   115        999
   116        127
   117         71
   118          9
   119          8
   120          3
   126          8
   127         33
   128         81
   129        161
   130        193
   131         82
   132          8
   139         12
   141          7
   150          4
   151         10
   152         34
   153         10
   154          3
   163          9
   164          8
   165         95
   166         23
   167         34
   168          5
   176         13
   177         14
   178        312
   179        180
   180         27
   181          8
   187          4
   188          4
   189         56
   191        102
   192         53
   193        947
   194        205
   195         13
   202         15
   203         12
   204          8
   205         13
   206         31
   207        146
   208        954
   209        185
   210         19