##TITLE=Library Entry 32808
##JCAMP-DX=Revision 4.10 
##DATA TYPE=MASS SPECTRUM
##SAMPLE DESCRIPTION=TNO Volatile Compounds in Food - Chemical Concepts
##NAMES=HP
##CAS NAME=9,12-Octadecadienoic acid, ethyl ester
##MOLFORM=C20H36O2
##CAS REGISTRY NO=7619-08-1
##MP= -300
##BP= -300
##MW= 308
##$RETENTION INDEX=2527
##$CONDENSED SPECTRUM=NO
##NPOINTS= 134
##XYDATA=(XY..XY) 1 
    30          9
    31          9
    39         76
    40          6
    41        707
    42         54
    43        300
    44          5
    45         51
    51          9
    52          9
    53         96
    54        525
    55        772
    56         42
    57         99
    58          5
    59         15
    60         53
    61         33
    65         47
    66         65
    67        999
    68        613
    69        448
    70         59
    71         45
    73         57
    74          4
    77         84
    78         36
    79        438
    80        286
    81        919
    82        569
    83        200
    84         44
    85         29
    87         23
    88         83
    90         18
    91         69
    93        136
    94        152
    95        683
    96        478
    97        149
    98         41
    99         24
   101         90
   102         11
   105         21
   106         16
   107         80
   108        102
   109        366
   110        207
   111         74
   112         16
   113         13
   115         30
   119         26
   120         21
   121        114
   122         91
   123        145
   124        124
   125         48
   126          9
   127         13
   129         32
   130          9
   131         16
   133         28
   135        102
   136         87
   137         86
   138         70
   139         29
   141         16
   143         27
   145         14
   147         14
   149         75
   150        107
   151         62
   152         41
   153         20
   154         12
   155         16
   157         28
   159         13
   163         46
   164         85
   165         38
   166         18
   167         16
   168         13
   169          6
   171         13
   173         16
   175          8
   177         32
   178         60
   179         21
   181         12
   182         12
   185          9
   187         10
   191         14
   192         17
   193         10
   195         11
   199          7
   205         12
   206         11
   209          7
   218          7
   220         40
   221          9
   223         14
   234         12
   237          7
   238          4
   245          4
   251          6
   262         98
   263        133
   264         26
   269          4
   279         13
   308        115
   309         30
   310          4