##TITLE=Library Entry 109051
##JCAMP-DX=Revision 4.10 
##DATA TYPE=MASS SPECTRUM
##SAMPLE DESCRIPTION=Japan AIST/NIMC Database- Spectrum MS-NW-1162
##NAMES=HP
##CAS NAME=2-Butynedioic acid, diethyl ester
##MOLFORM=C8H10O4
##CAS REGISTRY NO=762-21-0
##MP= -300
##BP= -300
##MW= 170
##$RETENTION INDEX=0
##$CONDENSED SPECTRUM=NO
##NPOINTS= 98
##XYDATA=(XY..XY) 1 
    12          1
    13          2
    14          9
    15         52
    16          2
    17          3
    18         10
    24          7
    25         11
    26         46
    27        284
    28         68
    29        554
    30         19
    31         31
    32          8
    36          1
    37          3
    38          5
    39         18
    40          5
    41         11
    42         24
    43        106
    44         13
    45        196
    46          6
    47          2
    50          3
    51         10
    52        117
    53        932
    54         52
    55         20
    56          5
    57          6
    58          4
    59          2
    63          4
    64          5
    65          1
    66         13
    67         12
    68         33
    69         67
    70         40
    71          9
    72          1
    73          4
    74          1
    78          1
    79         13
    80        187
    81         54
    82         45
    83          6
    84          9
    85          3
    86          8
    87          6
    91          5
    92          1
    94          1
    95          9
    96         21
    97        115
    98        471
    99         38
   100          5
   101          1
   108          3
   109          1
   111          8
   112         12
   113         55
   114          5
   115         45
   116          2
   117          1
   119         13
   120          1
   123          2
   124        154
   125        999
   126        151
   127         18
   128          7
   129          2
   141          4
   142          2
   143         28
   144          2
   145          1
   149          1
   155          5
   169          1
   170          2
   171          2