##TITLE=Library Entry 40785
##JCAMP-DX=Revision 4.10 
##DATA TYPE=MASS SPECTRUM
##SAMPLE DESCRIPTION=D.HENNEBERG, MAX-PLANCK INSTITUTE, MULHEIM, WEST GERMAN
Y
##NAMES=HP
##CAS NAME=Silane, trimethyl-2-propenyl-
##MOLFORM=C6H14Si
##CAS REGISTRY NO=762-72-1
##MP= -300
##BP= -300
##MW= 114
##$RETENTION INDEX=650
##$CONDENSED SPECTRUM=NO
##NPOINTS= 61
##XYDATA=(XY..XY) 1 
    25          0
    26          1
    27          5
    29         30
    30          2
    31         25
    33          0
    36          0
    37          0
    38          1
    39         13
    40          1
    41          5
    42         12
    43        104
    44         28
    45        168
    46         11
    47          6
    48          0
    50          0
    51          1
    52          0
    53         12
    54          3
    55         20
    56          3
    57         14
    58         11
    59        148
    60         10
    61          5
    65          1
    66          4
    67          6
    68          1
    69          5
    70          4
    71         48
    72         13
    73        999
    74         83
    75         34
    76          1
    77          0
    79          0
    81          2
    82          0
    83          5
    84          0
    85          1
    95          2
    96          0
    97          7
    98          1
    99         93
   100         10
   101          3
   114         27
   115          3
   116          1