##TITLE=Library Entry 29957
##JCAMP-DX=Revision 4.10 
##DATA TYPE=MASS SPECTRUM
##SAMPLE DESCRIPTION=D.HENNEBERG, MAX-PLANCK INSTITUTE, MULHEIM, WEST GERMAN
Y
##NAMES=HP
##CAS NAME=Formic acid, 1,1-dimethylethyl ester
##MOLFORM=C5H10O2
##CAS REGISTRY NO=762-75-4
##MP= -300
##BP= -300
##MW= 102
##$RETENTION INDEX=587
##$CONDENSED SPECTRUM=NO
##NPOINTS= 47
##XYDATA=(XY..XY) 1 
    27        191
    28         53
    29        384
    30         12
    31        301
    32          4
    33          1
    36          1
    37          9
    38         25
    39        215
    40         35
    41        720
    42         38
    43        165
    44         19
    45         14
    46          6
    47          5
    48          0
    49          5
    50         15
    51         13
    52          3
    53         15
    54          8
    55         85
    56        268
    57        932
    58         42
    59        999
    60         27
    61          2
    63          2
    64          1
    65          2
    67          3
    68          0
    69         12
    71          2
    73          2
    76          0
    77          5
    81          0
    83          4
    87        109
    88          4