##TITLE=Library Entry 5793
##JCAMP-DX=Revision 4.10 
##DATA TYPE=MASS SPECTRUM
##SAMPLE DESCRIPTION=Exported from NIST MS Search
##NAMES=HP
##CAS NAME=Hydroperoxide, 1-methylhexyl
##MOLFORM=C7H16O2
##CAS REGISTRY NO=762-46-9
##MP= -300
##BP= -300
##MW= 132
##$RETENTION INDEX=0
##$CONDENSED SPECTRUM=NO
##NPOINTS= 63
##XYDATA=(XY..XY) 1 
    12          3
    13          4
    14         21
    15        162
    16         15
    17         48
    18        130
    19         26
    25          3
    26         72
    27        557
    28        134
    29        664
    30         52
    31        197
    32          3
    33         21
    34         13
    37         16
    38         36
    39        349
    40         58
    41        814
    42        226
    43        999
    44        200
    45        569
    46         13
    47         24
    50         10
    51         13
    52          5
    53         27
    54         10
    55        130
    56        205
    57        484
    58        125
    59         29
    60          3
    61         44
    64          3
    65          3
    67         10
    68          3
    69         77
    70         25
    71         39
    72         47
    73         12
    74          4
    79          4
    83         19
    84         31
    85        121
    86         10
    87         19
    97          3
    98         11
    99         11
   100         20
   101          8
   114          6