##TITLE=Library Entry 18011
##JCAMP-DX=Revision 4.10 
##DATA TYPE=MASS SPECTRUM
##SAMPLE DESCRIPTION=Japan AIST/NIMC Database- Spectrum MS-NW-2961
##NAMES=HP
##CAS NAME=Ethane, 1-bromo-2-fluoro-
##MOLFORM=C2H4BrF
##CAS REGISTRY NO=762-49-2
##MP= -300
##BP= -300
##MW= 126
##$RETENTION INDEX=0
##$CONDENSED SPECTRUM=NO
##NPOINTS= 46
##XYDATA=(XY..XY) 1 
    12          2
    13          3
    14          9
    15          6
    20          1
    24          2
    25         14
    26         68
    27        329
    28         33
    29          2
    31         12
    32          4
    33         38
    39          1
    43         17
    44         24
    45        125
    46        171
    47        999
    48         21
    58          8
    78          7
    79         16
    80          8
    81         15
    82          8
    88          2
    91          5
    92          4
    93         62
    94          5
    95         57
   104          2
   105         19
   106          4
   107         27
   108          2
   109         10
   123          1
   124          2
   125          8
   126        352
   127         15
   128        337
   129          8