##TITLE=Library Entry 34760
##JCAMP-DX=Revision 4.10 
##DATA TYPE=MASS SPECTRUM
##SAMPLE DESCRIPTION=A.A.Kutin, Moscow, Russia
##NAMES=HP
##CAS NAME=5,9,13-Pentadecatrien-2-one, 6,10,14-trimethyl-
##MOLFORM=C18H30O
##CAS REGISTRY NO=762-29-8
##MP= -300
##BP= -300
##MW= 262
##$RETENTION INDEX=1921
##$CONDENSED SPECTRUM=NO
##NPOINTS= 147
##XYDATA=(XY..XY) 1 
    33         28
    37          2
    39         30
    40         61
    41        317
    43        596
    44         13
    45          4
    51          1
    53         53
    55         86
    56          8
    57         19
    58         15
    59          4
    64          0
    65         16
    67        142
    69        999
    71         38
    72          2
    73          4
    77         39
    79         65
    81        528
    83        102
    84         29
    85         20
    87          0
    90          1
    91         54
    92         40
    93        182
    95        203
    96         26
    97          9
    98          2
    99          6
   103          1
   105         44
   106         25
   107        180
   108         65
   109         90
   110         15
   111         20
   112          1
   113          4
   115          0
   116          1
   117          9
   118          1
   119         53
   120         25
   121         99
   122         57
   123         93
   124         30
   125        140
   126         16
   127          3
   128          5
   129          3
   131         11
   132          2
   133         59
   135        202
   136        227
   137        112
   138         99
   139         16
   143          4
   145         12
   147         12
   148         34
   149         28
   150         11
   151         27
   152          2
   153          8
   154          0
   155          2
   157          4
   158          1
   159         24
   160          9
   161         37
   162         19
   163          7
   164          3
   166          2
   168          2
   171          5
   173         13
   174          6
   175         34
   176          9
   177         16
   178         38
   179         13
   180         13
   181          1
   182          1
   185          3
   187          7
   188          2
   189         13
   190          2
   191         26
   192          8
   193         32
   194          5
   196          0
   197          1
   201         12
   202          9
   203          7
   204         44
   205         15
   206         10
   207          2
   210          1
   213          1
   215          0
   219         18
   221          2
   222          2
   227          2
   228          0
   229          2
   231          0
   237          0
   238          0
   243          1
   244          4
   245          1
   247          1
   249          0
   255          1
   257          2
   258          2
   260          4
   262         66
   263         16
   264          1
   267          0
   269          1