##TITLE=Library Entry 52149
##JCAMP-DX=Revision 4.10 
##DATA TYPE=MASS SPECTRUM
##SAMPLE DESCRIPTION=Exported from NIST MS Search
##NAMES=HP
##CAS NAME=2-Pentene, 4,4-dimethyl-, (Z)-
##MOLFORM=C7H14
##CAS REGISTRY NO=762-63-0
##MP= -300
##BP= -300
##MW= 98
##$RETENTION INDEX=636
##$CONDENSED SPECTRUM=NO
##NPOINTS= 68
##XYDATA=(XY..XY) 1 
     1         12
     2          2
    12          1
    13          2
    14         11
    15        114
    16          6
    25          1
    26         25
    27        266
    28         42
    29        181
    30          4
    31          1
    32          1
    33          1
    37         18
    38         34
    39        368
    40         58
    41        644
    42         45
    43        199
    44          6
    45          1
    46          1
    49          3
    50         23
    51         42
    52         16
    53         82
    54         19
    55        961
    56         98
    57         56
    58          2
    60          1
    61          2
    62          5
    63         12
    64          2
    65         22
    66         11
    67         70
    68         13
    69         83
    70         29
    71          2
    73          1
    74          2
    75          1
    76          1
    77         10
    78          2
    79          9
    80          2
    81         15
    82         10
    83        999
    84         65
    85          2
    91          1
    95          1
    96          1
    97          1
    98        278
    99         22
   100          1