##TITLE=Library Entry 19839
##JCAMP-DX=Revision 4.10 
##DATA TYPE=MASS SPECTRUM
##SAMPLE DESCRIPTION=Chemical Concepts
##NAMES=HP
##CAS NAME=1-Pentene, 5-bromo-4,4-dimethyl-
##MOLFORM=C7H13Br
##CAS REGISTRY NO=76207-20-0
##MP= -300
##BP= -300
##MW= 176
##$RETENTION INDEX=0
##$CONDENSED SPECTRUM=NO
##NPOINTS= 76
##XYDATA=(XY..XY) 1 
    25          0
    26         10
    27        136
    28         19
    29        151
    30          2
    36          0
    37          4
    38         16
    39        237
    40          7
    41        266
    42         16
    43         21
    44          0
    45          0
    46          1
    49          0
    50          9
    51         21
    52          8
    53         69
    54         12
    55        999
    56        291
    57         19
    58          0
    61          0
    62          1
    63          4
    64          0
    65         14
    66          6
    67         33
    68          7
    69         18
    70          0
    74          0
    75          0
    77          9
    78          1
    79         21
    80          2
    81         64
    82          6
    83         18
    84          0
    91          0
    93          4
    95          4
    96          2
    97        222
    98         17
    99          0
   107         18
   108          0
   109         17
   110          0
   119          3
   121          3
   122          0
   133          1
   134         44
   135        188
   136         50
   137        186
   138          7
   148          1
   149          0
   150          0
   161          0
   163          0
   176          5
   177          0
   178          5
   179          0