##TITLE=Library Entry 30905
##JCAMP-DX=Revision 4.10 
##DATA TYPE=MASS SPECTRUM
##SAMPLE DESCRIPTION=Exported from NIST MS Search
##NAMES=HP
##CAS NAME=D-Fructose, diethyl mercaptal, pentaacetate
##MOLFORM=C20H32O10S2
##CAS REGISTRY NO=7621-93-4
##MP= -300
##BP= -300
##MW= 496
##$RETENTION INDEX=0
##$CONDENSED SPECTRUM=NO
##NPOINTS= 193
##XYDATA=(XY..XY) 1 
    46        467
    47        862
    48        165
    49         82
    50        110
    51        174
    52         91
    53        339
    54         73
    55        339
    56         82
    57        302
    58        527
    59        807
    60        999
    61        577
    62        183
    63        105
    64        114
    65        160
    66        100
    67        119
    68         82
    69        252
    70         82
    71        243
    72         55
    73        229
    74         55
    75        192
    76         59
    77         87
    78         27
    79         73
    80         36
    81        114
    82         59
    83         78
    84         68
    85        211
    86         64
    87        123
    88         32
    89         82
    90         36
    91         59
    92         18
    93         36
    94         45
    95         64
    96         55
    97        238
    98         82
    99         87
   100         36
   101        119
   102         32
   103        114
   104         18
   105         64
   107         22
   108         22
   109         55
   110         41
   111        110
   112         27
   113        128
   114         32
   115        128
   116         55
   117         59
   118         32
   119         18
   120          9
   121         36
   122         22
   123         22
   124         13
   125        119
   126         68
   127         78
   128         32
   129        192
   130         50
   131         64
   132          9
   133         13
   134          9
   135         13
   136          9
   137         18
   138          9
   139         32
   140         22
   141        114
   142         82
   143         73
   144         18
   145         45
   146         13
   147         36
   149         18
   151          9
   152          9
   153         59
   154        123
   155         59
   156         13
   157         59
   158         13
   159        110
   160         13
   161         27
   167         13
   168          9
   169         27
   170         36
   171         91
   172         27
   173         18
   175          9
   177         73
   179          9
   181          9
   184         13
   185        100
   186         27
   187         36
   188          9
   189         45
   195          6
   196          8
   197         10
   198          2
   199          6
   200          3
   201         22
   202          6
   203         10
   204          2
   205          1
   206          0
   207          8
   208          1
   209          1
   210          0
   211          8
   212          7
   213         37
   214         26
   215         12
   216          4
   217          3
   218          1
   219          2
   220          1
   226          1
   227         26
   228          7
   229          5
   230          3
   231         10
   232          3
   233          2
   243          3
   244          1
   245         10
   246          1
   247          0
   255          2
   256         11
   257          3
   258          2
   272          1
   273          6
   274          5
   275          3
   276          0
   287          0
   288          1
   289          2
   316          4
   317          2
   331          1
   332          1
   333          1
   375          2
   376          3
   377          2
   435          0
   436          4
   437          2
   496          0