##TITLE=Library Entry 107831
##JCAMP-DX=Revision 4.10 
##DATA TYPE=MASS SPECTRUM
##SAMPLE DESCRIPTION=D.HENNEBERG, MAX-PLANCK INSTITUTE, MULHEIM, WEST GERMAN
Y
##NAMES=HP
##CAS NAME=Phosphine, (1,1-dimethylethyl)methylphenyl-
##MOLFORM=C11H17P
##CAS REGISTRY NO=7621-16-1
##MP= -300
##BP= -300
##MW= 180
##$RETENTION INDEX=0
##$CONDENSED SPECTRUM=NO
##NPOINTS= 107
##XYDATA=(XY..XY) 1 
    26         30
    27         28
    29        243
    30          5
    31          3
    34          0
    37          1
    38          2
    39         50
    40          9
    41        303
    42         14
    43         19
    44          7
    45         46
    46         15
    47          4
    48          1
    49          2
    50          7
    51         27
    52          8
    53          8
    54          2
    55         20
    56         18
    57        602
    58         27
    59         10
    60          1
    61         12
    62          6
    63          3
    64          1
    65         22
    66          2
    67          0
    68          0
    69          6
    70          2
    71          6
    72          1
    73          2
    74          1
    75          3
    76          6
    77         82
    78         65
    79         77
    80          5
    81          5
    82          4
    83         26
    84          1
    86          1
    87          2
    88          0
    89          3
    90          2
    91         56
    92          6
    93          1
    95         19
    96          4
    97          6
    98          4
   101          0
   102          1
   103          3
   104          1
   105          4
   106          3
   107         62
   108        169
   109        205
   110         14
   115          3
   116          1
   117          2
   118          3
   119          5
   120          5
   121        117
   122         15
   123         83
   124        999
   125         84
   126          3
   129          0
   133          3
   134          1
   135          0
   137          0
   138         28
   139          3
   140          2
   147          1
   149          1
   156          0
   160          0
   163          0
   165         12
   166          1
   179          0
   180        227
   181         29
   182          1