##TITLE=Library Entry 70312
##JCAMP-DX=Revision 4.10 
##DATA TYPE=MASS SPECTRUM
##SAMPLE DESCRIPTION=NIST Mass Spectrometry Data Center, 2010
##NAMES=HP
##CAS NAME=2,3-Dichloropropionyl chloride
##MOLFORM=C3H3Cl3O
##CAS REGISTRY NO=7623-13-4
##MP= -300
##BP= -300
##MW= 160
##$RETENTION INDEX=905
##$CONDENSED SPECTRUM=NO
##NPOINTS= 72
##XYDATA=(XY..XY) 1 
    14          1
    24          5
    25         29
    26        109
    27        131
    28         16
    29          6
    35         52
    36         29
    37         31
    38         15
    39          4
    40          2
    41          7
    42          2
    44          2
    45          1
    47         22
    48         31
    49         55
    50         11
    51         15
    52          5
    53         24
    54          7
    55        116
    56          4
    59          7
    60         47
    61        580
    62        555
    63        359
    64        176
    65         57
    66          1
    70          3
    71          2
    72          5
    73          4
    74          1
    75          1
    76         50
    77          1
    78         16
    82          1
    83         23
    84          1
    85         15
    87          4
    89        100
    90          4
    91         33
    92          1
    94          2
    95         10
    96         50
    97        999
    98         52
    99        633
   100         18
   101        100
   102          2
   109          1
   125        519
   126         20
   127        330
   128         11
   129         53
   130          2
   132          2
   134          2
   136          1