##TITLE=Library Entry 8398
##JCAMP-DX=Revision 4.10 
##DATA TYPE=MASS SPECTRUM
##SAMPLE DESCRIPTION=Japan AIST/NIMC Database- Spectrum MS-NW-7659
##NAMES=HP
##CAS NAME=6-Nonen-1-ol, acetate, (Z)-
##MOLFORM=C11H20O2
##CAS REGISTRY NO=76238-22-7
##MP= -300
##BP= -300
##MW= 184
##$RETENTION INDEX=1308
##$CONDENSED SPECTRUM=NO
##NPOINTS= 97
##XYDATA=(XY..XY) 1 
    14          3
    15         20
    17          1
    18          4
    26          2
    27         56
    28         17
    29         98
    30          3
    31         12
    32          2
    38          1
    39         81
    40         19
    41        497
    42         69
    43        999
    44         29
    45          9
    50          1
    51          5
    52          4
    53         71
    54        251
    55        408
    56         68
    57         40
    58         10
    59          9
    60          3
    61         69
    62          2
    63          1
    65         15
    66         48
    67        688
    68        561
    69        227
    70         30
    71         38
    72          7
    73         25
    74          1
    77         14
    78          4
    79         53
    80         30
    81        427
    82        544
    83        114
    84         27
    85         16
    86          7
    87          3
    88          2
    91          9
    92          2
    93         28
    94         29
    95        681
    96        172
    97         29
    98          9
    99          8
   100          1
   101         11
   102          1
   103          1
   105          3
   107          7
   108          3
   109         48
   110         11
   111         12
   112          4
   113          3
   114          1
   115          3
   116          1
   120          1
   121          2
   122          7
   123         23
   124        177
   125         20
   126          2
   127         16
   128          2
   129          1
   137          2
   138         13
   139          3
   140          1
   141          2
   155          1
   156          5
   169          1