##TITLE=Library Entry 41083
##JCAMP-DX=Revision 4.10 
##DATA TYPE=MASS SPECTRUM
##SAMPLE DESCRIPTION=Chemical Concepts
##NAMES=HP
##CAS NAME=Silane, [9,9'-bi-9H-fluorene]-9,9'-diylbis[trimethyl-
##MOLFORM=C32H34Si2
##CAS REGISTRY NO=76241-26-4
##MP= -300
##BP= -300
##MW= 474
##$RETENTION INDEX=0
##$CONDENSED SPECTRUM=NO
##NPOINTS= 220
##XYDATA=(XY..XY) 1 
    26          0
    27          1
    28          2
    29          3
    31          2
    35          0
    36          3
    38          0
    39          1
    40         35
    41          1
    42          0
    43         20
    44         19
    45         72
    46          4
    47          2
    50          0
    51          1
    52          0
    53          6
    54          0
    55          1
    56          0
    57          2
    58          5
    59        178
    60         12
    61          5
    62          1
    63          3
    64          0
    65          1
    66          0
    67          0
    69          0
    70          0
    71          0
    72          1
    73        999
    74         72
    75         31
    76          2
    77          2
    78          0
    79          0
    81          0
    82          0
    83          1
    84          0
    85          0
    86          0
    87          2
    88          0
    89          2
    90          1
    91          2
    92          1
    93          1
    95          0
    96          1
    97          0
    98          0
    99          0
   101          1
   102          0
   103          2
   104          0
   105          1
   109          0
   110          0
   111         13
   112          1
   113          1
   114          0
   115          3
   116          0
   117          0
   125          0
   126          0
   127          0
   128          0
   129          1
   137          1
   138          0
   139          6
   140          1
   141          1
   142          0
   143          0
   147          0
   149          0
   150          1
   151          4
   152          7
   153          3
   154          1
   155          2
   156          0
   161          0
   162          1
   163          9
   164          5
   165         46
   166         16
   167          4
   168          1
   169          1
   170          0
   175          0
   176          7
   177          7
   178         46
   179         31
   180          7
   181         11
   182          2
   183          0
   189          2
   190          1
   191          8
   192          4
   193          6
   194          1
   195         66
   196         12
   197          3
   198          0
   202          0
   203          2
   204          5
   205         15
   206          4
   207         28
   208          7
   209          2
   210          0
   216          0
   217          4
   218          1
   219          9
   220          2
   221          7
   222        111
   223         31
   224          7
   225          1
   233          0
   235          1
   236          1
   237         72
   238         32
   239          8
   240          1
   241          0
   253          0
   287          0
   289          0
   298          0
   299          0
   300          2
   301          0
   302          0
   303          0
   311          0
   313          1
   314          0
   315          0
   322          0
   323          0
   324         11
   325          6
   326         31
   327         42
   328         22
   329          6
   330          1
   337          1
   338          0
   339          2
   340          1
   341          0
   342          0
   343          0
   350          0
   352          0
   353          1
   354          0
   355          2
   356          1
   357          0
   365          0
   366          0
   367          0
   368          0
   369          4
   370          2
   371         45
   372         14
   373          4
   374          0
   383          0
   385          6
   386        102
   387         41
   388         11
   389          1
   400          5
   401         18
   402          7
   403          2
   404          0
   459          1
   460          0
   461          0
   474         45
   475         20
   476          7
   477          1
   478          0