##TITLE=Library Entry 61105
##JCAMP-DX=Revision 4.10 
##DATA TYPE=MASS SPECTRUM
##SAMPLE DESCRIPTION=A.A.Kutin, Moscow, Russia
##NAMES=HP
##CAS NAME=Carbamic acid, N-(4-methylphenyl)-, benzyl ester
##MOLFORM=C15H15NO2
##CAS REGISTRY NO=7625-64-1
##MP= -300
##BP= -300
##MW= 241
##$RETENTION INDEX=0
##$CONDENSED SPECTRUM=NO
##NPOINTS= 85
##XYDATA=(XY..XY) 1 
    33          6
    34          0
    36          0
    37          1
    39         40
    41         15
    43          1
    44          3
    45          1
    49          1
    50         12
    51         24
    52         17
    53          7
    54          1
    55          0
    57          0
    61          0
    63         20
    65         97
    67          2
    69          0
    71          0
    73          0
    74          1
    75          3
    77         76
    78         25
    79         42
    81          0
    83          0
    85          0
    86          0
    87          1
    91        999
    94          1
   102          0
   103          3
   104         14
   106        108
   107        106
   109          0
   115          0
   116          0
   118          5
   120         30
   121          3
   122          0
   128          0
   129          0
   131          0
   132          8
   133          6
   134          2
   135          1
   146          0
   147          0
   151          0
   152          0
   162          0
   164          4
   165          0
   166          0
   168          0
   179          0
   180          0
   181          1
   182          2
   183          0
   192          0
   193          0
   194          3
   196         43
   197         63
   198          8
   211          0
   212          0
   235          0
   236          0
   237          0
   238          2
   240         46
   241        101
   242          9
   243          1