##TITLE=Library Entry 90857
##JCAMP-DX=Revision 4.10 
##DATA TYPE=MASS SPECTRUM
##SAMPLE DESCRIPTION=AIR PRODUCTS & CHEMICALS, INC BOX 538, ALLENTOWN, PA 18
105, D M PAREES
##NAMES=HP
##CAS NAME=N,N-Diamylmethylamine
##MOLFORM=C11H25N
##CAS REGISTRY NO=76257-73-3
##MP= -300
##BP= -300
##MW= 171
##$RETENTION INDEX=1115
##$CONDENSED SPECTRUM=NO
##NPOINTS= 32
##XYDATA=(XY..XY) 1 
    27         37
    29         66
    30         13
    31          7
    39         19
    41         87
    42         81
    43        157
    44        264
    45         14
    55         17
    56          9
    57         52
    58        319
    59         54
    70         16
    71         13
    84         41
    96         13
    98         10
   100         13
   101          7
   102          7
   114        999
   115        109
   116          6
   117          7
   140          5
   142          4
   170         10
   171         60
   172          8