##TITLE=Library Entry 17789
##JCAMP-DX=Revision 4.10 
##DATA TYPE=MASS SPECTRUM
##SAMPLE DESCRIPTION=A. Brossi, LC, NIDDK, NIH, Bethesda, MD 20892
##NAMES=HP
##CAS NAME=Benzaldehyde, 3,5-bis(methoxymethoxy)-
##MOLFORM=C11H14O5
##CAS REGISTRY NO=76280-61-0
##MP= -300
##BP= -300
##MW= 226
##$RETENTION INDEX=0
##$CONDENSED SPECTRUM=NO
##NPOINTS= 121
##XYDATA=(XY..XY) 1 
    41         18
    42          9
    43         31
    45        999
    46         28
    47          6
    48          0
    49          5
    50          7
    51         12
    52          4
    53          6
    54          1
    55         11
    56          2
    57         11
    58          1
    59          3
    60          0
    61          2
    62          9
    63         34
    64         16
    65          5
    66          3
    67          2
    68          1
    69          9
    70          2
    71         41
    72          2
    73          1
    74          5
    75         11
    76          2
    77          4
    78          1
    79          5
    80          1
    81          3
    82          1
    83          2
    84          2
    85          2
    86          1
    87          3
    88          0
    89          0
    90          0
    91          4
    92          5
    93          1
    94          2
    95          2
    96          0
    97          1
    98          0
    99          0
   103          0
   104          2
   105          2
   106          1
   107          1
   108          1
   109          3
   110          0
   111          1
   112          0
   113          0
   115          0
   117          1
   119          1
   120          5
   121          2
   122          1
   123          1
   124          1
   125          1
   127          0
   133          1
   134          0
   135          2
   136          1
   137          1
   138          1
   139          0
   141          0
   145          0
   149          1
   150          1
   151          1
   152          1
   153          1
   161          0
   162          0
   163          3
   164          1
   165          1
   166          3
   167          1
   168          1
   179          1
   180          3
   181          3
   182          1
   183          0
   193          0
   194          1
   195          4
   196          4
   197          1
   198          0
   209          0
   210          3
   211          7
   212          1
   213          0
   225         10
   226         97
   227         12
   228          2