##TITLE=Library Entry 36995
##JCAMP-DX=Revision 4.10 
##DATA TYPE=MASS SPECTRUM
##SAMPLE DESCRIPTION=Humboldt-Universitat zu Berlin, Department of Chemistry
, Analytical Group
##NAMES=HP
##CAS NAME=5-Pyrrolidino-2-pyrrolidone
##MOLFORM=C8H14N2O
##CAS REGISTRY NO=76284-12-3
##MP= -300
##BP= -300
##MW= 154
##$RETENTION INDEX=0
##$CONDENSED SPECTRUM=NO
##NPOINTS= 76
##XYDATA=(XY..XY) 1 
    14          7
    15         48
    16          4
    17         16
    18         64
    19          1
    25          1
    26         29
    27        123
    28        404
    29         69
    30         75
    31          3
    32          1
    37          3
    38          8
    39         80
    40         23
    41        280
    42         98
    43        356
    44         29
    45         11
    49          2
    50          2
    51          4
    52          9
    53         15
    54         53
    55         98
    56         90
    57         22
    58          2
    60          4
    63          2
    65          1
    66          5
    67          7
    68         44
    69         30
    70        999
    71        174
    72         29
    73          2
    77          1
    79          1
    80         14
    81         12
    82         14
    83         31
    84        223
    85         15
    86          3
    93          3
    94          2
    95          2
    96         66
    97         24
    98         18
    99         17
   100          3
   108          2
   110         22
   111         13
   112          2
   113          1
   115          1
   123          1
   124          1
   125         31
   126          3
   140          2
   153         10
   154         50
   155          7
   156          0