##TITLE=Library Entry 21975
##JCAMP-DX=Revision 4.10 
##DATA TYPE=MASS SPECTRUM
##SAMPLE DESCRIPTION=D.HENNEBERG, MAX-PLANCK INSTITUTE, MULHEIM, WEST GERMAN
Y
##NAMES=HP
##CAS NAME=1-Pentene, 2-methyl-
##MOLFORM=C6H12
##CAS REGISTRY NO=763-29-1
##MP= -300
##BP= -300
##MW= 84
##$RETENTION INDEX=580
##$CONDENSED SPECTRUM=NO
##NPOINTS= 46
##XYDATA=(XY..XY) 1 
    12          3
    13          6
    14         24
    15        125
    16          3
    25          2
    26         58
    27        448
    28         94
    29        326
    30          9
    31          2
    32          1
    39        521
    40        108
    41        893
    42        318
    43         99
    44          4
    50         37
    51         51
    52         19
    53        116
    54         36
    55        473
    56        999
    57         48
    58          2
    61          3
    62          5
    63          9
    64          1
    65         12
    66          6
    67         42
    68          7
    69        403
    70         23
    71          3
    74          2
    77          3
    79          2
    81          2
    83          5
    84        322
    85         21