##TITLE=Library Entry 2986
##JCAMP-DX=Revision 4.10 
##DATA TYPE=MASS SPECTRUM
##SAMPLE DESCRIPTION=Japan AIST/NIMC Database- Spectrum MS-NW-1070
##NAMES=HP
##CAS NAME=3-Buten-1-ol, 3-methyl-
##MOLFORM=C5H10O
##CAS REGISTRY NO=763-32-6
##MP= -300
##BP= -300
##MW= 86
##$RETENTION INDEX=730
##$CONDENSED SPECTRUM=NO
##NPOINTS= 53
##XYDATA=(XY..XY) 1 
    14          5
    15         18
    16          1
    17          1
    18          3
    25          1
    26         23
    27        236
    28         71
    29        290
    30         18
    31        545
    32         15
    33          1
    36          1
    37         19
    38         45
    39        396
    40        217
    41        999
    42         79
    43         75
    44         67
    45         20
    49          7
    50         36
    51         44
    52         15
    53        234
    54         32
    55        303
    56        959
    57         64
    58         14
    59          2
    61          3
    62          4
    63          4
    65         10
    66         12
    67        366
    68        806
    69         53
    70          4
    71        120
    72          6
    73          1
    82          1
    83          9
    84         11
    85          7
    86        253
    87         13