##TITLE=Library Entry 49810
##JCAMP-DX=Revision 4.10 
##DATA TYPE=MASS SPECTRUM
##SAMPLE DESCRIPTION=M. IWAMOTO TOYO RAYON CO., SONOYANA, OTSU, SHIGA-KEN, J
APAN
##NAMES=HP
##CAS NAME=1,4-Hexadiene, 5-methyl-
##MOLFORM=C7H12
##CAS REGISTRY NO=763-88-2
##MP= -300
##BP= -300
##MW= 96
##$RETENTION INDEX=0
##$CONDENSED SPECTRUM=NO
##NPOINTS= 62
##XYDATA=(XY..XY) 1 
    12          1
    13          1
    14          8
    15         37
    16          4
    25          2
    26         40
    27        295
    28         89
    29        107
    30          3
    31          3
    32          4
    37         20
    38         46
    39        418
    40         59
    41        475
    42         36
    43         28
    44         13
    45          3
    46          4
    47          3
    49          7
    50         60
    51         96
    52         43
    53        312
    54        132
    55        177
    56         33
    57          4
    61          7
    62         15
    63         26
    64          3
    65         61
    66         41
    67        167
    68         55
    69         46
    70          3
    73          2
    74          6
    75         10
    76          2
    77        114
    78         35
    79        265
    80         42
    81        999
    82         69
    83          2
    91         13
    92          2
    93          9
    94          9
    95         39
    96        434
    97         36
    98          2