##TITLE=Library Entry 41817
##JCAMP-DX=Revision 4.10 
##DATA TYPE=MASS SPECTRUM
##SAMPLE DESCRIPTION=Chemical Concepts
##NAMES=HP
##CAS NAME=Silane, trimethyl-4-pentenyl-
##MOLFORM=C8H18Si
##CAS REGISTRY NO=763-21-3
##MP= -300
##BP= -300
##MW= 142
##$RETENTION INDEX=0
##$CONDENSED SPECTRUM=NO
##NPOINTS= 69
##XYDATA=(XY..XY) 1 
    26          2
    27         19
    29         29
    30          2
    31         35
    33          1
    35          0
    37          0
    38          2
    39         36
    40          4
    41         26
    42         13
    43        123
    44         45
    45        163
    46         11
    47          5
    50          1
    51          2
    52          0
    53         12
    54          4
    55         24
    56          5
    57         23
    58         39
    59        274
    60         21
    61         10
    62          0
    63          0
    65          1
    66          3
    67         10
    68          2
    69          7
    70          8
    71         38
    72         28
    73        999
    74         85
    75         35
    76          1
    81          2
    82          0
    83         10
    84          3
    85         26
    86          3
    87          1
    93          0
    95          4
    96          1
    97         12
    99        489
   100         47
   101        309
   102         33
   103         11
   104          0
   109          1
   114          7
   115          0
   125          0
   127         28
   128          3
   129          1
   142          0