##TITLE=Library Entry 29544
##JCAMP-DX=Revision 4.10 
##DATA TYPE=MASS SPECTRUM
##SAMPLE DESCRIPTION=Japan AIST/NIMC Database- Spectrum MS-NW-4689
##NAMES=HP
##CAS NAME=Propanoic acid, 3-ethoxy-, ethyl ester
##MOLFORM=C7H14O3
##CAS REGISTRY NO=763-69-9
##MP= -300
##BP= -300
##MW= 146
##$RETENTION INDEX=971
##$CONDENSED SPECTRUM=NO
##NPOINTS= 73
##XYDATA=(XY..XY) 1 
    13          2
    14         10
    15         48
    16          2
    17          3
    18         10
    25          4
    26         46
    27        246
    28        126
    29        604
    30         27
    31        572
    32          5
    33          1
    35          2
    36          1
    38          1
    39          4
    40          1
    41         40
    42         68
    43        265
    44        116
    45        274
    46          9
    47         28
    50          4
    53          2
    54          3
    55         97
    56         42
    57         59
    58         15
    59        999
    60         78
    61         20
    63          1
    65          1
    69          2
    70          5
    71        484
    72        162
    73        223
    74        190
    75         97
    76          4
    77          1
    82          3
    83          7
    84          5
    85          3
    86          1
    87          2
    88          4
    89        155
    90          6
    91          2
    99          8
   100         12
   101        387
   102        272
   103         24
   104          2
   105          1
   113          2
   115          2
   117        338
   118         22
   119          3
   128          2
   131          6
   145          1