##TITLE=Library Entry 67605
##JCAMP-DX=Revision 4.10 
##DATA TYPE=MASS SPECTRUM
##SAMPLE DESCRIPTION=A.A.Kutin, Moscow, Russia
##NAMES=HP
##CAS NAME=N-Hydroxy-N-phenyl-2-furamide
##MOLFORM=C11H9NO3
##CAS REGISTRY NO=7630-14-0
##MP= -300
##BP= -300
##MW= 203
##$RETENTION INDEX=0
##$CONDENSED SPECTRUM=NO
##NPOINTS= 85
##XYDATA=(XY..XY) 1 
    36          0
    37         19
    38         61
    39        243
    40         15
    41         13
    42          2
    43          2
    44          4
    45          1
    50         22
    51         65
    52         18
    53         13
    54          3
    55         10
    56          1
    57          1
    61          2
    62          7
    63         31
    64         47
    65         52
    66         13
    67         36
    68          5
    69          2
    73          1
    74          5
    75          4
    76          8
    77         57
    78         53
    79          4
    80          0
    81          0
    83          2
    85          0
    87          0
    88          1
    89          2
    90          5
    91         54
    92         11
    93         23
    95        999
    96         55
    97          6
   101          1
   102          2
   103          5
   104          3
   105          2
   107          1
   108          6
   109          0
   112          1
   115          3
   116          0
   119          5
   120          0
   122          0
   128          2
   129          5
   130         13
   131          2
   132          0
   133          0
   144          1
   146          1
   147          0
   156          0
   157         10
   158         11
   159          5
   160          2
   174          1
   185          1
   186          4
   187         39
   188          4
   202          0
   203         60
   204          7
   205          0