##TITLE=Library Entry 28736
##JCAMP-DX=Revision 4.10 
##DATA TYPE=MASS SPECTRUM
##SAMPLE DESCRIPTION=NIST Mass Spectrometry Data Center
##NAMES=HP
##CAS NAME=Benzeneethanamine, N,.alpha.-dimethyl-
##MOLFORM=C10H15N
##CAS REGISTRY NO=7632-10-2
##MP= -300
##BP= -300
##MW= 149
##$RETENTION INDEX=1194
##$CONDENSED SPECTRUM=NO
##NPOINTS= 75
##XYDATA=(XY..XY) 1 
    15          4
    26          1
    27          6
    28         20
    29         11
    30         53
    31          1
    32          2
    37          1
    38          3
    39         27
    40          3
    41         20
    42         43
    43         19
    44          4
    50          9
    51         23
    52          7
    53          3
    54          4
    55          2
    56         57
    57         18
    58        999
    59         44
    61          1
    62          5
    63         18
    64          5
    65         55
    66          5
    67          4
    68          1
    70          2
    71          1
    74          3
    75          3
    76          3
    77         20
    78         10
    79          4
    80          1
    86          1
    87          1
    88          1
    89         18
    90          8
    91        124
    92         12
    93          2
   101          1
   102          4
   103          8
   104          6
   105          5
   106          2
   115         20
   116          6
   117         20
   118         12
   119         17
   120          2
   130          4
   131          1
   132         10
   133          7
   134         31
   135          3
   144          1
   146          2
   147          1
   148          8
   149          1
   150          1