##TITLE=Library Entry 100459
##JCAMP-DX=Revision 4.10 
##DATA TYPE=MASS SPECTRUM
##SAMPLE DESCRIPTION=Japan AIST/NIMC Database- Spectrum MS-IW-4357
##NAMES=HP
##CAS NAME=3-Hydroxy-3-(2-oxocyclohexyl)-2-indolinone
##MOLFORM=C14H15NO3
##CAS REGISTRY NO=76325-79-6
##MP= -300
##BP= -300
##MW= 245
##$RETENTION INDEX=0
##$CONDENSED SPECTRUM=NO
##NPOINTS= 120
##XYDATA=(XY..XY) 1 
    14          2
    15          6
    17          4
    18          1
    25          1
    26         14
    27         85
    28         44
    29         39
    30          1
    31         11
    32          1
    36          2
    37         37
    38         63
    39        139
    40         37
    41        222
    42        422
    43        109
    44         29
    45        104
    46          8
    47          1
    48          3
    49          9
    50         72
    51         27
    52         47
    53         25
    54         68
    55        842
    56        112
    57         18
    58          2
    59         46
    60          7
    61         20
    62         37
    63        134
    64        210
    65         42
    66          6
    67         13
    68         12
    69        326
    70        334
    71         23
    72          1
    73          8
    74         24
    75         20
    76         64
    77         14
    78          3
    79         16
    80         58
    81          7
    82          1
    83        118
    84          9
    85          1
    86          2
    87          3
    88          5
    89          4
    90         57
    91        137
    92        568
    93         41
    94          7
    95          2
    96          2
    97         67
    98        565
    99         46
   100          3
   102          1
   103          1
   104          9
   105          3
   106          1
   112          4
   115          1
   117          1
   118          7
   119        999
   120         89
   121          7
   128          1
   129          1
   130          2
   132          2
   133          7
   143          1
   144          1
   145          1
   146         15
   147        947
   148        116
   149         23
   150          2
   158          1
   170          3
   171          1
   172          3
   174          2
   175          1
   182          2
   183          1
   184          1
   185          1
   198          2
   199          2
   200          1
   201          2
   227         13
   228          2
   229          2
   245          5