##TITLE=Library Entry 34495
##JCAMP-DX=Revision 4.10 
##DATA TYPE=MASS SPECTRUM
##SAMPLE DESCRIPTION=Chemical Concepts
##NAMES=HP
##CAS NAME=Cyclohexanepropanal, 2,2-dimethyl-6-methylene-
##MOLFORM=C12H20O
##CAS REGISTRY NO=76337-22-9
##MP= -300
##BP= -300
##MW= 180
##$RETENTION INDEX=0
##$CONDENSED SPECTRUM=NO
##NPOINTS= 103
##XYDATA=(XY..XY) 1 
    26          8
    27        165
    28         18
    29        156
    30          3
    31         17
    38          7
    39        223
    40         47
    41        687
    42         46
    43        135
    44         14
    45         10
    50         10
    51         49
    52         32
    53        171
    54         39
    55        314
    56         63
    57         53
    58          3
    59          3
    61          5
    62          2
    63         17
    64          5
    65         82
    66         36
    67        277
    68        217
    69        999
    70         81
    71         17
    75          5
    77        158
    78        151
    79        293
    80        120
    81        441
    82        114
    83         56
    84         20
    85          8
    89          4
    91        358
    92         76
    93        370
    94         92
    95        190
    96         94
    97         93
    98         45
    99          5
   103         12
   104          7
   105        135
   106        653
   107        188
   108         62
   109        230
   110         40
   111         33
   112          7
   115          9
   116          1
   117         11
   118          8
   119        123
   120         26
   121        195
   122         74
   123        128
   124        156
   125         18
   128          2
   129          1
   131          4
   132          1
   133         16
   134         11
   135         17
   136        355
   137         91
   138         15
   139          6
   140          2
   141          3
   145          5
   147        295
   148         36
   149         10
   150          2
   151          5
   152          7
   162        124
   163         21
   165        157
   166         19
   178          5
   180         74
   181         13