##TITLE=Library Entry 98883
##JCAMP-DX=Revision 4.10 
##DATA TYPE=MASS SPECTRUM
##SAMPLE DESCRIPTION=P. Vainiotalo, Dep. Chem., Univ. Joensuu, Joensuu, Finl
and
##NAMES=HP
##CAS NAME=1,3-Dithiolane-2-carboxylic acid, 2-methyl-, ethyl ester
##MOLFORM=C7H12O2S2
##CAS REGISTRY NO=76339-59-8
##MP= -300
##BP= -300
##MW= 192
##$RETENTION INDEX=0
##$CONDENSED SPECTRUM=NO
##NPOINTS= 37
##XYDATA=(XY..XY) 1 
    15         36
    16         29
    26         38
    27        151
    29        166
    31         18
    34         16
    35         14
    43         45
    44         56
    45        122
    46         25
    47         20
    48         24
    55         11
    57         19
    58        115
    59        950
    60         66
    61        117
    64         43
    73         11
    76         13
    88         13
    90         21
    91         35
    92          9
   116          9
   117         28
   118         62
   119        999
   120        181
   121        240
   122         19
   192        133
   193         16
   194         15