##TITLE=Library Entry 14557
##JCAMP-DX=Revision 4.10 
##DATA TYPE=MASS SPECTRUM
##SAMPLE DESCRIPTION=A.A.Kutin, Moscow, Russia
##NAMES=HP
##CAS NAME=Cyclohexanone, 2,4-diacetyl-3-(4-bromophenyl)-5-hydroxy-5-methyl-
##MOLFORM=C17H19BrO4
##CAS REGISTRY NO=76354-24-0
##MP= -300
##BP= -300
##MW= 366
##$RETENTION INDEX=0
##$CONDENSED SPECTRUM=NO
##NPOINTS= 229
##XYDATA=(XY..XY) 1 
    33          0
    34          0
    36          0
    37          0
    38          2
    39         15
    40          9
    41         14
    43        999
    44         22
    45          7
    46          0
    50          6
    51         11
    52          3
    53          7
    54          1
    55          9
    56          1
    57          4
    58          5
    59          1
    61          4
    62          2
    63          7
    64          2
    65          4
    66          1
    67          3
    68          0
    69          8
    70          1
    71          3
    72          0
    73          0
    74          3
    75          9
    76          9
    77         14
    78          3
    79          3
    80          2
    81          3
    82          4
    83          3
    85         33
    86          2
    87          2
    88          2
    89          6
    90          3
    91          6
    92          0
    93          0
    94          0
    95          1
    96          1
    97          2
    98          1
    99          2
   100          7
   101         12
   102         32
   103          7
   104          2
   105          2
   107          2
   108          1
   109          2
   110          0
   111          2
   112          0
   113          3
   114          5
   115         30
   116         13
   117          4
   118          1
   119          0
   121          0
   123          0
   125          3
   126          3
   127         10
   128         19
   129          8
   130          5
   131          5
   132          0
   133          0
   135          1
   137          0
   138          0
   139          5
   140          2
   141          8
   142          5
   143          3
   144          8
   145         15
   146          3
   147          0
   149          0
   150          0
   151          3
   152          3
   153          4
   154          2
   155          5
   156          3
   157          3
   158          3
   159          2
   160          0
   163          0
   165          4
   166          2
   167          1
   168          2
   169          5
   170          2
   171          4
   172          0
   173          0
   178          0
   179          1
   180          2
   181          6
   182          4
   183         10
   184         36
   185          8
   186          3
   187          2
   188          0
   193          1
   194          1
   195          1
   196          0
   197          1
   198          0
   199          0
   200          0
   201          0
   206          0
   207          1
   208          6
   209         17
   210          3
   211         19
   212          2
   213          0
   219          0
   220          0
   221          1
   222          0
   223          5
   224          2
   225         15
   226          5
   227         11
   228          1
   229          0
   233          0
   234          1
   235          1
   236          2
   237          2
   238          1
   239          3
   240          0
   241          1
   242          0
   245          0
   246          0
   247          0
   248          0
   249          2
   250          0
   251          3
   252          0
   253          1
   254          0
   260          1
   261          0
   263         53
   264         10
   265         59
   266          8
   267         10
   268          1
   269          0
   273          0
   275          1
   276          0
   277          4
   278          1
   279          4
   280          1
   281          1
   282          0
   283          1
   284          0
   287          1
   288          1
   289          1
   290          2
   291          2
   292          0
   293          2
   294          0
   302          0
   305         89
   306         18
   307         82
   308         13
   309          1
   320          1
   321          0
   322          1
   323          2
   324          0
   325          1
   326          0
   333          0
   348          2
   349          0
   350          2
   351          0