##TITLE=Library Entry 44860
##JCAMP-DX=Revision 4.10 
##DATA TYPE=MASS SPECTRUM
##SAMPLE DESCRIPTION=H. Fales, LC, NHLBI, NIH, Bethesda, MD 20892
##NAMES=HP
##CAS NAME=Phenylalanine, 3-methoxy-
##MOLFORM=C10H13NO3
##CAS REGISTRY NO=7636-24-0
##MP= -300
##BP= -300
##MW= 195
##$RETENTION INDEX=0
##$CONDENSED SPECTRUM=NO
##NPOINTS= 87
##XYDATA=(XY..XY) 1 
    41        105
    42         95
    43        188
    44        511
    45        180
    46        121
    50         55
    51        111
    52         78
    53         56
    54         24
    55         73
    56         57
    57         57
    58         13
    59         37
    60         59
    61         17
    62         22
    63         75
    64         49
    65        114
    66         22
    67         31
    68         22
    69         41
    70         25
    71         30
    73         37
    74        999
    75        103
    76         29
    77        217
    78        174
    79         95
    80         39
    81         25
    82         16
    83         27
    84         20
    85         21
    87         10
    89         68
    90         67
    91        338
    92         74
    93         26
    94         17
    95         18
    97         19
    98         18
    99          5
   103         19
   104         29
   105         36
   106         90
   107        113
   108         78
   109         17
   111         16
   116         11
   117         36
   118         79
   119         40
   120         12
   121        678
   122        954
   123        102
   124         34
   125         17
   129         14
   133         23
   134         57
   135         47
   136         21
   137          5
   147         11
   148         34
   149         80
   150        315
   151         42
   157          5
   166          5
   177         16
   178         20
   195        325
   196         41