##TITLE=Library Entry 18025
##JCAMP-DX=Revision 4.10 
##DATA TYPE=MASS SPECTRUM
##SAMPLE DESCRIPTION=LRL 0010
##NAMES=HP
##CAS NAME=Boron trifluoride
##MOLFORM=BF3
##CAS REGISTRY NO=7637-07-2
##MP= -300
##BP= -300
##MW= 68
##$RETENTION INDEX=0
##$CONDENSED SPECTRUM=NO
##NPOINTS= 9
##XYDATA=(XY..XY) 1 
    10         15
    11         54
    19         32
    29          3
    30         11
    38          1
    48        269
    49        999
    68         48