##TITLE=Library Entry 14784
##JCAMP-DX=Revision 4.10 
##DATA TYPE=MASS SPECTRUM
##SAMPLE DESCRIPTION=Chemical Concepts
##NAMES=HP
##CAS NAME=2-Phenanthrenecarboxylic acid, 5,6,7-tris(acetyloxy)-1-(cyanometh
yl)tetradecahydro-2,4b,8-trimethyl-, methyl ester, [1s-(1.alpha.,2.beta.,4a.
beta.,4b.alpha.,5.beta.)
##MOLFORM=C27H39NO8
##CAS REGISTRY NO=76389-57-6
##MP= -300
##BP= -300
##MW= 505
##$RETENTION INDEX=0
##$CONDENSED SPECTRUM=NO
##NPOINTS= 346
##XYDATA=(XY..XY) 1 
    26          9
    27         46
    28         43
    29         75
    30         10
    31         19
    36          2
    37          4
    38          6
    39         28
    40         11
    41        142
    42         37
    43        999
    44         56
    45         93
    46          5
    50          7
    51          8
    52          7
    53         32
    54         31
    55        153
    56         49
    57         74
    58         12
    59         37
    60         70
    61         12
    63          5
    64          3
    65         21
    66         11
    67         78
    68         27
    69        132
    70         30
    71         78
    72         11
    73         25
    74          9
    75          4
    76          5
    77         49
    78         14
    79         91
    80         29
    81        104
    82         54
    83         76
    84         90
    85         52
    86         11
    87         13
    88          5
    89          7
    90          4
    91        111
    92         30
    93        100
    94         45
    95         97
    96         36
    97         57
    98         32
    99         20
   100         32
   101         30
   102         11
   103         18
   104         13
   105        129
   106         50
   107        123
   108         62
   109         65
   110         32
   111         45
   112         14
   113         26
   114         10
   115         31
   116         14
   117         34
   118         35
   119        143
   120         68
   121        217
   122        136
   123        123
   124         61
   125         32
   126         12
   127         17
   128         20
   129         34
   130         19
   131         64
   132         51
   133         68
   134         41
   135        242
   136         76
   137         57
   138         19
   139         18
   140         17
   141         24
   142         32
   143         50
   144         44
   145         78
   146         50
   147         58
   148         31
   149         70
   150         17
   151         16
   152         13
   153         16
   154         10
   155         27
   156         20
   157         58
   158         47
   159         79
   160         62
   161         58
   162         28
   163         21
   164          9
   165         21
   166         14
   167         15
   168         15
   169         29
   170         26
   171         65
   172         50
   173         54
   174         35
   175         30
   176         14
   177         15
   178         13
   179         13
   180         12
   181         18
   182         25
   183         35
   184         40
   185         53
   186         58
   187         41
   188         28
   189         25
   190         12
   191         10
   192         11
   193         13
   194         19
   195         21
   196         20
   197         28
   198         35
   199         30
   200         59
   201         32
   202         35
   203         22
   204         15
   205         12
   206         13
   207         13
   208         29
   209         37
   210         49
   211         41
   212         52
   213         34
   214         46
   215         27
   216         13
   217         10
   218         11
   219         14
   220         28
   221         19
   222         58
   223         47
   224         35
   225        112
   226         48
   227         35
   228         42
   229         25
   230         21
   231         12
   232         16
   233         15
   234         12
   235         11
   236         16
   237         13
   238         21
   239         23
   240         33
   241         21
   242         27
   243         56
   244         32
   245         31
   246         33
   247         17
   248         13
   249         19
   250         65
   251         26
   252         20
   253         10
   254         33
   255         17
   256         25
   257         17
   258         16
   259         19
   260         30
   261         19
   262         22
   263          8
   264         25
   265         49
   266        140
   267         44
   268         90
   269         27
   270         33
   271         40
   272         37
   273         28
   274         48
   275         18
   276          9
   277          8
   278         12
   279          6
   280          6
   281          6
   282         41
   283         69
   284        118
   285         77
   286         34
   287         35
   288         28
   289         12
   290          9
   291          6
   292          7
   293          7
   294          8
   295          7
   296         40
   297         16
   298         26
   299         14
   300         40
   301         22
   302         21
   303         27
   304         10
   305          5
   306          6
   308          6
   309          9
   310         86
   311         69
   312         38
   313         17
   314         44
   315         27
   316         14
   317          6
   318          5
   320          7
   323         11
   324         25
   325        409
   326        170
   327         83
   328        323
   329         88
   330         47
   331         12
   332          7
   333          4
   334          4
   341         10
   342         46
   343        795
   344        233
   345         58
   346        249
   347         56
   348          9
   349          2
   352          4
   356          3
   360         58
   361        357
   362         84
   363         12
   364          3
   365          4
   367          3
   368          2
   369          4
   370         30
   371          9
   372          8
   373          4
   374          5
   385        109
   386         50
   387         14
   388        472
   389        121
   390         21
   391          4
   402         12
   403        287
   404         74
   405         14
   406          2
   407          2
   420          2
   421          3
   422          2
   432          2
   445         56
   446         35
   447          8
   462          2
   472          3
   505          4
   506          2