##TITLE=Library Entry 29209
##JCAMP-DX=Revision 4.10 
##DATA TYPE=MASS SPECTRUM
##SAMPLE DESCRIPTION=A.A.Kutin, Moscow, Russia
##NAMES=HP
##CAS NAME=Isoquinolin-4-ol, 1,2,3,4-tetrahydro-6,7-dimethoxy-3,3-dimethyl-
##MOLFORM=C13H19NO3
##CAS REGISTRY NO=76380-58-0
##MP= -300
##BP= -300
##MW= 237
##$RETENTION INDEX=0
##$CONDENSED SPECTRUM=NO
##NPOINTS= 180
##XYDATA=(XY..XY) 1 
    33          3
    35         46
    36         87
    37         16
    38         49
    39        150
    40         33
    41        148
    42        350
    43         60
    44         13
    45         13
    46          0
    47          1
    48          0
    50         39
    51         79
    52         43
    53         64
    54         20
    55         43
    56         25
    58        999
    59         25
    62         21
    63         56
    64         32
    65        118
    66         64
    67         30
    68          9
    69         11
    70         16
    71         33
    72          6
    73          3
    74         10
    75         14
    76         25
    77        132
    78         59
    79         80
    80         28
    81         46
    82          8
    83          4
    84          2
    85          1
    86          4
    87          7
    89         51
    90         32
    91        100
    92         30
    93         68
    94         49
    95         22
    96         16
    97          5
    98          1
    99          1
   101          2
   102         10
   103         21
   104         23
   105         39
   106         32
   107         52
   108         28
   109        113
   110         10
   111          2
   112          1
   113          1
   114          3
   115         15
   116         10
   117         23
   118         34
   119         28
   120         16
   121         49
   122         15
   123         14
   124          4
   125          1
   126          0
   127          3
   128          6
   129          5
   130         20
   131         24
   132         17
   133         27
   134         24
   135         28
   136         46
   137         39
   138         21
   139          4
   140          0
   141          1
   142          5
   143          8
   144         11
   145          9
   146         14
   147         19
   148         10
   149         19
   150         19
   151         94
   152         16
   153          2
   154          1
   155          1
   156          2
   157          3
   158          5
   159         11
   160         17
   161         10
   162         11
   163         18
   164         20
   165        108
   166         12
   167          2
   168          0
   169          0
   170          1
   171          2
   172          4
   173          4
   174         15
   175          6
   176         11
   177         13
   178         51
   179        272
   180        393
   181         40
   182          4
   183          0
   185          0
   186          3
   187          2
   188         12
   189          6
   190         11
   191          4
   192          7
   193          5
   194          3
   198          0
   200          0
   201          1
   202          9
   203          3
   204         30
   205          8
   206          8
   207          4
   208          7
   209          1
   212          0
   216          2
   217         18
   218          8
   219          4
   220          6
   221          4
   222          8
   223          0
   232          0
   234          0
   235          1
   237         44
   238          6
   239          0