##TITLE=Library Entry 9406
##JCAMP-DX=Revision 4.10 
##DATA TYPE=MASS SPECTRUM
##SAMPLE DESCRIPTION=Chemical Concepts
##NAMES=HP
##CAS NAME=21-Norpicrasane-20-carboselenoic acid, 1,2,3-tris(acetyloxy)-13,1
6-dioxo-, se-phenyl ester, (1.alpha.,2.beta.,3.beta.)-
##MOLFORM=C32H38O10Se
##CAS REGISTRY NO=76389-74-7
##MP= -300
##BP= -300
##MW= 662
##$RETENTION INDEX=0
##$CONDENSED SPECTRUM=NO
##NPOINTS= 132
##XYDATA=(XY..XY) 1 
    27          9
    29          9
    39         22
    41         25
    43        999
    44         22
    45          9
    50         27
    51         45
    53         13
    55         80
    57         17
    60          8
    65         12
    67         15
    69         37
    71         24
    74         11
    77         96
    78        251
    79         39
    81         20
    82         12
    83         15
    85         13
    91         39
    93         20
    95         26
    97         13
   105         24
   107         23
   109         17
   111         13
   113          8
   115         12
   117         12
   119         17
   121         21
   122         17
   123         13
   125         13
   129         12
   131         16
   133         12
   135         34
   136         10
   137         11
   138          9
   143         14
   145         15
   147         16
   149         12
   154         13
   155         19
   156         24
   157         22
   158         58
   159         21
   160         12
   161         15
   169         10
   171         20
   172          9
   173         19
   175          8
   183         10
   185         19
   186         11
   187         16
   195          8
   197         11
   199         15
   201         14
   209         10
   211         17
   212         21
   213         18
   215         12
   223         18
   225         18
   227         18
   228          9
   229         21
   239         12
   241         19
   242         10
   243         12
   250          8
   253         14
   254         13
   255         13
   264         21
   265         14
   267         18
   271         11
   281         28
   282         40
   283         19
   285          7
   296         12
   297         11
   299         14
   300         23
   309          8
   314         15
   324         27
   325         19
   327         15
   342         97
   343         36
   345         34
   356          8
   359         11
   360         61
   361         14
   366          4
   384         35
   385         11
   387         28
   401         10
   402        157
   403         35
   416          8
   420         10
   444         30
   445         12
   462         25
   463         10
   504         18
   505         33
   506          9
   525         27