##TITLE=Library Entry 14519
##JCAMP-DX=Revision 4.10 
##DATA TYPE=MASS SPECTRUM
##SAMPLE DESCRIPTION=Chemical Concepts
##NAMES=HP
##CAS NAME=1-Phenanthreneacetic acid, 5,6,7-tris(acetyloxy)-3-bromotetradeca
hydro-4b,8-dimethyl-2-oxo-, methyl ester, [1s-(1.alpha.,3.beta.,4a.beta.,4b.
alpha.,5.beta.,6.al
##MOLFORM=C25H35BrO9
##CAS REGISTRY NO=76389-65-6
##MP= -300
##BP= -300
##MW= 558
##$RETENTION INDEX=0
##$CONDENSED SPECTRUM=NO
##NPOINTS= 183
##XYDATA=(XY..XY) 1 
    27         14
    28         14
    29         29
    31         11
    39         12
    41         77
    43        999
    44         23
    45         19
    55        117
    57         47
    67         35
    69         60
    71         55
    77         24
    79         51
    81         62
    82         21
    83         36
    84         20
    85         23
    91         48
    93         60
    94         19
    95         52
    96         17
    97         40
   105         57
   106         20
   107         73
   108         25
   109         40
   111         29
   115         20
   117         25
   119         84
   120         21
   121         85
   122         31
   123         38
   124         20
   125         19
   128         24
   131         31
   133         57
   134         21
   135         75
   136         25
   137         27
   143         30
   145         43
   146         18
   147         70
   148         22
   149         61
   155         17
   157         41
   158         19
   159         45
   160         21
   161         61
   162         25
   163         24
   169         32
   170         20
   171         37
   172         21
   173         58
   174         18
   175         50
   177         15
   179         17
   183         22
   185         40
   186         29
   187         60
   188         23
   189         21
   193         18
   195         17
   197         32
   199         28
   201         26
   203         24
   205         40
   209         16
   211         32
   213         48
   214         20
   215         44
   216         14
   217         15
   219         19
   221         14
   223         21
   225         59
   226         33
   227         61
   228         18
   229         29
   231         18
   237         15
   238         17
   239        158
   240         45
   241         31
   243         46
   245         47
   249         14
   251         17
   253         21
   255         23
   257         83
   258         22
   259         14
   266         52
   267        240
   268         96
   269         62
   270         15
   271         22
   283         26
   284         32
   285        308
   286         68
   287         37
   298         20
   299        339
   300         84
   301         28
   303         32
   307          9
   315         12
   316         12
   317        151
   318         47
   319         17
   321         15
   327         34
   328         24
   335         14
   336         17
   345         64
   346         23
   347         24
   349         13
   350         11
   351         12
   359        116
   360         31
   361         13
   363         20
   365         20
   367         17
   377         85
   378         32
   381         27
   383         25
   387         52
   388         31
   396         18
   398         19
   399         47
   401         40
   407         47
   408         12
   414         23
   416         24
   419        193
   420         50
   421         10
   437          9
   441         35
   443         33
   446         16
   449         13
   456         11
   458         12
   478         17
   479         45
   480         15
   527         15
   529         14