##TITLE=Library Entry 27319
##JCAMP-DX=Revision 4.10 
##DATA TYPE=MASS SPECTRUM
##SAMPLE DESCRIPTION=G.S. KING, CHEM. PATHOL. DEP., QUEEN CHARLOTTE'S HOSP.,
 LONDON
##NAMES=HP
##CAS NAME=.alpha.-Methyldopa butyl ester tripfp
##MOLFORM=C23H18F15NO7
##CAS REGISTRY NO=76381-65-2
##MP= -300
##BP= -300
##MW= 705
##$RETENTION INDEX=0
##$CONDENSED SPECTRUM=NO
##NPOINTS= 118
##XYDATA=(XY..XY) 1 
    40          8
    41        400
    42        348
    43         60
    44         32
    50         12
    51         24
    52          8
    53          8
    55         80
    56         88
    57        999
    58         44
    65         52
    66          8
    69        100
    77         60
    78          8
    79          8
    85         28
    91         28
    92          8
    93         12
    94          8
   100         12
   102          8
   103         20
   105         32
   106          8
   109          8
   114          8
   115          8
   118          8
   119        352
   120         12
   121          8
   122          8
   130         20
   131         20
   133         20
   134          8
   146         12
   147         96
   148         16
   149         20
   160         52
   164         20
   166         16
   175         16
   184         24
   188        140
   189         16
   190         12
   202         24
   206         20
   212          8
   215          8
   216        672
   217         52
   234        616
   235         44
   240         12
   249          8
   252         24
   253          8
   269         48
   270          8
   277         44
   278          8
   290        372
   291         44
   292         12
   293         20
   294        116
   295         24
   310         20
   321          8
   322         12
   323         20
   339         24
   340          8
   387         48
   388          8
   396          8
   415         88
   416         20
   431          8
   436         16
   439          8
   440        148
   441         64
   442         20
   451          8
   456          8
   457         40
   458         36
   459         12
   468         72
   469         60
   470         12
   484          8
   486        564
   487        124
   492          8
   502         20
   542        480
   543        116
   544         20
   554          8
   556          8
   582          8
   584         44
   585         12
   586          8
   602         20
   603         20
   604        236
   605         60