##TITLE=Library Entry 19246
##JCAMP-DX=Revision 4.10 
##DATA TYPE=MASS SPECTRUM
##SAMPLE DESCRIPTION=D.HENNEBERG, MAX-PLANCK INSTITUTE, MULHEIM, WEST GERMAN
Y
##NAMES=HP
##CAS NAME=5-Undecene, (Z)-
##MOLFORM=C11H22
##CAS REGISTRY NO=764-96-5
##MP= -300
##BP= -300
##MW= 154
##$RETENTION INDEX=1079
##$CONDENSED SPECTRUM=NO
##NPOINTS= 68
##XYDATA=(XY..XY) 1 
    25          7
    26         28
    27        410
    28         80
    29        404
    30         16
    32          8
    37         10
    38         17
    39        274
    40         50
    41        716
    42        231
    43        347
    44         19
    49          8
    50         20
    51         42
    52         30
    53        129
    54        228
    55        999
    56        519
    57        231
    58         17
    62          9
    63         16
    64          9
    65         35
    66         26
    67        131
    68         68
    69        546
    70        378
    71         78
    72         11
    74          7
    75          9
    77         29
    78         13
    79         29
    80         12
    81         40
    82         47
    83        204
    84        177
    85         45
    86          9
    89          6
    91         11
    92          6
    93          7
    95         12
    96         21
    97        128
    98         69
    99         17
   109          6
   110         11
   111         51
   112         28
   113          8
   124          7
   125         16
   126         21
   127          7
   154        181
   155         15