##TITLE=Library Entry 16917
##JCAMP-DX=Revision 4.10 
##DATA TYPE=MASS SPECTRUM
##SAMPLE DESCRIPTION=Exported from NIST MS Search
##NAMES=HP
##CAS NAME=Ethene, 1,1'-[oxybis(2,1-ethanediyloxy)]bis-
##MOLFORM=C8H14O3
##CAS REGISTRY NO=764-99-8
##MP= -300
##BP= -300
##MW= 158
##$RETENTION INDEX=0
##$CONDENSED SPECTRUM=NO
##NPOINTS= 79
##XYDATA=(XY..XY) 1 
    13          1
    14          6
    15         56
    16          2
    17          1
    18          1
    19         21
    25          1
    26         12
    27        181
    28         45
    29        111
    30          9
    31         79
    32          1
    33          1
    38          1
    39          7
    40          2
    41        142
    42         78
    43        355
    44         67
    45        999
    46         23
    47          2
    51          1
    53          2
    54          2
    55          6
    56          3
    57         98
    58         35
    59         18
    60          1
    61          1
    67          1
    68          7
    69         12
    70        143
    71        115
    72         11
    73        158
    74          6
    75          2
    76          1
    81          1
    82          1
    83          3
    84          4
    85          6
    86         60
    87         64
    88          6
    89          2
    91          1
    92          1
    96          1
    97          1
    98          1
    99         13
   100          4
   101         38
   102          3
   103          1
   104          1
   105          1
   112          1
   113          2
   114         53
   115         18
   116          1
   117        197
   118         11
   119          1
   128          1
   129          3
   130          6
   132          1