##TITLE=Library Entry 19118
##JCAMP-DX=Revision 4.10 
##DATA TYPE=MASS SPECTRUM
##SAMPLE DESCRIPTION=D.HENNEBERG, MAX-PLANCK INSTITUTE, MULHEIM, WEST GERMAN
Y
##NAMES=HP
##CAS NAME=5-Undecene, (E)-
##MOLFORM=C11H22
##CAS REGISTRY NO=764-97-6
##MP= -300
##BP= -300
##MW= 154
##$RETENTION INDEX=1082
##$CONDENSED SPECTRUM=NO
##NPOINTS= 68
##XYDATA=(XY..XY) 1 
    24          2
    25          2
    26         11
    27        266
    28         83
    29        307
    30          6
    32          0
    33          1
    36          2
    38          3
    39        194
    40         18
    41        655
    42        226
    43        355
    44          1
    45          0
    46          1
    48          0
    50          3
    51         15
    52          3
    53         68
    54        144
    55        999
    56        598
    57        220
    58          9
    59          1
    61          1
    62          1
    63          3
    64          1
    65          9
    66          7
    67         88
    68         50
    69        580
    70        377
    71         60
    72          0
    77          4
    79          8
    80          3
    81         23
    82         27
    83        173
    84        154
    85         30
    86          1
    91          1
    95          2
    96         12
    97         96
    98         46
    99          3
   109          1
   110          4
   111         37
   112         15
   113          1
   125         10
   126          8
   127          1
   148          0
   154         99
   155         12