##TITLE=Library Entry 15677
##JCAMP-DX=Revision 4.10 
##DATA TYPE=MASS SPECTRUM
##SAMPLE DESCRIPTION=NIST Mass Spectrometry Data Center, 1994
##NAMES=HP
##CAS NAME=2-Hexynoic acid
##MOLFORM=C6H8O2
##CAS REGISTRY NO=764-33-0
##MP= -300
##BP= -300
##MW= 112
##$RETENTION INDEX=0
##$CONDENSED SPECTRUM=NO
##NPOINTS= 61
##XYDATA=(XY..XY) 1 
    12         81
    13         14
    14         19
    15         87
    16        110
    17          0
    18          2
    20          1
    22         10
    24          7
    25         24
    26        139
    27        603
    28        187
    29        298
    30          6
    31         27
    32          7
    36         13
    37        120
    38        214
    39        783
    40        582
    41        250
    42        175
    43          6
    44        999
    45         22
    46          5
    48          7
    49         30
    50        120
    51        127
    52         44
    53        389
    54         21
    55         12
    56          6
    60          7
    61         34
    62         37
    63         41
    64          6
    65         76
    66         72
    67        852
    68        113
    69         16
    70          2
    71          3
    77          2
    79          3
    81          0
    83          4
    84         33
    85          2
    94          2
    95          6
    97         14
   111          7
   112          6