##TITLE=Library Entry 68460
##JCAMP-DX=Revision 4.10 
##DATA TYPE=MASS SPECTRUM
##SAMPLE DESCRIPTION=Exported from NIST MS Search
##NAMES=HP
##CAS NAME=2,4-Hexadiene, 2,5-dimethyl-
##MOLFORM=C8H14
##CAS REGISTRY NO=764-13-6
##MP= -300
##BP= -300
##MW= 110
##$RETENTION INDEX=861
##$CONDENSED SPECTRUM=NO
##NPOINTS= 87
##XYDATA=(XY..XY) 1 
    15        125
    16          4
    17          1
    18          1
    26         25
    27        278
    28         44
    29        114
    30          3
    31          1
    32          1
    35          1
    36          2
    37         13
    38         39
    39        396
    40         68
    41        441
    42         37
    43         80
    44          4
    45          8
    46          5
    47          6
    48          5
    49          5
    50         46
    51        110
    52         49
    53        222
    54         52
    55        351
    56         48
    57          7
    58          1
    59          3
    60          1
    61          6
    62         14
    63         35
    64          9
    65         72
    66         37
    67        510
    68        149
    69         62
    70         13
    71          1
    72          1
    73          2
    74          7
    75          8
    77        126
    78         33
    79        110
    80         43
    81        133
    82         31
    83         18
    84          8
    85          5
    86          4
    87          3
    89          5
    90          8
    91         69
    92         19
    93         92
    94         33
    95        999
    96         78
    97          4
    98          1
    99          1
   100          2
   101          4
   102          1
   103          1
   104          1
   105          3
   106          2
   107          6
   108          3
   109         23
   110        563
   111         50
   112          3