##TITLE=Library Entry 48482
##JCAMP-DX=Revision 4.10 
##DATA TYPE=MASS SPECTRUM
##SAMPLE DESCRIPTION=D.HENNEBERG, MAX-PLANCK INSTITUTE, MULHEIM, WEST GERMAN
Y
##NAMES=HP
##CAS NAME=3-Hepten-1-yne, (Z)-
##MOLFORM=C7H10
##CAS REGISTRY NO=764-57-8
##MP= -300
##BP= -300
##MW= 94
##$RETENTION INDEX=0
##$CONDENSED SPECTRUM=NO
##NPOINTS= 49
##XYDATA=(XY..XY) 1 
    27        176
    28         42
    29        112
    30          2
    32          3
    37          5
    38         28
    39        428
    40         88
    41        110
    42        169
    43          9
    44         11
    45          0
    48          0
    49          3
    50         60
    51        111
    52        378
    53        156
    54         31
    55        139
    56          6
    57          0
    61          2
    62         17
    63         75
    64         23
    65        331
    66        120
    67         27
    68          5
    74          3
    75         15
    76          3
    77        351
    78         62
    79        999
    80         70
    81          1
    87          0
    88          0
    89          4
    90          1
    91        117
    92         12
    93        160
    94        420
    95         33