##TITLE=Library Entry 48082
##JCAMP-DX=Revision 4.10 
##DATA TYPE=MASS SPECTRUM
##SAMPLE DESCRIPTION=Japan AIST/NIMC Database- Spectrum MS-NW-4972
##NAMES=HP
##CAS NAME=Fumaronitrile
##MOLFORM=C4H2N2
##CAS REGISTRY NO=764-42-1
##MP= -300
##BP= -300
##MW= 78
##$RETENTION INDEX=0
##$CONDENSED SPECTRUM=NO
##NPOINTS= 26
##XYDATA=(XY..XY) 1 
    12         18
    13          4
    14          3
    24         15
    25         29
    26         92
    27         17
    28         18
    36         17
    37         29
    38         58
    39         28
    40          5
    48          6
    49          1
    50         55
    51        519
    52        170
    53          8
    62          8
    63          4
    76         55
    77        313
    78        999
    79         51
    80          1