##TITLE=Library Entry 32934
##JCAMP-DX=Revision 4.10 
##DATA TYPE=MASS SPECTRUM
##SAMPLE DESCRIPTION=NIST Mass Spectrometry Data Center, 1990.
##NAMES=HP
##CAS NAME=2-Hexyne
##MOLFORM=C6H10
##CAS REGISTRY NO=764-35-2
##MP= -300
##BP= -300
##MW= 82
##$RETENTION INDEX=642
##$CONDENSED SPECTRUM=NO
##NPOINTS= 37
##XYDATA=(XY..XY) 1 
    15         51
    26        107
    27        514
    28         56
    29        121
    37         45
    38         88
    39        615
    40        107
    41        551
    42        125
    43         15
    49         31
    50        209
    51        285
    52        173
    53        746
    54        364
    55         70
    56         12
    61         20
    62         37
    63         58
    64         12
    65        194
    66         12
    67        999
    68         53
    73          7
    74         18
    77         65
    78         14
    79        115
    80         31
    81        122
    82        924
    83         58