##TITLE=Library Entry 45165
##JCAMP-DX=Revision 4.10 
##DATA TYPE=MASS SPECTRUM
##SAMPLE DESCRIPTION=R. F. HUDSON UNIVERSITY OF KENT, CANTERBURY
##NAMES=HP
##CAS NAME=2-Butene, 1,4-dichloro-
##MOLFORM=C4H6Cl2
##CAS REGISTRY NO=764-41-0
##MP= -300
##BP= -300
##MW= 124
##$RETENTION INDEX=875
##$CONDENSED SPECTRUM=NO
##NPOINTS= 33
##XYDATA=(XY..XY) 1 
    27        310
    29         60
    31         20
    36         70
    37         10
    38         40
    39        230
    41         70
    43         10
    49         90
    50         70
    51        130
    52         30
    53        470
    54        130
    57        100
    61         20
    62        250
    63         30
    64         70
    75        999
    76         30
    77        320
    85         40
    86         30
    87         20
    88        170
    89        450
    90         70
    91        140
   124        170
   126        110
   128         10