##TITLE=Library Entry 18955
##JCAMP-DX=Revision 4.10 
##DATA TYPE=MASS SPECTRUM
##SAMPLE DESCRIPTION=NIST Mass Spectrometry Data Center, 1990.
##NAMES=HP
##CAS NAME=2-Hexyn-1-ol
##MOLFORM=C6H10O
##CAS REGISTRY NO=764-60-3
##MP= -300
##BP= -300
##MW= 98
##$RETENTION INDEX=847
##$CONDENSED SPECTRUM=NO
##NPOINTS= 51
##XYDATA=(XY..XY) 1 
    14         13
    15         65
    16          4
    17         11
    18         23
    26         94
    27        470
    28        158
    29        547
    30         36
    31        192
    32         28
    37         70
    38        163
    39        947
    40        225
    41        887
    42        331
    43        301
    44         49
    45         12
    49         37
    50        193
    51        257
    52        267
    53        336
    54        111
    55        999
    56        145
    57        114
    61         26
    62         49
    63         57
    64         12
    65        126
    66         54
    67        140
    68         69
    69        450
    70        463
    71         34
    74         14
    77        118
    79        225
    80         46
    81         44
    83        680
    84         35
    95         10
    97         89
    98         69