##TITLE=Library Entry 2052
##JCAMP-DX=Revision 4.10 
##DATA TYPE=MASS SPECTRUM
##SAMPLE DESCRIPTION=NIST Mass Spectrometry Data Center, 1994
##NAMES=HP
##CAS NAME=Nonanoyl chloride
##MOLFORM=C9H17ClO
##CAS REGISTRY NO=764-85-2
##MP= -300
##BP= -300
##MW= 176
##$RETENTION INDEX=1216
##$CONDENSED SPECTRUM=NO
##NPOINTS= 69
##XYDATA=(XY..XY) 1 
    14         17
    15         65
    16          1
    27        677
    28        198
    29        707
    30         16
    35          5
    37         10
    39        437
    41        999
    42        369
    43        541
    44         19
    47          3
    49         11
    50         12
    51         28
    52         16
    53         71
    54          3
    55        552
    56        218
    57        406
    58         28
    61          5
    63         95
    65         41
    67         63
    68         65
    69        158
    70        106
    71        100
    72          8
    77         21
    78         87
    79         41
    80         37
    81         82
    82          8
    83        130
    84        338
    85         25
    86          3
    91         46
    93         36
    94         24
    96        182
    97         94
    98        166
    99          4
   102         11
   104          0
   105          8
   107          5
   111         13
   112         29
   113          6
   116          4
   118          0
   121          1
   122          7
   123         11
   124          2
   125          0
   133          2
   135          2
   141         62
   142          4