##TITLE=Library Entry 59271
##JCAMP-DX=Revision 4.10 
##DATA TYPE=MASS SPECTRUM
##SAMPLE DESCRIPTION=NIST Mass Spectrometry Data Center, 1994
##NAMES=HP
##CAS NAME=2,6-Octadiyne
##MOLFORM=C8H10
##CAS REGISTRY NO=764-73-8
##MP= -300
##BP= -300
##MW= 106
##$RETENTION INDEX=0
##$CONDENSED SPECTRUM=NO
##NPOINTS= 58
##XYDATA=(XY..XY) 1 
    12          1
    13          3
    14          4
    15         15
    17          0
    18          2
    24          1
    26        116
    27        939
    36          5
    37         48
    38         81
    39        317
    40         71
    41         48
    49         39
    50        304
    51        427
    52        254
    53        967
    54         51
    55          5
    60          3
    61         23
    62         47
    63         96
    64         26
    65        233
    66         64
    67          8
    73          2
    74         10
    75         19
    76         19
    77        273
    78        101
    79        130
    80         10
    84          1
    85          3
    86          6
    87          6
    88          2
    89         17
    90          1
    91        999
    92         71
    93          3
    97          2
    98          6
    99          2
   101          1
   102         10
   103         49
   104         21
   105        162
   106        126
   107         10