##TITLE=Library Entry 16930
##JCAMP-DX=Revision 4.10 
##DATA TYPE=MASS SPECTRUM
##SAMPLE DESCRIPTION=Exported from NIST MS Search
##NAMES=HP
##CAS NAME=Ethanol, 2-(vinyloxy)-
##MOLFORM=C4H8O2
##CAS REGISTRY NO=764-48-7
##MP= -300
##BP= -300
##MW= 88
##$RETENTION INDEX=0
##$CONDENSED SPECTRUM=NO
##NPOINTS= 50
##XYDATA=(XY..XY) 1 
    12          4
    13         11
    14         56
    15        180
    16          9
    17         14
    18         54
    19        131
    22          3
    23          3
    24          1
    25          8
    26         73
    27        478
    28        150
    29        428
    30         31
    31        494
    32         20
    33          7
    36          1
    37          2
    38          4
    39         23
    40          9
    41         53
    42         90
    43        492
    44        771
    45        999
    46         24
    47          3
    54          2
    55          1
    56         10
    57         44
    58        117
    59         43
    60          4
    61          2
    62          3
    69          2
    70          2
    71          2
    73         91
    74          3
    85          1
    86          8
    88         66
    89          2