##TITLE=Library Entry 14290
##JCAMP-DX=Revision 4.10 
##DATA TYPE=MASS SPECTRUM
##SAMPLE DESCRIPTION=Japan AIST/NIMC Database- Spectrum MS-NW-2240
##NAMES=HP
##CAS NAME=2-Hydroxyhexadecanoic acid
##MOLFORM=C16H32O3
##CAS REGISTRY NO=764-67-0
##MP= -300
##BP= -300
##MW= 272
##$RETENTION INDEX=0
##$CONDENSED SPECTRUM=NO
##NPOINTS= 215
##XYDATA=(XY..XY) 1 
    15          7
    16          3
    17         10
    18         45
    19          2
    26          7
    27        150
    28         55
    29        377
    30          9
    31         34
    32          8
    34          2
    35          2
    36         20
    38          6
    39         97
    40         21
    41        721
    42        145
    43        999
    44        103
    45         49
    46          3
    47          6
    48          1
    50          2
    51          5
    52          4
    53         49
    54         90
    55        829
    56        204
    57        860
    58         47
    59         14
    60         28
    61          6
    62          9
    63          3
    64          3
    65          9
    66         29
    67        233
    68        185
    69        782
    70        177
    71        425
    72         33
    73         99
    74         19
    75          6
    76        699
    77         21
    78          9
    79         23
    80         16
    81        233
    82        277
    83        762
    84        125
    85        226
    86         22
    87         41
    88          5
    89        325
    90         14
    91         10
    92          3
    93         11
    94         21
    95        202
    96        197
    97        633
    98        180
    99         67
   100         51
   101         18
   102          7
   103          3
   104          1
   105          5
   106          3
   107          7
   108         11
   109        112
   110         74
   111        331
   112         64
   113        535
   114        164
   115         26
   116          7
   117          6
   118         24
   119          6
   120          2
   121          7
   122          7
   123         58
   124         59
   125        158
   126         41
   127        231
   128         24
   129         23
   130          4
   131        162
   132         12
   133         11
   134          4
   135          6
   136          5
   137         41
   138        126
   139         73
   140         31
   141         16
   142         29
   143          9
   144          4
   145         38
   146          4
   147          3
   148          2
   149          4
   150          2
   151         30
   152         39
   153         35
   154         14
   155         14
   156        151
   157         22
   158          7
   159          1
   161          2
   163          2
   164          1
   165         12
   166         12
   167         11
   168          9
   169         19
   170         61
   171         16
   172          4
   177          3
   178          2
   179          7
   180         27
   181          9
   182        101
   183         23
   184         12
   185          9
   186          3
   189          1
   191          1
   192          4
   193          5
   194          4
   195         19
   196         10
   197          8
   198          6
   199         17
   200          7
   201          1
   202          1
   205          1
   206          1
   207          6
   208         40
   209         14
   210         13
   211          7
   212          5
   213         47
   214         22
   215          3
   218          1
   221          2
   223          2
   224          2
   225         46
   226         16
   227        428
   228         75
   229          7
   230          1
   236         21
   237          6
   238          2
   239          1
   240          1
   241          4
   242          8
   243          4
   244         13
   245          2
   252          1
   253          2
   254         90
   255         22
   256         10
   257          2
   268          1
   269          1
   270          4
   271          2
   272        866
   273        152
   274         19
   275          2