##TITLE=Library Entry 2231
##JCAMP-DX=Revision 4.10 
##DATA TYPE=MASS SPECTRUM
##SAMPLE DESCRIPTION=G.Slater ET AL.J.Chromatogr.,648,433(1993)
##NAMES=HP
##CAS NAME=Thiocyanic acid, 2-propenyl ester
##MOLFORM=C4H5NS
##CAS REGISTRY NO=764-49-8
##MP= -300
##BP= -300
##MW= 99
##$RETENTION INDEX=1440
##$CONDENSED SPECTRUM=NO
##NPOINTS= 16
##XYDATA=(XY..XY) 1 
    39        767
    40         46
    41        999
    42         39
    45         69
    46         27
    47          5
    58         34
    59          9
    67          7
    69          7
    71         16
    72        142
    98         39
    99        201
   100          5