##TITLE=Library Entry 3651
##JCAMP-DX=Revision 4.10 
##DATA TYPE=MASS SPECTRUM
##SAMPLE DESCRIPTION=Exported from NIST MS Search
##NAMES=HP
##CAS NAME=1-Decyne
##MOLFORM=C10H18
##CAS REGISTRY NO=764-93-2
##MP= -300
##BP= -300
##MW= 138
##$RETENTION INDEX=987
##$CONDENSED SPECTRUM=NO
##NPOINTS= 75
##XYDATA=(XY..XY) 1 
    25          1
    26         31
    27        633
    28        104
    29        614
    30         13
    37          7
    38         27
    39        482
    40        101
    41        999
    42        197
    43        656
    44         21
    45          1
    49          1
    50         20
    51         59
    52         44
    53        209
    54        353
    55        733
    56        232
    57        395
    58         17
    59          1
    61          1
    62          2
    63         10
    64          3
    65         47
    66         50
    67        667
    68        243
    69        142
    70         93
    71         15
    72          1
    74          1
    75          1
    76          1
    77         38
    78         13
    79         87
    80         37
    81        782
    82        223
    83         58
    84         11
    85          3
    89          1
    91         11
    92          2
    93         14
    94          7
    95        320
    96         66
    97         29
    98         18
    99          1
   103          1
   105          1
   107          2
   108          1
   109         73
   110         11
   111          2
   112          1
   120          1
   122          1
   123          6
   124          1
   137          1
   138          1
   139          1