##TITLE=Library Entry 50801
##JCAMP-DX=Revision 4.10 
##DATA TYPE=MASS SPECTRUM
##SAMPLE DESCRIPTION=Chemical Concepts
##NAMES=HP
##CAS NAME=9-Oxabicyclo[4.2.1]non-7-en-3-one
##MOLFORM=C8H10O2
##CAS REGISTRY NO=76400-39-0
##MP= -300
##BP= -300
##MW= 138
##$RETENTION INDEX=0
##$CONDENSED SPECTRUM=NO
##NPOINTS= 74
##XYDATA=(XY..XY) 1 
    26         33
    27        197
    28        101
    29        121
    30          4
    31         12
    37         10
    38         28
    39        223
    40         73
    41        112
    42         65
    43         83
    44         13
    45          4
    49          4
    50         32
    51         51
    52         30
    53        173
    54        113
    55        111
    56         62
    57        205
    58          9
    60          2
    61          5
    62          6
    63         14
    64          4
    65         27
    66         47
    67         69
    68        537
    69         49
    70         24
    71         14
    74          4
    75          2
    77         26
    78         11
    79         39
    80         13
    81        999
    82        298
    83        108
    84         12
    85         46
    86          6
    91         29
    92         16
    93          9
    94         30
    95        162
    96         47
    97         10
    98          2
    99          2
   105          5
   106          1
   107          8
   108          4
   109        131
   110         78
   111          8
   119          6
   120         12
   121          4
   123         13
   124          5
   137          7
   138        704
   139         54
   140          7