##TITLE=Library Entry 19012
##JCAMP-DX=Revision 4.10 
##DATA TYPE=MASS SPECTRUM
##SAMPLE DESCRIPTION=Japan AIST/NIMC Database- Spectrum MS-NW-4616
##NAMES=HP
##CAS NAME=3-Hexene, (Z)-
##MOLFORM=C6H12
##CAS REGISTRY NO=7642-09-3
##MP= -300
##BP= -300
##MW= 84
##$RETENTION INDEX=593
##$CONDENSED SPECTRUM=NO
##NPOINTS= 46
##XYDATA=(XY..XY) 1 
    14          1
    15         15
    26         18
    27        195
    28         15
    29        187
    30          5
    31          2
    37          9
    38         23
    39        242
    40         48
    41        664
    42        610
    43        144
    44          8
    49          3
    50         22
    51         30
    52         13
    53         89
    54         61
    55        999
    56        265
    57         12
    61          2
    62          4
    63          7
    64          1
    65         13
    66          5
    67         51
    68          9
    69        266
    70         14
    73          4
    74          2
    77          5
    78          4
    79          5
    81          3
    82          4
    83          4
    84        382
    85         26
    86          1