##TITLE=Library Entry 66156
##JCAMP-DX=Revision 4.10 
##DATA TYPE=MASS SPECTRUM
##SAMPLE DESCRIPTION=NIST Mass Spectrometry Data Center
##NAMES=HP
##CAS NAME=trans-Ocimenol
##MOLFORM=C10H18O
##CAS REGISTRY NO=7643-60-9
##MP= -300
##BP= -300
##MW= 154
##$RETENTION INDEX=1169
##$CONDENSED SPECTRUM=NO
##NPOINTS= 77
##XYDATA=(XY..XY) 1 
    26          2
    27         35
    29         34
    31         43
    37          1
    38          5
    39        107
    40         24
    41        186
    42         16
    43        239
    44          8
    45         11
    50          9
    51         40
    52         21
    53        146
    54         19
    55        123
    56         24
    57         24
    58         29
    59        593
    60         18
    61          4
    62          6
    63         14
    65         52
    66         33
    67        110
    68         68
    69         40
    70         12
    71         21
    74          2
    75          1
    77        142
    78         20
    79        368
    80        243
    81        610
    82         44
    83         34
    84         25
    85          7
    91        165
    92        130
    93        999
    94        120
    95         52
    96         15
    97         15
    98          2
   102          1
   103          6
   105         86
   106         18
   107        110
   108         18
   109          6
   110          2
   115          3
   117          1
   118          1
   119         21
   120          2
   121        415
   122         36
   123          6
   135          2
   136        484
   137         51
   138          5
   139         40
   140          4
   154          9
   155          1