##TITLE=Library Entry 1626
##JCAMP-DX=Revision 4.10 
##DATA TYPE=MASS SPECTRUM
##SAMPLE DESCRIPTION=A.A.Kutin, Moscow, Russia
##NAMES=HP
##CAS NAME=Tin(IV) chloride
##MOLFORM=Cl4Sn
##CAS REGISTRY NO=7646-78-8
##MP= -300
##BP= -300
##MW= 260
##$RETENTION INDEX=0
##$CONDENSED SPECTRUM=NO
##NPOINTS= 140
##XYDATA=(XY..XY) 1 
    35        999
    37        316
    40         10
    41          3
    42          2
    43          5
    44         13
    45          3
    46          0
    49          0
    50          1
    51          2
    52          1
    53          0
    54          0
    55          2
    56          1
    57          2
    58          2
    59          4
    60          5
    61          0
    62          0
    63          0
    64          3
    65          0
    66          1
    67          0
    68          0
    70         14
    71          1
    72          7
    73          1
    74          1
    76          8
    77         20
    78         31
    79         16
    80          1
    81          1
    82          0
    83          0
    84          0
    85          0
    86          0
    87          0
    90          0
    91          1
    93          2
    94          2
    95          2
    96          1
    97          0
    98          0
    99          0
   100          0
   105          0
   106          2
   107          3
   108          0
   109          0
   110          0
   112         10
   113          2
   114          4
   115          4
   116         90
   117         46
   118        149
   119         54
   120        212
   122         29
   124         35
   125          0
   127          0
   133          0
   135          0
   141          0
   147          3
   149          4
   150          2
   151         63
   152         33
   153        122
   154         48
   155        164
   156         12
   157         67
   159         29
   161          7
   171          0
   173          0
   175          0
   182          0
   184          0
   186         10
   187          5
   188         23
   189          9
   190         34
   191          4
   192         19
   193          0
   194          7
   196          2
   198          0
   199          0
   217         13
   218          0
   219         24
   220          6
   221        211
   222        117
   223        526
   224        226
   225        802
   226        145
   227        594
   228         40
   229        272
   230          5
   231        103
   233         24
   235          2
   252          1
   254          2
   255          0
   256         25
   257         12
   258         63
   259         27
   260        100
   261         22
   262         86
   264         56
   265          1
   266         20
   267          0
   268          6
   270          1