##TITLE=Library Entry 92494
##JCAMP-DX=Revision 4.10 
##DATA TYPE=MASS SPECTRUM
##SAMPLE DESCRIPTION=H. Luftmann, Org. Chem. Inst., Westfalisch Wilhelms Uni
v., Munster, Germany
##NAMES=HP
##CAS NAME=Propanedioic acid, diethyl-, ethyl methyl ester
##MOLFORM=C10H18O4
##CAS REGISTRY NO=76479-10-2
##MP= -300
##BP= -300
##MW= 202
##$RETENTION INDEX=0
##$CONDENSED SPECTRUM=NO
##NPOINTS= 73
##XYDATA=(XY..XY) 1 
    38         10
    39        130
    40         40
    41        510
    42         60
    43        180
    44         40
    45        230
    46         10
    53         60
    54         20
    55        260
    56         20
    57         60
    58         10
    59        980
    60         40
    61         10
    67         40
    68         40
    69        740
    70         60
    71         50
    72         10
    73        580
    74         40
    81         40
    82         20
    83        200
    84         20
    85         80
    86         60
    87        100
    88         10
    92         20
    93         20
    95         30
    96         50
    97        280
    98        150
    99        160
   100        160
   101        100
   102         60
   103         10
   110        200
   114        140
   115        999
   116         80
   117         10
   127        150
   128        280
   129        440
   130        220
   131         30
   141         90
   142        220
   143        230
   144         40
   145         50
   146         50
   156         40
   157        320
   158         50
   159        380
   160         50
   170         40
   171        140
   172         20
   173         50
   174        840
   175         80
   176         20