##TITLE=Library Entry 1628
##JCAMP-DX=Revision 4.10 
##DATA TYPE=MASS SPECTRUM
##SAMPLE DESCRIPTION=Exported from NIST MS Search
##NAMES=HP
##CAS NAME=Hydrogen chloride
##MOLFORM=ClH
##CAS REGISTRY NO=7647-01-0
##MP= -300
##BP= -300
##MW= 36
##$RETENTION INDEX=761
##$CONDENSED SPECTRUM=NO
##NPOINTS= 4
##XYDATA=(XY..XY) 1 
    35        170
    36        999
    37         54
    38        324