##TITLE=Library Entry 83414
##JCAMP-DX=Revision 4.10 
##DATA TYPE=MASS SPECTRUM
##SAMPLE DESCRIPTION=A.Pleshkova, Nesmeyanov Inst.Org.Elem.Cpds, Moscow
##NAMES=HP
##CAS NAME=Phosphorus pentafluoride
##MOLFORM=F5P
##CAS REGISTRY NO=7647-19-0
##MP= -300
##BP= -300
##MW= 126
##$RETENTION INDEX=0
##$CONDENSED SPECTRUM=NO
##NPOINTS= 6
##XYDATA=(XY..XY) 1 
    31         16
    50         49
    69         38
    88         44
   107        999
   126          8