##TITLE=Library Entry 141
##JCAMP-DX=Revision 4.10 
##DATA TYPE=MASS SPECTRUM
##SAMPLE DESCRIPTION=Exported from NIST MS Search
##NAMES=HP
##CAS NAME=2-Butene ozonide
##MOLFORM=C4H8O3
##CAS REGISTRY NO=765-57-1
##MP= -300
##BP= -300
##MW= 104
##$RETENTION INDEX=0
##$CONDENSED SPECTRUM=NO
##NPOINTS= 40
##XYDATA=(XY..XY) 1 
    24         10
    25         27
    26         93
    27         41
    28        999
    29        739
    30         22
    31         33
    32        132
    40         25
    41          7
    42        210
    43        669
    44        718
    45        138
    46         17
    50         13
    52          5
    57          2
    58          1
    59          1
    60         44
    61         27
    62          1
    71          2
    72         23
    73          2
    89         88
    90          4
    91          1
    92          1
    93          3
    94         19
    95          3
    96         19
    97          1
   103          3
   104         74
   105          4
   106          1