##TITLE=Library Entry 7672
##JCAMP-DX=Revision 4.10 
##DATA TYPE=MASS SPECTRUM
##SAMPLE DESCRIPTION=NIST Mass Spectrometry Data Center, 1994
##NAMES=HP
##CAS NAME=Vinyl lauryl ether
##MOLFORM=C14H28O
##CAS REGISTRY NO=765-14-0
##MP= -300
##BP= -300
##MW= 212
##$RETENTION INDEX=0
##$CONDENSED SPECTRUM=NO
##NPOINTS= 71
##XYDATA=(XY..XY) 1 
     4          4
    14          5
    15         17
    27        179
    28         59
    29        408
    30         10
    31         68
    32          4
    39        122
    41        768
    42        199
    43        999
    44         99
    45         42
    51          5
    53         46
    54         62
    55        580
    56        358
    57        916
    58         41
    59         55
    60          2
    65         10
    66         20
    67        108
    68        168
    69        432
    70        320
    71        398
    72         34
    77          6
    79         10
    80          8
    81         72
    82        267
    83        338
    84        170
    85        203
    86         12
    95         61
    96        117
    97        202
    98         78
    99         27
   100         24
   109         40
   110         46
   111         70
   112         28
   113          8
   114          3
   123         26
   124         29
   125         13
   126          9
   127          8
   128          7
   137         11
   138         15
   140         11
   141         12
   155          3
   166         59
   167          9
   168          4
   169          5
   197         85
   198         11
   212         16