##TITLE=Library Entry 70576
##JCAMP-DX=Revision 4.10 
##DATA TYPE=MASS SPECTRUM
##SAMPLE DESCRIPTION=Japan AIST/NIMC Database- Spectrum MS-IW-4174
##NAMES=HP
##CAS NAME=Thiophene, 2-bromo-5-methyl-
##MOLFORM=C5H5BrS
##CAS REGISTRY NO=765-58-2
##MP= -300
##BP= -300
##MW= 176
##$RETENTION INDEX=0
##$CONDENSED SPECTRUM=NO
##NPOINTS= 82
##XYDATA=(XY..XY) 1 
    25          1
    26          4
    27         28
    28          1
    32          3
    33          1
    34          1
    36          1
    37         11
    38         22
    39         37
    40          2
    44          7
    45        143
    46          4
    47         18
    48         11
    49          6
    50         20
    51         35
    52         13
    53        226
    54          9
    56          3
    57         58
    58         21
    59         34
    60          4
    61          9
    62         10
    63         16
    64          3
    65          1
    68          6
    69         74
    70         34
    71         28
    72          3
    73          1
    76          5
    79          3
    80          4
    81         14
    82         20
    83          2
    84          1
    88          9
    89          9
    92          4
    93         15
    94          2
    95         29
    96        184
    97        999
    98         84
    99         48
   100          1
   104          1
   106          1
   116          1
   117          9
   118          2
   119          8
   123         10
   125         10
   131          5
   133          4
   135          1
   136          6
   137          1
   138          6
   143          1
   145          1
   149          1
   174          1
   175        379
   176        913
   177        444
   178        929
   179         74
   180         41
   181          2