##TITLE=Library Entry 89344
##JCAMP-DX=Revision 4.10 
##DATA TYPE=MASS SPECTRUM
##SAMPLE DESCRIPTION=RADIAN CORP
##NAMES=HP
##CAS NAME=1,2-Cyclopentanedione, 3-methyl-
##MOLFORM=C6H8O2
##CAS REGISTRY NO=765-70-8
##MP= -300
##BP= -300
##MW= 112
##$RETENTION INDEX=1043
##$CONDENSED SPECTRUM=NO
##NPOINTS= 56
##XYDATA=(XY..XY) 1 
    14          2
    15         11
    16          3
    18          3
    25          7
    26         51
    27        169
    29        107
    30          5
    31         17
    36          3
    37         21
    38         39
    39        206
    40         46
    41        362
    42        128
    43        257
    44         45
    45         10
    50         46
    52         35
    53        102
    54         53
    55        490
    56        273
    57         46
    58         10
    61          5
    62          5
    63          9
    64          2
    65         43
    66         68
    67         21
    68          7
    69        472
    70         48
    71         27
    80          7
    81         11
    82         25
    83        257
    84         31
    85          7
    93          3
    94          2
    95          8
    97         69
    98          2
   108          6
   110         12
   111         46
   112        999
   113         69
   114          5