##TITLE=Library Entry 50097
##JCAMP-DX=Revision 4.10 
##DATA TYPE=MASS SPECTRUM
##SAMPLE DESCRIPTION=Japan AIST/NIMC Database- Spectrum MS-NW-4665
##NAMES=HP
##CAS NAME=1-Pentadecyne
##MOLFORM=C15H28
##CAS REGISTRY NO=765-13-9
##MP= -300
##BP= -300
##MW= 208
##$RETENTION INDEX=1518
##$CONDENSED SPECTRUM=NO
##NPOINTS= 95
##XYDATA=(XY..XY) 1 
    14          2
    15          3
    26          5
    27        124
    28         11
    29        222
    30          4
    32          2
    37          2
    38          5
    39        119
    40         27
    41        490
    42         92
    43        674
    44         23
    50          4
    51         14
    52         10
    53         91
    54        299
    55        549
    56        162
    57        386
    58         16
    63          3
    64          1
    65         23
    66         46
    67        701
    68        303
    69        321
    70        101
    71        112
    72          7
    75          1
    77         25
    78          9
    79         85
    80         54
    81        999
    82        592
    83        249
    84         52
    85         46
    86          3
    91         13
    92          4
    93         27
    94         21
    95        466
    96        358
    97        160
    98         27
    99          4
   104          1
   105          4
   106          1
   107          9
   108          7
   109        176
   110         58
   111         31
   112          9
   113          2
   115          1
   117          2
   119          1
   121          4
   122          1
   123         36
   124         18
   125          7
   126          5
   127          1
   129          1
   133          1
   135          2
   136          1
   137         13
   138          9
   139          2
   140          2
   141          1
   149          1
   151          4
   152          3
   154          1
   165          2
   166          2
   168          2
   179          1
   180          1
   193          1
   208          1