##TITLE=Library Entry 49836
##JCAMP-DX=Revision 4.10 
##DATA TYPE=MASS SPECTRUM
##SAMPLE DESCRIPTION=B. Derendyaev, Novosibirsk Institute of Organic Chemist
ry
##NAMES=HP
##CAS NAME=1-Dodecyne
##MOLFORM=C12H22
##CAS REGISTRY NO=765-03-7
##MP= -300
##BP= -300
##MW= 166
##$RETENTION INDEX=1191
##$CONDENSED SPECTRUM=NO
##NPOINTS= 92
##XYDATA=(XY..XY) 1 
    15          2
    24          1
    25          2
    26         17
    27        283
    29        419
    30          9
    31          1
    36          1
    37          3
    38          9
    39        246
    40         57
    41        817
    42        160
    43        900
    44         23
    45          1
    46          1
    49          1
    50          8
    51         25
    52         22
    53        160
    54        394
    55        641
    56        197
    57        271
    58         11
    59          1
    60          1
    61          1
    62          1
    63          4
    64          1
    65         37
    66         56
    67        777
    68        308
    69        357
    70         96
    71         72
    72          4
    73          1
    74          2
    75          1
    76          1
    77         32
    78          9
    79         97
    80         51
    81        999
    82        431
    83        160
    84         44
    85         28
    86          2
    87          1
    91         11
    92          2
    93         20
    94         12
    95        406
    96        184
    97         52
    98         11
    99          1
   103          1
   105          1
   106          1
   107          4
   108          2
   109        123
   110         24
   111          4
   112          1
   115          1
   117          1
   119          1
   121          1
   122          1
   123         14
   124          6
   125          1
   126          5
   127          1
   135          1
   137          3
   138          2
   140          1
   141          1
   165          1