##TITLE=Library Entry 74652
##JCAMP-DX=Revision 4.10 
##DATA TYPE=MASS SPECTRUM
##SAMPLE DESCRIPTION=D.HENNEBERG, MAX-PLANCK INSTITUTE, MULHEIM, WEST GERMAN
Y
##NAMES=HP
##CAS NAME=Bicyclo[2.2.1]heptane, 1-chloro-
##MOLFORM=C7H11Cl
##CAS REGISTRY NO=765-67-3
##MP= -300
##BP= -300
##MW= 130
##$RETENTION INDEX=0
##$CONDENSED SPECTRUM=NO
##NPOINTS= 93
##XYDATA=(XY..XY) 1 
    24          0
    25          1
    26         13
    27        129
    28         79
    29         66
    30          1
    31          2
    32         14
    33          2
    34          0
    35          2
    36          3
    37         11
    38         26
    39        279
    40         45
    41        184
    42         23
    43         48
    44          4
    45         16
    46          9
    48          4
    49         22
    50         28
    51         64
    52         27
    53        157
    54        197
    55        264
    56         46
    57         95
    58          3
    59          1
    60          2
    61         13
    62         14
    63         31
    64          9
    65        212
    66         65
    67        354
    68         67
    69         20
    70          8
    71         23
    72          1
    73         10
    74          2
    75         26
    76          5
    77         74
    78         17
    79        180
    80         19
    81         76
    82          6
    83          3
    84          3
    85         10
    86          1
    87          2
    88        291
    89         34
    90         92
    91         37
    92          5
    93         32
    94        148
    95        764
    96         56
    97          3
    98          4
    99          6
   100         57
   101        999
   102         83
   103        307
   104         22
   105          0
   110          1
   111          1
   112          1
   113          1
   115         16
   116          0
   117          4
   125          2
   129          2
   130        245
   131         21
   132         73