##TITLE=Library Entry 20558
##JCAMP-DX=Revision 4.10 
##DATA TYPE=MASS SPECTRUM
##SAMPLE DESCRIPTION=Chemical Concepts
##NAMES=HP
##CAS NAME=1,11-Undecanediol
##MOLFORM=C11H24O2
##CAS REGISTRY NO=765-04-8
##MP= -300
##BP= -300
##MW= 188
##$RETENTION INDEX=0
##$CONDENSED SPECTRUM=NO
##NPOINTS= 92
##XYDATA=(XY..XY) 1 
    26          5
    27        127
    28         17
    29        236
    30          9
    31        407
    33          2
    38          3
    39        117
    40         31
    41        722
    42        224
    43        349
    44         53
    45         52
    46          2
    49          4
    50          2
    51          7
    52          5
    53         64
    54        379
    55        999
    56        263
    57        169
    58         19
    59         10
    61          2
    63          2
    65         11
    66         61
    67        544
    68        669
    69        525
    70        177
    71         96
    72         21
    73         33
    74          3
    77          9
    78          3
    79         22
    80         21
    81        445
    82        838
    83        363
    84        110
    85         87
    86         14
    87          9
    88          2
    91          4
    92          2
    93         11
    94         21
    95        393
    96        385
    97        140
    98         50
    99         22
   100          6
   101          3
   105          2
   107          3
   108          5
   109        158
   110        116
   111         59
   112         45
   113         10
   114          5
   115          2
   121          2
   122          2
   123         60
   124         99
   125         13
   126          6
   127          5
   137          8
   138          5
   139          1
   140         40
   141          6
   142          3
   143          2
   151          2
   152          8
   153          1
   154          2
   158          6
   159          1