##TITLE=Library Entry 33033
##JCAMP-DX=Revision 4.10 
##DATA TYPE=MASS SPECTRUM
##SAMPLE DESCRIPTION=D.HENNEBERG, MAX-PLANCK INSTITUTE, MULHEIM, WEST GERMAN
Y
##NAMES=HP
##CAS NAME=Cyclopentane, (1-methylethylidene)-
##MOLFORM=C8H14
##CAS REGISTRY NO=765-83-3
##MP= -300
##BP= -300
##MW= 110
##$RETENTION INDEX=0
##$CONDENSED SPECTRUM=NO
##NPOINTS= 50
##XYDATA=(XY..XY) 1 
    25          1
    26          6
    27        130
    28         72
    29         45
    37          7
    38         17
    39        231
    40         35
    41        335
    42         29
    43         47
    44         12
    45          5
    50         13
    51         43
    52         24
    53        110
    54         38
    55        128
    56         21
    57          2
    62          5
    63         20
    64          5
    65         56
    66        159
    67        999
    68        169
    69        180
    70          9
    77         57
    78         14
    79         58
    80         17
    81        155
    82         58
    83          3
    89          2
    91         42
    92          4
    93         60
    94          7
    95        576
    96         37
   107          2
   108          9
   109         18
   110        281
   111         22