##TITLE=Library Entry 3645
##JCAMP-DX=Revision 4.10 
##DATA TYPE=MASS SPECTRUM
##SAMPLE DESCRIPTION=S.A. Rang et al., IR & MS of Unsatd. Hydrocarbons, 1977
##NAMES=HP
##CAS NAME=1-Tetradecyne
##MOLFORM=C14H26
##CAS REGISTRY NO=765-10-6
##MP= -300
##BP= -300
##MW= 194
##$RETENTION INDEX=1397
##$CONDENSED SPECTRUM=NO
##NPOINTS= 86
##XYDATA=(XY..XY) 1 
    15          7
    25          2
    26         14
    27        258
    28         50
    29        478
    30         15
    31          5
    37          2
    38          8
    39        229
    40         63
    41        999
    42        182
    43        916
    44         31
    45          8
    46          4
    50          6
    51         22
    52         19
    53        163
    54        354
    55        750
    56        191
    57        383
    58        507
    59         19
    60          0
    63          3
    64          1
    65         44
    66         56
    67        805
    68        287
    69        306
    70        100
    71         88
    72          6
    73          1
    75          1
    77         41
    78          9
    79        131
    80         55
    81        972
    82        478
    83        191
    84         47
    85         25
    86          1
    91         18
    92          3
    93         35
    94         17
    95        383
    96        239
    97        110
    98         18
   105          2
   107          7
   108          4
   109        123
   110         41
   111         17
   112          6
   113          0
   114          1
   121          2
   122          1
   123         22
   124         13
   125          4
   126          3
   128          1
   135          1
   137          6
   138          3
   140          1
   149          0
   151          2
   152          1
   154          1
   165          1
   166          0
   194          0