##TITLE=Library Entry 56225
##JCAMP-DX=Revision 4.10 
##DATA TYPE=MASS SPECTRUM
##SAMPLE DESCRIPTION=F.K. CARTLEDGE, DEP. CHEM., LA. STATE UNIV., BATON ROUG
E, USA
##NAMES=HP
##CAS NAME=1-Methylsilacyclohexane
##MOLFORM=C6H14Si
##CAS REGISTRY NO=765-62-8
##MP= -300
##BP= -300
##MW= 114
##$RETENTION INDEX=0
##$CONDENSED SPECTRUM=NO
##NPOINTS= 13
##XYDATA=(XY..XY) 1 
    43        140
    58        430
    59        160
    71        480
    72        240
    73         90
    85        340
    86        999
    87        130
    98        210
    99        170
   113        270
   114        430