##TITLE=Library Entry 7647
##JCAMP-DX=Revision 4.10 
##DATA TYPE=MASS SPECTRUM
##SAMPLE DESCRIPTION=CARL DJERASSI DEPT OF CHEM STANFORD UNIV STANFORD CALIF
 94305
##NAMES=HP
##CAS NAME=Decane, 1-(ethenyloxy)-
##MOLFORM=C12H24O
##CAS REGISTRY NO=765-05-9
##MP= -300
##BP= -300
##MW= 184
##$RETENTION INDEX=0
##$CONDENSED SPECTRUM=NO
##NPOINTS= 45
##XYDATA=(XY..XY) 1 
    41        386
    42        118
    43        999
    44         39
    45         39
    53         19
    54         29
    55        346
    56        297
    57        722
    58         39
    59         49
    66          9
    67         49
    68        108
    69        267
    70        297
    71        237
    72         19
    81         39
    82        148
    83        217
    84        128
    85        178
    86         19
    95         39
    96         59
    97        118
    98         49
    99          9
   100         19
   109         19
   110         19
   111         49
   112         39
   123         19
   127         19
   128          9
   138         59
   139          9
   140         19
   141         19
   169         69
   170         19
   184         29