##TITLE=Library Entry 2722
##JCAMP-DX=Revision 4.10 
##DATA TYPE=MASS SPECTRUM
##SAMPLE DESCRIPTION=NIST Mass Spectrometry Data Center
##NAMES=HP
##CAS NAME=Dodecyl thiocyanate
##MOLFORM=C13H25NS
##CAS REGISTRY NO=765-15-1
##MP= -300
##BP= -300
##MW= 227
##$RETENTION INDEX=0
##$CONDENSED SPECTRUM=NO
##NPOINTS= 130
##XYDATA=(XY..XY) 1 
    12          1
    14          1
    15         14
    18          3
    27        287
    28         99
    29        490
    30         17
    32          5
    35          2
    37          2
    39        232
    41        999
    42        245
    43        628
    44         28
    45         41
    46         17
    47         23
    51          8
    53         70
    54        101
    55        858
    56        386
    57        325
    58         30
    59         38
    60         54
    61         20
    62         15
    63          1
    65         11
    67        111
    68        110
    69        511
    70        259
    71        108
    72         47
    73          9
    74          8
    75          9
    77          6
    78          2
    79         16
    80          8
    81         43
    82        104
    83        324
    84        107
    85         52
    86         23
    87         91
    88         24
    89         18
    90          2
    91          4
    93          6
    94          9
    95         23
    96         95
    97        187
    98         46
    99         14
   100         20
   101        128
   102         33
   103         14
   107          4
   108          9
   109         10
   110         60
   111         64
   112         18
   113         13
   114         29
   115         76
   116         18
   117          8
   121          3
   122         10
   123          6
   124         43
   125         33
   126         10
   127          5
   128         18
   129         41
   130         10
   131          4
   136         12
   137          5
   138         39
   139         20
   140          9
   141          5
   142         24
   143         25
   144          6
   145          3
   150         11
   152         82
   153         13
   154          3
   155          4
   156         34
   157         17
   158          5
   164          7
   166         87
   167         13
   168          5
   170         36
   171         11
   172          4
   178          2
   180         60
   181         10
   182          1
   184         33
   185          5
   186          3
   194         64
   195          8
   198         28
   199         41
   200         41
   201          8
   202          2
   212          3
   226          3