##TITLE=Library Entry 24525
##JCAMP-DX=Revision 4.10 
##DATA TYPE=MASS SPECTRUM
##SAMPLE DESCRIPTION=Japan AIST/NIMC Database- Spectrum MS-NW-5196
##NAMES=HP
##CAS NAME=Tridecane, 1-bromo-
##MOLFORM=C13H27Br
##CAS REGISTRY NO=765-09-3
##MP= -300
##BP= -300
##MW= 262
##$RETENTION INDEX=1651
##$CONDENSED SPECTRUM=NO
##NPOINTS= 109
##XYDATA=(XY..XY) 1 
    15          3
    26          5
    27        129
    28         10
    29        238
    30          6
    38          2
    39         85
    40         16
    41        493
    42        125
    43        888
    44         30
    50          1
    51          4
    52          2
    53         31
    54         32
    55        515
    56        165
    57        999
    58         46
    59          1
    65          4
    66          2
    67         34
    68         24
    69        425
    70        113
    71        525
    72         29
    73          1
    77          2
    78          1
    79          4
    80          4
    81         12
    82         18
    83        209
    84         56
    85        310
    86         19
    87          1
    91          8
    93          4
    95          5
    96          6
    97        105
    98         29
    99         67
   100          6
   105          3
   106          1
   107         18
   108          1
   109         16
   110          2
   111         33
   112         12
   113         44
   114          4
   119          1
   120          1
   121         13
   122          2
   123          9
   124          1
   125          8
   126          6
   127         30
   128          3
   129          1
   133          1
   134          3
   135        668
   136         33
   137        652
   138         30
   139          2
   140          3
   141         15
   142          2
   148          8
   149        124
   150         14
   151        122
   152          7
   154          3
   162          3
   163         18
   164          4
   165         16
   166          1
   176          1
   177          6
   178          1
   179          5
   182          2
   183          7
   184          1
   191          2
   192          1
   193          2
   205          1
   207          1
   219          1
   221          1
   262          2
   264          2