##TITLE=Library Entry 37407
##JCAMP-DX=Revision 4.10 
##DATA TYPE=MASS SPECTRUM
##SAMPLE DESCRIPTION=A.Pleshkova, Nesmeyanov Inst.Org.Elem.Cpds, Moscow
##NAMES=HP
##CAS NAME=2-Methylpyrrolidine
##MOLFORM=C5H11N
##CAS REGISTRY NO=765-38-8
##MP= -300
##BP= -300
##MW= 85
##$RETENTION INDEX=0
##$CONDENSED SPECTRUM=NO
##NPOINTS= 25
##XYDATA=(XY..XY) 1 
    27         71
    28        423
    29        243
    30        311
    31        103
    32          9
    39        113
    40         10
    41        321
    42         22
    43        303
    44        105
    45          9
    55         61
    56        231
    57        483
    58         42
    69         51
    70        999
    71        122
    72         10
    84        231
    85        253
    86         21
    87          1