##TITLE=Library Entry 89363
##JCAMP-DX=Revision 4.10 
##DATA TYPE=MASS SPECTRUM
##SAMPLE DESCRIPTION=Japan AIST/NIMC Database- Spectrum MS-NW-6706
##NAMES=HP
##CAS NAME=1,3-Cyclopentanedione, 2-methyl-
##MOLFORM=C6H8O2
##CAS REGISTRY NO=765-69-5
##MP= -300
##BP= -300
##MW= 112
##$RETENTION INDEX=0
##$CONDENSED SPECTRUM=NO
##NPOINTS= 81
##XYDATA=(XY..XY) 1 
    12          1
    13          2
    14         10
    15         18
    16          2
    18          2
    24          2
    25         14
    26        107
    27        301
    28        272
    29        104
    30          5
    31         25
    32          2
    33          3
    36          3
    37         16
    38         23
    39        113
    40         32
    41        149
    42         65
    43        183
    44         23
    45          5
    48          2
    49          9
    50         25
    51         27
    52         20
    53         56
    54         38
    55        340
    56        484
    57        173
    58          9
    59          1
    60          4
    61          8
    62         10
    63         12
    64          4
    65         39
    66         56
    67         55
    68         10
    69        189
    70        117
    71          7
    72          1
    73          2
    74          2
    77          2
    78          3
    79          3
    80          1
    81          9
    82         10
    83        346
    84         72
    85         61
    86          4
    89          2
    90          1
    91          2
    92          1
    93          3
    94          9
    95          9
    96          2
    97         35
    98          3
   108          2
   109          1
   110          5
   111        153
   112        999
   113         71
   114          7
   115          1