##TITLE=Library Entry 27906
##JCAMP-DX=Revision 4.10 
##DATA TYPE=MASS SPECTRUM
##SAMPLE DESCRIPTION=NIST Mass Spectrometry Data Center
##NAMES=HP
##CAS NAME=Cyclopropyl methyl carbinol
##MOLFORM=C5H10O
##CAS REGISTRY NO=765-42-4
##MP= -300
##BP= -300
##MW= 86
##$RETENTION INDEX=0
##$CONDENSED SPECTRUM=NO
##NPOINTS= 48
##XYDATA=(XY..XY) 1 
    12          4
    13          2
    14         25
    15        109
    16          6
    17          4
    18          3
    19         39
    25          4
    26         54
    27        277
    28         59
    29        199
    30         49
    31         51
    33          1
    37         35
    38         71
    39        374
    40         67
    41        370
    42         95
    43        876
    44         57
    45        357
    46          9
    49          4
    50         25
    51         27
    52          9
    53         81
    54         10
    55         32
    57        299
    58        999
    59         21
    60          4
    61          5
    62          8
    63          6
    65          9
    66          5
    67         26
    68          7
    69         34
    71        231
    72         10
    85          3