##TITLE=Library Entry 32686
##JCAMP-DX=Revision 4.10 
##DATA TYPE=MASS SPECTRUM
##SAMPLE DESCRIPTION=Chuck Anderson, Aldrich Chemical Co.
##NAMES=HP
##CAS NAME=Bicyclo[2.2.1]heptane, 2-chloro-, exo-
##MOLFORM=C7H11Cl
##CAS REGISTRY NO=765-91-3
##MP= -300
##BP= -300
##MW= 130
##$RETENTION INDEX=0
##$CONDENSED SPECTRUM=NO
##NPOINTS= 95
##XYDATA=(XY..XY) 1 
    14          0
    15          2
    25          0
    26          8
    27         76
    28         13
    29         27
    30          0
    31          0
    32          0
    33          0
    35          0
    36          2
    37          7
    38         24
    39        241
    40         51
    41        161
    42         15
    43          3
    44          0
    45         12
    46          6
    47          1
    48          0
    49         15
    50         26
    51         62
    52         24
    53        165
    54        132
    55         95
    56          4
    57          0
    60          1
    61         10
    62         21
    63         28
    64          8
    65        109
    66        137
    67        999
    68        747
    69         38
    70          1
    72          0
    73          4
    74          2
    75         17
    76          2
    77         55
    78         11
    79        124
    80         11
    81         68
    82          4
    83          0
    84          0
    85          0
    86          0
    87          1
    88         65
    89         23
    90         22
    91         32
    92          2
    93         33
    94         31
    95        295
    96         21
    97          0
    99          1
   100          2
   101         11
   102         15
   103          4
   104          5
   105          0
   111          0
   112          0
   113          0
   114          0
   115          2
   116          0
   117          0
   125          0
   128          0
   129          0
   130        155
   131         11
   132         48
   133          3
   134          0
   135          0
   137          0