##TITLE=Library Entry 107880
##JCAMP-DX=Revision 4.10 
##DATA TYPE=MASS SPECTRUM
##SAMPLE DESCRIPTION=A.A.Kutin, Moscow, Russia
##NAMES=HP
##CAS NAME=N,N'-Di(2,2,6,6-tetramethylpiperid-4-yl)3-aminopropionamide
##MOLFORM=C21H42N4O
##CAS REGISTRY NO=76505-58-3
##MP= -300
##BP= -300
##MW= 366
##$RETENTION INDEX=0
##$CONDENSED SPECTRUM=NO
##NPOINTS= 187
##XYDATA=(XY..XY) 1 
    33          3
    34          0
    37          0
    39         11
    41         75
    42        161
    44         44
    45          0
    49          1
    51          1
    53          8
    55         82
    56         58
    58        527
    59         11
    60          0
    61          0
    62          0
    63          0
    65          3
    67         17
    68         13
    69         18
    70         26
    71         16
    72         10
    73          0
    74          0
    77          4
    79         10
    80          5
    81         17
    82         49
    83         23
    84         39
    85          6
    86          1
    87          0
    89          2
    91          6
    92          2
    93          4
    94          8
    95          7
    96         30
    98        370
    99         47
   100          5
   101          0
   103          0
   105          1
   107         30
   108         19
   109          8
   110         22
   111          8
   112         40
   113         12
   115         21
   116          1
   117          0
   119          1
   120          1
   122         15
   124        999
   126        116
   127          5
   129         11
   130          0
   132          0
   134          0
   135          0
   136          1
   138         42
   139         23
   140         75
   141         63
   142          4
   143          0
   147          0
   148          0
   149          0
   150          0
   151          1
   152          4
   153          7
   154          7
   155         46
   156          8
   157         12
   158          1
   160          0
   163          0
   164          0
   165          1
   166          1
   167          6
   168         10
   169         23
   171         38
   172          3
   173          0
   174          0
   176          0
   178          0
   179          2
   180          0
   181          4
   183         16
   184          3
   185          0
   186          0
   189          0
   193          0
   194          1
   195          3
   196          4
   197         10
   198          3
   199          0
   202          0
   209          4
   210          2
   211         17
   212         24
   213          3
   214          0
   218          0
   221          0
   222          0
   223          0
   224          0
   226          6
   228         69
   229          9
   230          0
   231          0
   235          0
   236          1
   237          1
   238          2
   239          0
   240          0
   242          0
   249          0
   250          0
   251          1
   252          2
   253          7
   254          7
   255          1
   259          0
   261          0
   266         18
   267         24
   268          9
   269          1
   276          0
   277          0
   280          0
   282          0
   288          0
   290          0
   291          0
   292          0
   294         36
   295          8
   296          1
   297          0
   302          0
   303          0
   308          8
   309         75
   310         15
   311          1
   333          0
   334          4
   335          0
   336          0
   349          1
   350          0
   351          2
   352          0
   364          0
   366         29
   367          7
   368          0