##TITLE=Library Entry 11316
##JCAMP-DX=Revision 4.10 
##DATA TYPE=MASS SPECTRUM
##SAMPLE DESCRIPTION=A.A.Kutin, Moscow, Russia
##NAMES=HP
##CAS NAME=Butanamide, 3-methyl-N-butyl-
##MOLFORM=C9H19NO
##CAS REGISTRY NO=76526-42-6
##MP= -300
##BP= -300
##MW= 157
##$RETENTION INDEX=1261
##$CONDENSED SPECTRUM=NO
##NPOINTS= 71
##XYDATA=(XY..XY) 1 
    38         15
    39         27
    40         26
    41         64
    43        999
    45         78
    46         35
    47         14
    48          5
    49          1
    50          2
    51          4
    52          4
    53          9
    54          6
    56        155
    57         65
    58        161
    59        321
    60         35
    61         14
    62          1
    63          1
    64          1
    65          2
    67          7
    69         11
    70          7
    71          8
    72         14
    74        281
    75          9
    76         11
    77          2
    78          0
    79          1
    80          0
    81          1
    82          7
    83          5
    84          1
    85          1
    86          2
    87          1
    88          2
    89          0
    90          0
    91          1
    92          0
    93          0
    94          0
    95          1
    96          0
    97          1
    98          1
    99          4
   100          1
   101          1
   102          0
   115        353
   116         18
   117         14
   118          0
   128          9
   129          0
   142         10
   143          0
   157         75
   158          5
   159          3
   160          0