##TITLE=Library Entry 10842
##JCAMP-DX=Revision 4.10 
##DATA TYPE=MASS SPECTRUM
##SAMPLE DESCRIPTION=Chemical Concepts
##NAMES=HP
##CAS NAME=.alpha.-d-Lyxofuranose, cyclic 2,3-(ethylboronate) 1,5-diacetate
##MOLFORM=C11H17BO7
##CAS REGISTRY NO=76520-99-5
##MP= -300
##BP= -300
##MW= 272
##$RETENTION INDEX=0
##$CONDENSED SPECTRUM=NO
##NPOINTS= 110
##XYDATA=(XY..XY) 1 
    27          6
    29         20
    31          2
    37          0
    38          0
    39          8
    40          2
    41         10
    42          9
    43        999
    44         15
    45          1
    51          0
    52          0
    53          2
    54          2
    55         24
    56          4
    57         16
    58          0
    59          0
    61          2
    66          0
    67          0
    68          6
    69         11
    70         14
    71          9
    72          0
    73          9
    74          0
    78          1
    79          0
    80          0
    81          3
    82          2
    83          9
    84          1
    85          3
    86          4
    87          1
    92          0
    95          1
    96          5
    97          6
    98         21
    99         36
   100          2
   101          0
   102          0
   103         43
   104          1
   108          0
   109          1
   110         10
   111         39
   112          8
   113         16
   114          4
   115          2
   116          0
   117          0
   122          0
   123         13
   124         41
   125         10
   126          3
   127          9
   128          5
   129          1
   137          1
   138          4
   139          1
   140          6
   141         23
   142         19
   143          1
   144          0
   145         17
   146          1
   151          0
   152          1
   153          4
   154          4
   155         17
   156          2
   157          3
   158          0
   165          0
   166          1
   167          0
   168          1
   169          8
   170         22
   171          3
   172          0
   182          2
   183          9
   184          1
   198          0
   199          2
   200          0
   201          0
   211          3
   212         21
   213         33
   214          3
   215          0
   228          0
   229          0