##TITLE=Library Entry 88382
##JCAMP-DX=Revision 4.10 
##DATA TYPE=MASS SPECTRUM
##SAMPLE DESCRIPTION=Chemical Concepts
##NAMES=HP
##CAS NAME=.alpha.-d-Lyxofuranose, cyclic 2,3-(ethylboronate)
##MOLFORM=C7H13BO5
##CAS REGISTRY NO=76520-98-4
##MP= -300
##BP= -300
##MW= 188
##$RETENTION INDEX=0
##$CONDENSED SPECTRUM=NO
##NPOINTS= 101
##XYDATA=(XY..XY) 1 
    25          9
    26         83
    27        294
    28         69
    29        491
    30         45
    31        399
    36          2
    37         16
    38         25
    39        170
    40         57
    41        137
    42        145
    43        441
    44        177
    45        218
    46          4
    47         36
    48          2
    49          2
    50          9
    51         14
    52         22
    53         50
    54         79
    55        238
    56        143
    57        538
    58         55
    59         35
    60        151
    61         67
    62          3
    65          2
    66          9
    67         20
    68        116
    69        162
    70        239
    71        241
    72         53
    73        244
    74         11
    75          9
    77          2
    78          3
    79          7
    80          4
    81          5
    82         87
    83        341
    84         54
    85         55
    86         42
    87         15
    90          3
    94          2
    95         20
    96         77
    97         61
    98        328
    99        854
   100         49
   101         39
   102          5
   103         11
   108          4
   109         17
   110        246
   111        999
   112        136
   113        124
   114         11
   115          5
   123         23
   124         92
   125         23
   126         41
   127        196
   128        240
   129        142
   130          9
   132          2
   138         21
   139         92
   140         34
   141         35
   142         12
   143          2
   152          3
   153          4
   156         28
   157        112
   158         11
   159          2
   166          3
   167         10
   168          4
   169          5
   171          6