##TITLE=Library Entry 24952
##JCAMP-DX=Revision 4.10 
##DATA TYPE=MASS SPECTRUM
##SAMPLE DESCRIPTION=A.Mazepa, Phys.-Chem.Institute, Odessa, Ukraine
##NAMES=HP
##CAS NAME=Piperazine-1,4-dicarboxylic acid di-tert-butyl ester
##MOLFORM=C14H26N2O4
##CAS REGISTRY NO=76535-75-6
##MP= -300
##BP= -300
##MW= 286
##$RETENTION INDEX=0
##$CONDENSED SPECTRUM=NO
##NPOINTS= 78
##XYDATA=(XY..XY) 1 
    50         18
    53         15
    54         82
    55        100
    56        220
    57        999
    58         65
    59         40
    60          5
    69         36
    70         14
    83         10
    85         50
    86         12
    87         20
    88         12
   104          6
   107          6
   108          7
   112         11
   113         76
   114         10
   115          8
   116          7
   117          6
   118          5
   119          5
   126          4
   127          8
   128          8
   129         21
   130         43
   131          9
   132          6
   133          6
   134          4
   135          5
   136          5
   140          6
   141         10
   142          5
   143          4
   144          4
   148          4
   149         30
   150          6
   151          4
   156          5
   157         19
   158          5
   159          9
   160          4
   161          4
   162          4
   171         16
   172         20
   173         54
   174        181
   175         20
   176          4
   177          5
   213         58
   214          7
   215          5
   216          4
   217          2
   227          2
   228          3
   229          8
   230         42
   231          5
   232          3
   233          2
   285          3
   286         31
   287          5
   288          2
   289          3