##TITLE=Library Entry 109030
##JCAMP-DX=Revision 4.10 
##DATA TYPE=MASS SPECTRUM
##SAMPLE DESCRIPTION=Div. of Experiment Therapeutics WRAIR, WRAMC, Washingto
n DC 20307
##NAMES=HP
##CAS NAME=2,4-Diamino-6[[o-chlorobenzyl]methylamino]pteridine
##MOLFORM=C14H14ClN7
##CAS REGISTRY NO=76532-15-5
##MP= -300
##BP= -300
##MW= 315
##$RETENTION INDEX=0
##$CONDENSED SPECTRUM=NO
##NPOINTS= 130
##XYDATA=(XY..XY) 1 
    41         43
    42        584
    43        994
    44         41
    45         60
    49         16
    50         39
    51         66
    52         48
    53        163
    54         49
    55         39
    56          4
    57         31
    61         10
    62         29
    63        145
    64         26
    65         47
    66         45
    67         71
    68        119
    69        152
    70         19
    71          4
    73         24
    74          5
    75         49
    76         15
    77         42
    78         21
    79         42
    80        102
    81         13
    82         11
    86          4
    87         12
    89        435
    90         93
    91         42
    92         19
    93         15
    94         32
    95         62
    96         17
    97          5
    99        125
   101         27
   102         12
   103         10
   104          9
   106         15
   107         47
   108         28
   111         11
   112         10
   113          4
   114         11
   115          5
   116         15
   117          9
   119         10
   120         16
   121        110
   122        122
   123         22
   125        999
   127        196
   128         12
   132          7
   133         14
   134         53
   135         54
   139          5
   140         11
   141          9
   142          5
   146          9
   147          4
   148         43
   149        481
   150         56
   152         33
   154         31
   156         20
   160          4
   161         22
   162         42
   163         25
   169          5
   173         34
   175         15
   176         21
   177         13
   187          4
   188         20
   189         30
   190        393
   191         41
   192          4
   195          7
   197          5
   203          8
   204         88
   205         14
   206          4
   222         12
   223          4
   237          4
   239          4
   240          4
   242          5
   247          4
   251         21
   264          7
   265          4
   278         20
   279          6
   280         25
   286         26
   287          4
   288          5
   300         30
   301          9
   302         12
   315        744
   316        102
   317        212
   318         56
   319          5