##TITLE=Library Entry 79192
##JCAMP-DX=Revision 4.10 
##DATA TYPE=MASS SPECTRUM
##SAMPLE DESCRIPTION=Tox21 Consortium/NIST Mass Spectrometry Data Center, 20
12
##NAMES=HP
##CAS NAME=Benmoxin
##MOLFORM=C15H16N2O
##CAS REGISTRY NO=7654-03-7
##MP= -300
##BP= -300
##MW= 240
##$RETENTION INDEX=0
##$CONDENSED SPECTRUM=NO
##NPOINTS= 72
##XYDATA=(XY..XY) 1 
    15          1
    26          1
    27          9
    28          4
    29          1
    30          1
    32          1
    37          1
    38          3
    39         13
    40          1
    41          3
    42         13
    43          2
    44          8
    46          1
    49          2
    50         24
    51         84
    52         13
    53          5
    54          1
    61          1
    62          3
    63          8
    64          2
    65         10
    66          2
    73          1
    74          8
    75          7
    76         16
    77        287
    78         40
    79         68
    80          5
    85          1
    87          1
    89          4
    90          1
    91         14
    92          5
    93          2
   101          1
   102          5
   103         60
   104         84
   105        999
   106         95
   107          5
   117          1
   118          5
   119         24
   120        210
   121         36
   122        145
   123         12
   124          1
   133          1
   134          1
   135          2
   136         35
   137          3
   147          1
   152          1
   163          2
   165          1
   223          1
   225          7
   226          1
   240          3
   241          1