##TITLE=Library Entry 4469
##JCAMP-DX=Revision 4.10 
##DATA TYPE=MASS SPECTRUM
##SAMPLE DESCRIPTION=Institute of Organic Chemistry, Novosibirsk, USSR 1988
##NAMES=HP
##CAS NAME=N-(4-Tolylsulfonyl)azetidin-3-one
##MOLFORM=C10H11NO3S
##CAS REGISTRY NO=76543-27-6
##MP= -300
##BP= -300
##MW= 225
##$RETENTION INDEX=0
##$CONDENSED SPECTRUM=NO
##NPOINTS= 31
##XYDATA=(XY..XY) 1 
    41        619
    42        999
    43        309
    44        419
    50         41
    51        129
    52         38
    53         21
    61         13
    62         54
    63        167
    64         73
    65        519
    66         34
    67          9
    69         12
    74         11
    75         12
    76         12
    77         47
    78         22
    79         23
    89         91
    90         51
    91        477
    92         42
   105         91
   106         10
   139         10
   155         26
   197         45