##TITLE=Library Entry 90159
##JCAMP-DX=Revision 4.10 
##DATA TYPE=MASS SPECTRUM
##SAMPLE DESCRIPTION=TNO Volatile Compounds in Food - Chemical Concepts
##NAMES=HP
##CAS NAME=Thiazole, 2-butyl-4-methyl-
##MOLFORM=C8H13NS
##CAS REGISTRY NO=76572-47-9
##MP= -300
##BP= -300
##MW= 155
##$RETENTION INDEX=1222
##$CONDENSED SPECTRUM=NO
##NPOINTS= 68
##XYDATA=(XY..XY) 1 
    27        137
    28          3
    29         39
    30          1
    33          2
    34         14
    36          3
    37          4
    38         17
    39        159
    41        113
    42         63
    43         24
    45        353
    46         16
    47         21
    50          2
    51          5
    52         11
    53         16
    54         31
    55         15
    57         12
    58          9
    59         17
    61          1
    64          2
    65          3
    66          4
    67          8
    68         70
    69         27
    70         17
    71        434
    72        390
    73        117
    74         17
    75          3
    78          4
    80          3
    82          3
    84          4
    85         21
    86          1
    98          1
    99          9
   100         10
   111          3
   112        169
   113        999
   114        105
   115         58
   116          2
   119          5
   125          5
   126        378
   127         70
   128         16
   129          1
   133          1
   138          2
   139          4
   140         66
   141          8
   142          4
   154         16
   155         58
   156          4