##TITLE=Library Entry 19807
##JCAMP-DX=Revision 4.10 
##DATA TYPE=MASS SPECTRUM
##SAMPLE DESCRIPTION=L.L. MILLER, DEP. CHEM., UNIV. MINNESOTA, MINN., USA
##NAMES=HP
##CAS NAME=cis-1-Methyl-2-(2'-propenyl)cyclopropane
##MOLFORM=C7H12
##CAS REGISTRY NO=76588-97-1
##MP= -300
##BP= -300
##MW= 96
##$RETENTION INDEX=691
##$CONDENSED SPECTRUM=NO
##NPOINTS= 24
##XYDATA=(XY..XY) 1 
    39        600
    40         40
    41        380
    42         70
    43         10
    50         20
    51         90
    52         10
    53        310
    54        810
    55        999
    56         40
    65         70
    66         40
    67        350
    68        140
    69         30
    77         80
    79        160
    80         30
    81        630
    82         30
    95         40
    96         40