##TITLE=Library Entry 20518
##JCAMP-DX=Revision 4.10 
##DATA TYPE=MASS SPECTRUM
##SAMPLE DESCRIPTION=L.L. MILLER, DEP. CHEM., UNIV. MINNESOTA, MINN., USA
##NAMES=HP
##CAS NAME=(E)-2-Butenylcyclopropane
##MOLFORM=C7H12
##CAS REGISTRY NO=76588-98-2
##MP= -300
##BP= -300
##MW= 96
##$RETENTION INDEX=715
##$CONDENSED SPECTRUM=NO
##NPOINTS= 22
##XYDATA=(XY..XY) 1 
    32        150
    37         50
    39        680
    40        160
    41        420
    42         60
    46         10
    49         40
    51         80
    53        440
    54        230
    55        999
    61         20
    63         30
    65         70
    67        740
    68        550
    77         60
    79        160
    81        800
    82         30
    96        100