##TITLE=Library Entry 99206
##JCAMP-DX=Revision 4.10 
##DATA TYPE=MASS SPECTRUM
##SAMPLE DESCRIPTION=NIST Mass Spectrometry Data Center, 1994
##NAMES=HP
##CAS NAME=2-Toluic hydrazide
##MOLFORM=C8H10N2O
##CAS REGISTRY NO=7658-80-2
##MP= -300
##BP= -300
##MW= 150
##$RETENTION INDEX=0
##$CONDENSED SPECTRUM=NO
##NPOINTS= 51
##XYDATA=(XY..XY) 1 
    16          4
    26          4
    27          9
    28         21
    29         19
    30         10
    31         39
    32          3
    37          5
    38         20
    39        106
    40          8
    41         22
    43          4
    44          4
    45          3
    50         28
    51         48
    52         11
    53          6
    61         10
    62         35
    63         80
    64         28
    65        253
    66         13
    74          9
    75          9
    76          5
    77         16
    78          5
    79          3
    85          3
    86          5
    87          6
    88          3
    89         81
    90          3
    91        760
    92         65
   104          7
   105          5
   116          6
   117          7
   119        999
   120         90
   121          5
   132          3
   135          8
   150        112
   151          8