##TITLE=Library Entry 18623
##JCAMP-DX=Revision 4.10 
##DATA TYPE=MASS SPECTRUM
##SAMPLE DESCRIPTION=NIST Mass Spectrometry Data Center, 2011
##NAMES=HP
##CAS NAME=2,5-Furandione, 3,4-dimethyl-
##MOLFORM=C6H6O3
##CAS REGISTRY NO=766-39-2
##MP= -300
##BP= -300
##MW= 126
##$RETENTION INDEX=1038
##$CONDENSED SPECTRUM=NO
##NPOINTS= 45
##XYDATA=(XY..XY) 1 
    15          6
    16          1
    24          1
    25          9
    26         57
    27        167
    28        110
    29         15
    36          7
    37         46
    38         59
    39        749
    40         30
    41          7
    42         10
    43         11
    44         17
    45         14
    48          6
    49         49
    50        181
    51        172
    52        104
    53        371
    54        999
    55         55
    56          1
    60          1
    61          2
    62          2
    63          1
    65          2
    66         11
    67         30
    68          2
    69          6
    70          6
    80          3
    82        602
    83         33
    84          2
    97          1
   126        242
   127         17
   128          2