##TITLE=Library Entry 17931
##JCAMP-DX=Revision 4.10 
##DATA TYPE=MASS SPECTRUM
##SAMPLE DESCRIPTION=Japan AIST/NIMC Database- Spectrum MS-NW-7284
##NAMES=HP
##CAS NAME=Formamide, N-cyclohexyl-
##MOLFORM=C7H13NO
##CAS REGISTRY NO=766-93-8
##MP= -300
##BP= -300
##MW= 127
##$RETENTION INDEX=1306
##$CONDENSED SPECTRUM=NO
##NPOINTS= 71
##XYDATA=(XY..XY) 1 
    14          1
    15          6
    26          7
    27         68
    28        107
    29         50
    30         72
    31          2
    32          5
    37          2
    38          7
    39         79
    40         14
    41        133
    42         88
    43        158
    44         19
    45          3
    46        999
    47         18
    48          3
    49          1
    50          7
    51         14
    52          8
    53         32
    54        112
    55         72
    56        390
    57         31
    58         39
    59         29
    60          3
    62          1
    63          3
    64          1
    65          6
    66          6
    67        236
    68         22
    69         10
    70         44
    71         84
    72         15
    73          7
    74          1
    77          9
    78          4
    79         17
    80          7
    81         51
    82        178
    83         18
    84        590
    85         42
    86          8
    93          2
    94          2
    96          5
    97          3
    98         54
    99         21
   100          2
   108          2
   109          3
   110          4
   112         15
   113          1
   126         15
   127         85
   128          9