##TITLE=Library Entry 10710
##JCAMP-DX=Revision 4.10 
##DATA TYPE=MASS SPECTRUM
##SAMPLE DESCRIPTION=Exported from NIST MS Search
##NAMES=HP
##CAS NAME=1,3-Dioxane, 4,4-dimethyl-
##MOLFORM=C6H12O2
##CAS REGISTRY NO=766-15-4
##MP= -300
##BP= -300
##MW= 116
##$RETENTION INDEX=0
##$CONDENSED SPECTRUM=NO
##NPOINTS= 37
##XYDATA=(XY..XY) 1 
    18          5
    26         35
    27        170
    29        211
    30         48
    31        124
    39        146
    40         31
    41        276
    42         51
    43        999
    44         31
    45         11
    53         21
    54          5
    55         36
    56        113
    57         43
    58        208
    59        100
    67          8
    68          8
    69        195
    70         14
    71        217
    72         17
    73         24
    75          1
    82          1
    83          1
    84          1
    85          2
    86        140
    87          9
   101        280
   115         16
   116          3