##TITLE=Library Entry 21334
##JCAMP-DX=Revision 4.10 
##DATA TYPE=MASS SPECTRUM
##SAMPLE DESCRIPTION=Chemical Concepts
##NAMES=HP
##CAS NAME=2-Bromocycloheptanone
##MOLFORM=C7H11BrO
##CAS REGISTRY NO=766-65-4
##MP= -300
##BP= -300
##MW= 190
##$RETENTION INDEX=0
##$CONDENSED SPECTRUM=NO
##NPOINTS= 123
##XYDATA=(XY..XY) 1 
    25          1
    26         29
    27        245
    28         77
    29         76
    30          4
    31          7
    33          1
    35          1
    36          6
    37          7
    38         25
    39        214
    40         69
    41        455
    42        120
    43         91
    44         15
    45         11
    46          1
    48          1
    49          2
    50         18
    51         33
    52         20
    53         87
    54         86
    55        999
    56        199
    57         40
    58          6
    59          5
    60          1
    61          2
    62         11
    63         13
    64          4
    65         15
    66         18
    67        127
    68         78
    69        134
    70         22
    71          9
    72          1
    73          2
    74          5
    75          2
    76          1
    77         16
    78          6
    79         22
    80          7
    81         68
    82         27
    83        360
    84        206
    85         21
    86          2
    87          1
    89          2
    90          1
    91         13
    92          5
    93        101
    94         17
    95         10
    96          3
    97         27
    98          4
    99          5
   100          1
   101          1
   102          1
   103          1
   104          1
   105          6
   106         26
   107         10
   108         27
   109          8
   110         12
   111        703
   112         79
   113          8
   114          1
   115          1
   116          1
   117          1
   119         17
   120         10
   121         17
   122          9
   123          2
   124          1
   125          0
   126          0
   127          1
   128          1
   129          1
   130          1
   131          1
   132          7
   133          4
   134         10
   135          9
   136          3
   137          4
   138          1
   141          0
   145          1
   146          2
   147          1
   148          3
   161          5
   162          1
   163          6
   164          1
   189          2
   190         59
   191          7
   192         58
   193          5