##TITLE=Library Entry 2977
##JCAMP-DX=Revision 4.10 
##DATA TYPE=MASS SPECTRUM
##SAMPLE DESCRIPTION=NIST Mass Spectrometry Data Center, 1994
##NAMES=HP
##CAS NAME=Cyclohexanecarbonitrile
##MOLFORM=C7H11N
##CAS REGISTRY NO=766-05-2
##MP= -300
##BP= -300
##MW= 109
##$RETENTION INDEX=0
##$CONDENSED SPECTRUM=NO
##NPOINTS= 58
##XYDATA=(XY..XY) 1 
    12          2
    13          2
    14         11
    15         76
    16          2
    17          2
    18          1
    26        149
    27        541
    28        281
    29        117
    30         54
    31          9
    37         36
    38         82
    39        584
    40        157
    41        999
    42        161
    43        212
    44         11
    46          1
    50         67
    51        113
    52        116
    53        186
    54        693
    55        162
    56        721
    57         35
    61          4
    62          8
    63         18
    64         31
    65         35
    66         66
    67        270
    68        145
    69        150
    70          8
    74          6
    75          8
    76          9
    77         29
    78         19
    79         42
    80        156
    81        200
    82        157
    83         20
    91         58
    92        144
    94        233
    95         17
   106          3
   108        158
   109         73
   110          8