##TITLE=Library Entry 62226
##JCAMP-DX=Revision 4.10 
##DATA TYPE=MASS SPECTRUM
##SAMPLE DESCRIPTION=Japan AIST/NIMC Database- Spectrum MS-NW-4623
##NAMES=HP
##CAS NAME=Benzyl methyl sulfide
##MOLFORM=C8H10S
##CAS REGISTRY NO=766-92-7
##MP= -300
##BP= -300
##MW= 138
##$RETENTION INDEX=1180
##$CONDENSED SPECTRUM=NO
##NPOINTS= 65
##XYDATA=(XY..XY) 1 
    15          2
    18          1
    26          1
    27          7
    28          5
    32          2
    35          2
    37          2
    38          8
    39         54
    40          4
    41         12
    43          1
    44          2
    45         57
    46          6
    47         11
    49          1
    50         12
    51         31
    52          8
    53          2
    58          1
    59          2
    60          1
    61          9
    62         11
    63         33
    64          9
    65        107
    66          6
    69          5
    70          1
    71          1
    74          2
    75          2
    76          2
    77         19
    78          8
    79          5
    85          1
    86          2
    87          1
    89         28
    90         12
    91        999
    92         83
    93          3
    94          1
    97          1
   103          2
   104          2
   105          1
   106          1
   121         23
   122          6
   123         13
   124          1
   125          1
   135          1
   137          5
   138        309
   139         30
   140         14
   141          1