##TITLE=Library Entry 97453
##JCAMP-DX=Revision 4.10 
##DATA TYPE=MASS SPECTRUM
##SAMPLE DESCRIPTION=NIST Mass Spectrometry Data Center, 1990.
##NAMES=HP
##CAS NAME=(Z)-1-Phenylpropene
##MOLFORM=C9H10
##CAS REGISTRY NO=766-90-5
##MP= -300
##BP= -300
##MW= 118
##$RETENTION INDEX=975
##$CONDENSED SPECTRUM=NO
##NPOINTS= 44
##XYDATA=(XY..XY) 1 
    15          6
    26         14
    27         36
    28         17
    37         10
    38         32
    39        134
    40         14
    41         13
    50         95
    51        156
    52         37
    53         10
    58         53
    61         21
    62         60
    63        134
    64         27
    65        125
    66         11
    73          7
    74         44
    75         34
    76         42
    77         98
    78         82
    79          8
    85          9
    86         18
    87         24
    88         11
    89         97
    90          7
    91        360
    92         33
   101          5
   102         39
   103         93
   104          9
   113          6
   115        440
   117        999
   118        667
   119         60