##TITLE=Library Entry 109590
##JCAMP-DX=Revision 4.10 
##DATA TYPE=MASS SPECTRUM
##SAMPLE DESCRIPTION=Japan AIST/NIMC Database- Spectrum MS-NW-8665
##NAMES=HP
##CAS NAME=Benzene, 1-(bromomethyl)-3-chloro-
##MOLFORM=C7H6BrCl
##CAS REGISTRY NO=766-80-3
##MP= -300
##BP= -300
##MW= 204
##$RETENTION INDEX=0
##$CONDENSED SPECTRUM=NO
##NPOINTS= 70
##XYDATA=(XY..XY) 1 
    26          2
    27          2
    28          1
    36          2
    37          8
    38         13
    39         35
    40          4
    41          1
    43          7
    44         12
    45          2
    49          6
    50         22
    51         21
    52          3
    60          2
    61         12
    62         36
    63         78
    64         16
    65          9
    72          1
    73         17
    74          6
    75         12
    76          1
    77          1
    79          4
    80          3
    81          4
    82          3
    84         12
    85         15
    86          9
    87          8
    88          3
    89        153
    90         49
    91          9
    97          3
    99         48
   100          2
   101         14
   102          3
   103          3
   104          1
   111          1
   123          3
   124          4
   125        999
   126         80
   127        325
   128         25
   139          2
   140          1
   141          1
   160          9
   161          1
   162          6
   164          1
   169          1
   171          1
   203          3
   204         65
   205          9
   206         84
   207          7
   208         20
   209          1