##TITLE=Library Entry 19637
##JCAMP-DX=Revision 4.10 
##DATA TYPE=MASS SPECTRUM
##SAMPLE DESCRIPTION=Japan AIST/NIMC Database- Spectrum MS-NW-1259
##NAMES=HP
##CAS NAME=1,3-Dioxane, 2,4-dimethyl-
##MOLFORM=C6H12O2
##CAS REGISTRY NO=766-20-1
##MP= -300
##BP= -300
##MW= 116
##$RETENTION INDEX=786
##$CONDENSED SPECTRUM=NO
##NPOINTS= 55
##XYDATA=(XY..XY) 1 
    13          1
    14         10
    15         80
    16          3
    17          1
    18          3
    26         18
    27        126
    28         50
    29         89
    30          4
    31         69
    32          7
    35          1
    37          2
    38          5
    39         64
    40         13
    41         95
    42        186
    43        888
    44        160
    45        597
    46         13
    47          2
    50          2
    51          2
    53          8
    54          8
    55        999
    56         48
    57         73
    58          5
    59         31
    60          5
    61         34
    69          3
    70          4
    71         42
    72        264
    73         28
    74          2
    83          1
    84          1
    86          1
    87          3
    88          5
    89          1
    99          2
   101        550
   102         29
   103          3
   115        108
   116          8
   117          1