##TITLE=Library Entry 93700
##JCAMP-DX=Revision 4.10 
##DATA TYPE=MASS SPECTRUM
##SAMPLE DESCRIPTION=EP-1334
##NAMES=HP
##CAS NAME=Benzene, 1-ethynyl-4-methyl-
##MOLFORM=C9H8
##CAS REGISTRY NO=766-97-2
##MP= -300
##BP= -300
##MW= 116
##$RETENTION INDEX=1064
##$CONDENSED SPECTRUM=NO
##NPOINTS= 24
##XYDATA=(XY..XY) 1 
    49          4
    50         20
    51         23
    52          5
    61         12
    62         21
    63         67
    64         10
    65         25
    73          4
    74         25
    75         24
    76          5
    85          8
    86         16
    87         20
    88         12
    89         75
    90         17
    98          7
   115        999
   116        930
   117         90
   118          5