##TITLE=Library Entry 70856
##JCAMP-DX=Revision 4.10 
##DATA TYPE=MASS SPECTRUM
##SAMPLE DESCRIPTION=Japan AIST/NIMC Database- Spectrum MS-NW-2938
##NAMES=HP
##CAS NAME=Piperidine, 1-ethyl-
##MOLFORM=C7H15N
##CAS REGISTRY NO=766-09-6
##MP= -300
##BP= -300
##MW= 113
##$RETENTION INDEX=858
##$CONDENSED SPECTRUM=NO
##NPOINTS= 58
##XYDATA=(XY..XY) 1 
    14          1
    15         20
    26          9
    27         66
    28         77
    29         64
    30         47
    36          2
    38          2
    39         34
    40          6
    41        103
    42        240
    43         24
    44         67
    45          2
    47          1
    49          1
    50          2
    51          4
    52          3
    53          8
    54         17
    55        106
    56         82
    57        114
    58         24
    59          1
    65          2
    66          2
    67          6
    68          9
    69         33
    70         43
    71         14
    72         24
    73          1
    80          3
    81          2
    82          8
    83          6
    84         74
    85          9
    91          1
    92          2
    93          6
    94          1
    96         15
    97          3
    98        999
    99         66
   100          2
   108          1
   110          5
   111          5
   112        198
   113        183
   114         14