##TITLE=Library Entry 57924
##JCAMP-DX=Revision 4.10 
##DATA TYPE=MASS SPECTRUM
##SAMPLE DESCRIPTION=Japan AIST/NIMC Database- Spectrum MS-NW-9531
##NAMES=HP
##CAS NAME=L-Tyrosine, hydrazide
##MOLFORM=C9H13N3O2
##CAS REGISTRY NO=7662-51-3
##MP= -300
##BP= -300
##MW= 195
##$RETENTION INDEX=0
##$CONDENSED SPECTRUM=NO
##NPOINTS= 115
##XYDATA=(XY..XY) 1 
    15          5
    16          5
    17         12
    18         50
    26          2
    27         17
    28         76
    29         28
    30         23
    31         14
    32         18
    33         16
    38          3
    39         31
    40          5
    41         10
    42         23
    43         77
    44         32
    45         29
    46          5
    50          7
    51         25
    52         12
    53         25
    54          6
    55         17
    56          2
    57         27
    58         10
    59         12
    60          3
    61          9
    62          5
    63         12
    64          5
    65         44
    66          9
    67         16
    68         26
    69          2
    70        252
    71         14
    72         27
    73         91
    74         10
    75          4
    76          2
    77         96
    78         20
    79         35
    80         14
    81         11
    82          2
    83          1
    85          1
    87         39
    88        999
    89        730
    90         38
    91        320
    92         30
    93          9
    94         21
    95          5
    96          1
    97          1
   101          3
   102          1
   103          2
   104          4
   105          7
   106         28
   107        385
   108        113
   109         22
   110          2
   111          1
   116          6
   117         17
   118         28
   119        166
   120         51
   121          7
   122         14
   123         17
   124          2
   129          1
   131          2
   132          6
   133         12
   134         27
   135         63
   136        569
   137         53
   138          3
   144          1
   145          3
   146          1
   147        116
   148         12
   149          2
   150          2
   160          1
   161          3
   162          3
   163          6
   164          1
   177         22
   178        179
   179         25
   180          3
   195        141
   196         43
   197          4