##TITLE=Library Entry 86486
##JCAMP-DX=Revision 4.10 
##DATA TYPE=MASS SPECTRUM
##SAMPLE DESCRIPTION=Japan AIST/NIMC Database- Spectrum MS-NW-9468
##NAMES=HP
##CAS NAME=p-Isopropoxyaniline
##MOLFORM=C9H13NO
##CAS REGISTRY NO=7664-66-6
##MP= -300
##BP= -300
##MW= 151
##$RETENTION INDEX=0
##$CONDENSED SPECTRUM=NO
##NPOINTS= 56
##XYDATA=(XY..XY) 1 
    15          1
    26          2
    27         20
    28          3
    37          1
    38          3
    39         23
    40          3
    41         22
    42          5
    43         15
    44          1
    50          2
    51          5
    52         19
    53         39
    54         14
    55          5
    56          1
    61          1
    62          2
    63          7
    64          8
    65         28
    66          5
    67          1
    68         12
    69          1
    75          1
    77          1
    78          2
    79          4
    80        131
    81         50
    82         12
    83          1
    90          1
    91          5
    92         11
    93          6
    94          2
   106          2
   107          2
   108        131
   109        999
   110         71
   111          4
   120          1
   122          2
   123          1
   136          7
   137          1
   150          3
   151        182
   152         18
   153          1