##TITLE=Library Entry 58061
##JCAMP-DX=Revision 4.10 
##DATA TYPE=MASS SPECTRUM
##SAMPLE DESCRIPTION=Japan AIST/NIMC Database- Spectrum MS-NW-9455
##NAMES=HP
##CAS NAME=Ethyl trans-4-decenoate
##MOLFORM=C12H22O2
##CAS REGISTRY NO=76649-16-6
##MP= -300
##BP= -300
##MW= 198
##$RETENTION INDEX=1311
##$CONDENSED SPECTRUM=NO
##NPOINTS= 135
##XYDATA=(XY..XY) 1 
    15          4
    17          2
    18          7
    26          6
    27        125
    28         23
    29        429
    30          9
    31         11
    38          2
    39        140
    40         30
    41        568
    42        123
    43        338
    44         16
    45        113
    46          6
    47          4
    48          2
    50          3
    51         13
    52         10
    53        110
    54        419
    55        842
    56        152
    57        227
    58         29
    59         22
    60        332
    61        379
    62         10
    63          4
    64          1
    65         40
    66         31
    67        537
    68        423
    69        965
    70        573
    71        480
    72         29
    73        142
    74         23
    75          5
    77         27
    78          9
    79        101
    80         43
    81        467
    82        275
    83        245
    84        544
    85        126
    86         18
    87         45
    88        999
    89         89
    90          7
    91         19
    92          7
    93         53
    94         33
    95        244
    96        503
    97        231
    98         72
    99        164
   100         32
   101        229
   102         29
   103          3
   105         17
   106          6
   107         66
   108         62
   109        318
   110        976
   111        237
   112         21
   113         88
   114         28
   115         47
   116         16
   117          2
   119         15
   120          2
   121          4
   122          2
   123        185
   124        131
   125         21
   126          4
   127         62
   128         50
   129         22
   130         12
   131          2
   133         32
   134         56
   135        282
   136         31
   137         29
   138          6
   139          2
   140          1
   141         57
   142         31
   143         12
   144          2
   148          1
   149          1
   150          1
   151         24
   152        533
   153        142
   154         13
   155         46
   156         10
   157          4
   166          9
   167          7
   168          1
   169         17
   170          5
   171          1
   180          1
   181          1
   183          2
   184          1
   197          1
   198         73
   199         19
   200          2