##TITLE=Library Entry 38442
##JCAMP-DX=Revision 4.10 
##DATA TYPE=MASS SPECTRUM
##SAMPLE DESCRIPTION=NIST Mass Spectrometry Data Center
##NAMES=HP
##CAS NAME=3-Octen-2-ol
##MOLFORM=C8H16O
##CAS REGISTRY NO=76649-14-4
##MP= -300
##BP= -300
##MW= 128
##$RETENTION INDEX=1769
##$CONDENSED SPECTRUM=NO
##NPOINTS= 69
##XYDATA=(XY..XY) 1 
    13          1
    14          3
    15         55
    16          1
    17          2
    18          1
    19         17
    26         25
    27        293
    28         44
    29        231
    30          6
    31         35
    37          4
    39        230
    40         41
    41        322
    42         75
    43        777
    44         28
    45        156
    46          3
    47          1
    48          1
    50         14
    51         29
    52         13
    53         67
    54         24
    55        152
    57        415
    58        199
    59         40
    60          1
    62          2
    63          7
    64          2
    65         17
    66          9
    67         66
    68         64
    69         79
    71        999
    72         82
    73          4
    75          1
    77         12
    78          2
    79         14
    80          3
    81         28
    82          4
    83         17
    85         97
    86         24
    87          1
    91          2
    93          4
    95         73
    96          6
    97          2
    99         13
   100          2
   110          9
   111          3
   113         36
   114          3
   128          8
   129          1