##TITLE=Library Entry 8540
##JCAMP-DX=Revision 4.10 
##DATA TYPE=MASS SPECTRUM
##SAMPLE DESCRIPTION=Insect Chem. Ecol. Lab., USDA, Beltsville, MD 20705
##NAMES=HP
##CAS NAME=Propanoic acid, 2-methyl-, 3-methyl-2-butenyl ester
##MOLFORM=C9H16O2
##CAS REGISTRY NO=76649-23-5
##MP= -300
##BP= -300
##MW= 156
##$RETENTION INDEX=1053
##$CONDENSED SPECTRUM=NO
##NPOINTS= 58
##XYDATA=(XY..XY) 1 
    41        641
    43        999
    44         33
    45         13
    50          7
    51         16
    52         10
    53        117
    54         23
    55         60
    56         23
    57         46
    58          9
    59         57
    60          3
    61          4
    65         11
    66          4
    67        312
    68        582
    69        985
    71        714
    72         32
    73         11
    75          3
    79          7
    81         14
    82         14
    83        106
    84         22
    85         59
    86          8
    87         10
    88          6
    89         23
    93         11
    95         15
    96          7
    97         16
    98          3
    99          8
   100          3
   101         14
   113         19
   114         11
   115         24
   125          4
   126         13
   127          3
   138          5
   139         11
   141         16
   142          3
   154          7
   155         28
   156         74
   157         48
   158          9