##TITLE=Library Entry 48545
##JCAMP-DX=Revision 4.10 
##DATA TYPE=MASS SPECTRUM
##SAMPLE DESCRIPTION=NIST Mass Spectrometry Data Center, 2009
##NAMES=HP
##CAS NAME=3-6-Nonadien-1-yl-acetate
##MOLFORM=C11H18O2
##CAS REGISTRY NO=76649-26-8
##MP= -300
##BP= -300
##MW= 182
##$RETENTION INDEX=1676
##$CONDENSED SPECTRUM=NO
##NPOINTS= 82
##XYDATA=(XY..XY) 1 
    14          1
    15         11
    26          3
    27         49
    28         10
    29         50
    30          2
    31          4
    37          1
    38          6
    39        129
    40         22
    41        205
    42         33
    43        896
    44         22
    45          6
    50         11
    51         36
    52         25
    53         99
    54         48
    55        163
    56          9
    57          6
    58          1
    59          1
    60          1
    61          5
    62          3
    63         11
    64          3
    65         69
    66        118
    67        342
    68        135
    69         29
    70          3
    71          5
    72          1
    73         27
    74          2
    75          1
    77        236
    78        111
    79        999
    80        481
    81        202
    82         17
    83          6
    84          4
    85          2
    86          1
    87          1
    89          2
    91        281
    92         46
    93        819
    94        160
    95         44
    96          4
    97          3
    98          2
    99          1
   103          4
   104          1
   105         33
   106          6
   107        175
   108         17
   109         13
   110          2
   111          1
   115          2
   117          1
   119          2
   120          1
   122        316
   123         35
   124          2
   137          1
   139          1