##TITLE=Library Entry 49545
##JCAMP-DX=Revision 4.10 
##DATA TYPE=MASS SPECTRUM
##SAMPLE DESCRIPTION=Chemical Concepts
##NAMES=HP
##CAS NAME=Sulfuric Acid
##MOLFORM=H2O4S
##CAS REGISTRY NO=7664-93-9
##MP= -300
##BP= -300
##MW= 98
##$RETENTION INDEX=0
##$CONDENSED SPECTRUM=NO
##NPOINTS= 68
##XYDATA=(XY..XY) 1 
    26          2
    27          7
    29          8
    31          1
    33          1
    34          4
    36          2
    38          0
    39          1
    40          1
    41          4
    42          0
    43          4
    44          5
    45          6
    46          1
    47          2
    48        510
    49         11
    50         23
    51          0
    53          1
    54          1
    55          7
    56          4
    57          8
    58          0
    59          3
    60          1
    61          3
    62          1
    63          3
    64        495
    65        139
    66         26
    67          7
    68          1
    69          2
    70          3
    71          5
    72          1
    73          2
    74          3
    75          5
    76          2
    77         21
    78          3
    79          1
    80        999
    81        718
    82         55
    83         38
    84          2
    85          1
    87          1
    88          0
    89          1
    91          1
    92          1
    93          0
    95          0
    96          0
    97          1
    98        477
    99         19
   100         24
   101          2
   102          1