##TITLE=Library Entry 24342
##JCAMP-DX=Revision 4.10 
##DATA TYPE=MASS SPECTRUM
##SAMPLE DESCRIPTION=Japan AIST/NIMC Database- Spectrum MS-NW-3977
##NAMES=HP
##CAS NAME=Octyl thioglycolate
##MOLFORM=C10H20O2S
##CAS REGISTRY NO=7664-80-4
##MP= -300
##BP= -300
##MW= 204
##$RETENTION INDEX=0
##$CONDENSED SPECTRUM=NO
##NPOINTS= 108
##XYDATA=(XY..XY) 1 
    14          7
    15          7
    17          1
    18          3
    26          6
    27         97
    28         49
    29        199
    30          5
    31         18
    32         10
    33          3
    34          3
    38          2
    39         62
    40         12
    41        395
    42        127
    43        825
    44         26
    45         28
    46         38
    47        204
    48          7
    49          9
    50          2
    51          4
    52          2
    53         18
    54         20
    55        276
    56        210
    57        999
    58         45
    59          2
    60          4
    61         10
    63          2
    64          3
    65          3
    66          2
    67         19
    68         34
    69        180
    70        211
    71        671
    72         37
    73          7
    74         54
    75         66
    76          5
    77          8
    79          3
    80          1
    81          9
    82         33
    83        133
    84        124
    85         21
    86          2
    87          4
    88          2
    89          2
    91          1
    92        153
    93         84
    94         10
    95          5
    96          1
    97         17
    98          5
    99          2
   100          1
   101          4
   102          4
   103          2
   105          6
   106          1
   109          1
   110          3
   111         11
   112        173
   113         32
   114          3
   115          4
   116          1
   117          1
   119          5
   120          1
   126          1
   127          3
   129          2
   130          2
   131          1
   133          4
   144          3
   145         45
   146          5
   147          6
   148          1
   155          1
   157         37
   158          4
   159          1
   161          3
   175          3
   204         11
   205          2