##TITLE=Library Entry 26453
##JCAMP-DX=Revision 4.10 
##DATA TYPE=MASS SPECTRUM
##SAMPLE DESCRIPTION=NIST Mass Spectrometry Data Center
##NAMES=HP
##CAS NAME=tert-Butyl glycidyl ether
##MOLFORM=C7H14O2
##CAS REGISTRY NO=7665-72-7
##MP= -300
##BP= -300
##MW= 130
##$RETENTION INDEX=0
##$CONDENSED SPECTRUM=NO
##NPOINTS= 42
##XYDATA=(XY..XY) 1 
    14          2
    15         15
    26          8
    27         74
    29        287
    30          8
    31        102
    32          1
    37          1
    38          4
    39         78
    40         11
    41        245
    42         33
    43        126
    44         12
    45         15
    50          3
    51          4
    52          1
    53          7
    54          1
    55         31
    56         72
    57        999
    58         46
    59        278
    60          9
    61          1
    70          5
    71          3
    72          1
    73         18
    74          2
    75          3
    85          1
    87          4
    97          1
    99          2
   115        451
   116         30
   117          2