##TITLE=Library Entry 114631
##JCAMP-DX=Revision 4.10 
##DATA TYPE=MASS SPECTRUM
##SAMPLE DESCRIPTION=ASES Database, Dalian Institute, P.R. China
##NAMES=HP
##CAS NAME=N(1-Methoxycarbonyl-1-methyl)ethyl-2-aza-1,3-dioxane
##MOLFORM=C8H15NO4
##CAS REGISTRY NO=76664-34-1
##MP= -300
##BP= -300
##MW= 189
##$RETENTION INDEX=0
##$CONDENSED SPECTRUM=NO
##NPOINTS= 30
##XYDATA=(XY..XY) 1 
    29        208
    30        316
    31        381
    32         35
    39         70
    40         64
    41        467
    42        368
    43        172
    44         72
    45        144
    46         36
    55        144
    56        708
    57        105
    58        136
    59        439
    60        263
    61         57
    69        307
    70        106
    71         70
    72         72
    73        491
    74         64
   101        284
   114         43
   130        999
   131        100
   189         56