##TITLE=Library Entry 46279
##JCAMP-DX=Revision 4.10 
##DATA TYPE=MASS SPECTRUM
##SAMPLE DESCRIPTION=ASES Database, Dalian Institute, P.R. China
##NAMES=HP
##CAS NAME=Methyl 2-methyl-2-dimethoxyamino-propanoate
##MOLFORM=C7H15NO4
##CAS REGISTRY NO=76664-33-0
##MP= -300
##BP= -300
##MW= 177
##$RETENTION INDEX=0
##$CONDENSED SPECTRUM=NO
##NPOINTS= 38
##XYDATA=(XY..XY) 1 
    29         82
    30         40
    31        123
    41         80
    42         40
    43         41
    44         32
    45         81
    46         49
    55         67
    56        695
    57         81
    58         41
    59        124
    69        163
    70         56
    71         57
    72         56
    73        213
    74         57
    75         56
    76        999
    77         81
    87         82
    88        170
    89         41
   101        221
   102        122
   103         41
   115         73
   116         89
   118        648
   119         81
   130        107
   131         41
   146         66
   162         81
   177        155