##TITLE=Library Entry 13711
##JCAMP-DX=Revision 4.10 
##DATA TYPE=MASS SPECTRUM
##SAMPLE DESCRIPTION=A.A.Kutin, Moscow, Russia
##NAMES=HP
##CAS NAME=Benzamide oxime, 4-bromo-, o-acetyl-
##MOLFORM=C9H9BrN2O2
##CAS REGISTRY NO=76670-28-5
##MP= -300
##BP= -300
##MW= 256
##$RETENTION INDEX=0
##$CONDENSED SPECTRUM=NO
##NPOINTS= 206
##XYDATA=(XY..XY) 1 
    33         30
    34         13
    36         24
    37         38
    38         65
    39         69
    40        215
    41         48
    42        112
    43        999
    44        140
    45        100
    46          3
    47          3
    48          5
    49         31
    50        290
    51        176
    52         91
    53         26
    54          9
    55         13
    56          6
    57         10
    58          6
    59         15
    60         55
    61         27
    62         42
    63         70
    64         29
    65         26
    66          7
    67          8
    68          3
    69         10
    70          6
    71          5
    72          6
    73         42
    74        134
    75        363
    76        254
    77         87
    78         23
    79         20
    80         23
    81         12
    82         10
    83          4
    84          9
    85         23
    86         12
    87         19
    88         39
    90        207
    91         37
    92         11
    93         13
    94          4
    95          3
    96          2
    97          4
    98          7
    99         14
   100         15
   101         17
   102        173
   103        104
   104         28
   105         16
   106          9
   107          8
   108          5
   109          4
   110         11
   111        122
   112         16
   113         39
   114          6
   115          5
   116          5
   117         15
   118         22
   119          9
   120          6
   121          3
   122          1
   123          5
   124          4
   125         35
   126          6
   127         13
   128          6
   129          6
   130          2
   131          4
   132          2
   133          2
   134          7
   135         29
   137         73
   138        306
   139         87
   140        100
   141         22
   142          2
   143          2
   144          1
   145          1
   146          1
   147          1
   148          1
   149          4
   150          3
   153        383
   154         67
   155        194
   156         29
   157         85
   158          8
   159          1
   160          1
   161          1
   162          1
   163          2
   164          4
   165         18
   166         10
   167         16
   169         51
   170        514
   171         61
   172        156
   173         14
   174          1
   175          1
   176          0
   177          1
   178          2
   179          5
   180         11
   181         57
   182        266
   183         97
   184        242
   185         50
   186          3
   187          0
   189          0
   190          1
   191          1
   193          7
   194         24
   196         39
   197        270
   198         61
   199        249
   200         40
   201          4
   202          1
   203          0
   204          1
   205          0
   206          0
   207          1
   208          1
   209          2
   210          3
   211          7
   212         63
   214        528
   216        461
   217         33
   218          3
   220          0
   221          1
   222          0
   223          0
   224          1
   225          2
   226          1
   227          1
   228          1
   229          1
   230          0
   232          0
   236          1
   237          3
   238         24
   239          6
   240         26
   241          4
   242          3
   243          8
   244         13
   245          2
   247          0
   251          0
   252          0
   254          1
   255          1
   256         33
   258         33
   259          2
   260          0