##TITLE=Library Entry 36037
##JCAMP-DX=Revision 4.10 
##DATA TYPE=MASS SPECTRUM
##SAMPLE DESCRIPTION=NIST Mass Spectrometry Data Center, 1990.
##NAMES=HP
##CAS NAME=Cyclohexane, 1,2,4-trimethyl-, (1.alpha.,2.beta.,4.beta.)-
##MOLFORM=C9H18
##CAS REGISTRY NO=7667-60-9
##MP= -300
##BP= -300
##MW= 126
##$RETENTION INDEX=877
##$CONDENSED SPECTRUM=NO
##NPOINTS= 52
##XYDATA=(XY..XY) 1 
    14         12
    15         11
    16          5
    27        104
    28         12
    29        101
    39        245
    40         55
    41        437
    42        140
    43        111
    44          8
    50         11
    51         33
    52         17
    53        105
    54          8
    55        615
    56        239
    57         58
    58          2
    62          2
    63          8
    64          2
    65         29
    66         11
    67        113
    68          2
    69        999
    70        174
    71         31
    77         30
    78          6
    79         27
    80          4
    81         27
    82         28
    83         77
    84         83
    85          9
    91         11
    93          3
    95         11
    96          7
    97         52
    98          8
   109          4
   111        847
   112         71
   113          2
   126        276
   127         27