##TITLE=Library Entry 20199
##JCAMP-DX=Revision 4.10 
##DATA TYPE=MASS SPECTRUM
##SAMPLE DESCRIPTION=NIST Mass Spectrometry Data Center, 1990.
##NAMES=HP
##CAS NAME=Cyclohexane, 1,2,3-trimethyl-, (1.alpha.,2.alpha.,3.beta.)-
##MOLFORM=C9H18
##CAS REGISTRY NO=7667-55-2
##MP= -300
##BP= -300
##MW= 126
##$RETENTION INDEX=908
##$CONDENSED SPECTRUM=NO
##NPOINTS= 40
##XYDATA=(XY..XY) 1 
    15         18
    27        185
    28         82
    29        166
    39        328
    40         70
    41        678
    42        192
    43        165
    44         10
    50         15
    51         45
    52         22
    53        129
    54         10
    55        999
    56        413
    57        102
    63         10
    65         37
    67        157
    69        934
    70        684
    71        159
    72          8
    77         35
    79         32
    81         37
    82         77
    83        285
    84        115
    85         13
    91         16
    96        228
    97        520
    98         99
   111        272
   112         25
   126        276
   127         28