##TITLE=Library Entry 85292
##JCAMP-DX=Revision 4.10 
##DATA TYPE=MASS SPECTRUM
##SAMPLE DESCRIPTION=Chemical Concepts
##NAMES=HP
##CAS NAME=4(1H)-Pyridinone, 1,2,6-trimethyl-
##MOLFORM=C8H11NO
##CAS REGISTRY NO=767-83-9
##MP= -300
##BP= -300
##MW= 137
##$RETENTION INDEX=0
##$CONDENSED SPECTRUM=NO
##NPOINTS= 49
##XYDATA=(XY..XY) 1 
    26          4
    27         55
    28          2
    29         12
    30         11
    38          3
    39         92
    40         30
    41         99
    42        106
    43          7
    44          2
    50          2
    51         11
    52         21
    53         56
    54         40
    55         44
    56        140
    57          4
    65         26
    66         30
    67         60
    68         15
    77         17
    78          5
    79         15
    80          7
    81          5
    82         57
    83          3
    87          3
    91          4
    92         15
    93         25
    94        198
    95         15
    96         11
   106         18
   107         43
   108        999
   109        443
   110         26
   133          2
   135          2
   136         10
   137        627
   138         56
   139          3