##TITLE=Library Entry 85918
##JCAMP-DX=Revision 4.10 
##DATA TYPE=MASS SPECTRUM
##SAMPLE DESCRIPTION=Japan AIST/NIMC Database- Spectrum MS-NW-3668
##NAMES=HP
##CAS NAME=Cyclohexanol, 3,3,5-trimethyl-, trans-
##MOLFORM=C9H18O
##CAS REGISTRY NO=767-54-4
##MP= -300
##BP= -300
##MW= 142
##$RETENTION INDEX=1119
##$CONDENSED SPECTRUM=NO
##NPOINTS= 79
##XYDATA=(XY..XY) 1 
    15         12
    17          1
    18          4
    26          3
    27         92
    28          9
    29        111
    30          2
    31         17
    32          1
    37          1
    38          5
    39        105
    40         18
    41        291
    42         31
    43        144
    44         93
    45         40
    46          1
    50          4
    51         11
    52          5
    53         45
    54          9
    55        227
    56        183
    57        176
    58         22
    59         38
    60          2
    62          1
    63          2
    64          1
    65         10
    66          6
    67        182
    68        190
    69        138
    70         18
    71        204
    72         12
    73          4
    77         11
    78          2
    79         13
    80         12
    81        122
    82        120
    83        343
    84         28
    85        200
    86         17
    87          8
    91          8
    92          1
    93          8
    94          6
    95         87
    96        148
    97         18
    98          6
    99          3
   100          2
   105          1
   107          8
   108          5
   109        999
   110         90
   111          7
   123          8
   124        145
   125         16
   126          1
   127         21
   128          2
   140          1
   141          8
   142          5