##TITLE=Library Entry 53558
##JCAMP-DX=Revision 4.10 
##DATA TYPE=MASS SPECTRUM
##SAMPLE DESCRIPTION=Chuck Anderson, Aldrich Chemical Co.
##NAMES=HP
##CAS NAME=1-Butylpyrrolidine
##MOLFORM=C8H17N
##CAS REGISTRY NO=767-10-2
##MP= -300
##BP= -300
##MW= 127
##$RETENTION INDEX=942
##$CONDENSED SPECTRUM=NO
##NPOINTS= 50
##XYDATA=(XY..XY) 1 
    15          8
    18          1
    26          4
    27         37
    28         43
    29         45
    30         23
    31          0
    37          0
    38          1
    39         26
    40          5
    41         62
    42        130
    43         26
    44          5
    50          0
    51          1
    52          1
    53          6
    54         11
    55         62
    56         24
    57         21
    58          1
    65          0
    67          4
    68          9
    69          6
    70         37
    71          3
    72          0
    80          2
    81          1
    82         13
    84        999
    85         46
    86          1
    94          1
    96          7
    97          2
    98          9
    99          0
   110          2
   112          0
   124          1
   125          0
   126         12
   127         60
   128          5