##TITLE=Library Entry 67743
##JCAMP-DX=Revision 4.10 
##DATA TYPE=MASS SPECTRUM
##SAMPLE DESCRIPTION=NIST Mass Spectrometry Data Center, 1990.
##NAMES=HP
##CAS NAME=Cyclohexanol, 3,3-dimethyl-
##MOLFORM=C8H16O
##CAS REGISTRY NO=767-12-4
##MP= -300
##BP= -300
##MW= 128
##$RETENTION INDEX=1392
##$CONDENSED SPECTRUM=NO
##NPOINTS= 53
##XYDATA=(XY..XY) 1 
    14         13
    15         14
    27        111
    28        121
    29        121
    31         28
    32         33
    39        213
    40         59
    41        419
    42         50
    43        226
    44        131
    45         31
    50         12
    51         32
    52         12
    53         90
    54         61
    55        197
    56        285
    57        340
    58         32
    59         31
    63          8
    65         28
    66         58
    67        275
    68         90
    69        362
    70         38
    71        101
    72         20
    73          7
    77         30
    78          7
    79         27
    80         26
    81        204
    82        142
    83         39
    84          7
    85        282
    86         17
    87         14
    91         15
    93         31
    95        999
    96         70
    97          8
   110        216
   111         23
   113         30