##TITLE=Library Entry 114936
##JCAMP-DX=Revision 4.10 
##DATA TYPE=MASS SPECTRUM
##SAMPLE DESCRIPTION=Chemical Concepts
##NAMES=HP
##CAS NAME=1H-Indene, 3-methyl-
##MOLFORM=C10H10
##CAS REGISTRY NO=767-60-2
##MP= -300
##BP= -300
##MW= 130
##$RETENTION INDEX=1155
##$CONDENSED SPECTRUM=NO
##NPOINTS= 88
##XYDATA=(XY..XY) 1 
    26          6
    27         43
    29          9
    37          6
    38         15
    39         94
    40         12
    41         21
    42          7
    43         41
    44          5
    45          5
    49          5
    50         73
    51        203
    52         40
    53         19
    54          6
    55         13
    56          8
    57         34
    58          8
    59          4
    60          5
    61         13
    62         44
    63        148
    64        164
    65         95
    66          9
    67          5
    68          4
    69          9
    70          6
    71         17
    72          4
    73          7
    74         58
    75         62
    76         50
    77        120
    78         51
    79         14
    80          3
    81          5
    82          5
    83          7
    84          5
    85         14
    86         17
    87         24
    88         25
    89         74
    90         12
    91         29
    92         14
    93          4
    95          3
    96          4
    97          5
    98         14
    99         11
   100          7
   101         36
   102         93
   103         35
   104         10
   105         12
   106          5
   109          4
   110          5
   111          5
   112          4
   113         15
   114         21
   115        720
   116         72
   117         14
   124          5
   125         13
   126         59
   127        233
   128        346
   129        644
   130        999
   131        110
   132         22
   133          2