##TITLE=Library Entry 97531
##JCAMP-DX=Revision 4.10 
##DATA TYPE=MASS SPECTRUM
##SAMPLE DESCRIPTION=D.HENNEBERG, MAX-PLANCK INSTITUTE, MULHEIM, WEST GERMAN
Y
##NAMES=HP
##CAS NAME=Benzene, (1-methyl-1-propenyl)-, (Z)-
##MOLFORM=C10H12
##CAS REGISTRY NO=767-99-7
##MP= -300
##BP= -300
##MW= 132
##$RETENTION INDEX=1047
##$CONDENSED SPECTRUM=NO
##NPOINTS= 83
##XYDATA=(XY..XY) 1 
    22          0
    25          1
    26         14
    27        168
    29         26
    33          0
    35          1
    36          1
    37          6
    38         21
    39        247
    40         11
    41         33
    42          0
    43          1
    45          1
    47          2
    49          7
    50        101
    51        291
    52         68
    53         99
    54         57
    55         11
    57         14
    58         23
    59          2
    60          1
    61          9
    62         36
    63        130
    64        116
    65        197
    66         22
    67          2
    68          1
    69          1
    71          3
    72          1
    73          3
    74         33
    75         33
    76         36
    77        201
    78        154
    79         41
    80          3
    85          1
    86          5
    87          9
    88          4
    89         47
    90          9
    91        409
    92         32
    93          1
    98          2
    99          1
   101         11
   102         38
   103         90
   104         38
   105         59
   106          4
   110          0
   111          0
   113         26
   114         12
   115        344
   116        112
   117        999
   118         83
   119          3
   124          0
   126          4
   127         21
   128         38
   129         49
   130         18
   131        192
   132        539
   133         54
   134          2