##TITLE=Library Entry 97541
##JCAMP-DX=Revision 4.10 
##DATA TYPE=MASS SPECTRUM
##SAMPLE DESCRIPTION=Exported from NIST MS Search
##NAMES=HP
##CAS NAME=Indan, 1-methyl-
##MOLFORM=C10H12
##CAS REGISTRY NO=767-58-8
##MP= -300
##BP= -300
##MW= 132
##$RETENTION INDEX=1073
##$CONDENSED SPECTRUM=NO
##NPOINTS= 81
##XYDATA=(XY..XY) 1 
    12          3
    13          3
    14          7
    15         50
    25          2
    26         16
    27         66
    28         16
    29          7
    37          8
    38         19
    39        102
    40          8
    41         17
    42          2
    43          4
    44          1
    49          4
    50         43
    51         89
    52         18
    53         23
    54          3
    55          4
    56          4
    57         14
    58         39
    59          2
    61          8
    62         24
    63         72
    64         45
    65         67
    66          4
    67          3
    73          4
    74         20
    75         19
    76         13
    77         55
    78         19
    79          9
    80          2
    81          2
    85          4
    86          7
    87          9
    88          5
    89         34
    90          5
    91        133
    92          5
    93          2
    97          2
    98          6
    99          3
   100          2
   101         19
   102         24
   103         21
   104          9
   105         12
   106          2
   110          2
   111          2
   113         10
   114         12
   115        210
   116         57
   117        999
   119          2
   125          2
   126          6
   127         18
   128         33
   129         20
   130          7
   131         95
   132        256
   133          1
   134          2