##TITLE=Library Entry 114935
##JCAMP-DX=Revision 4.10 
##DATA TYPE=MASS SPECTRUM
##SAMPLE DESCRIPTION=Japan AIST/NIMC Database- Spectrum MS-NW-8400
##NAMES=HP
##CAS NAME=1H-Indene, 1-methyl-
##MOLFORM=C10H10
##CAS REGISTRY NO=767-59-9
##MP= -300
##BP= -300
##MW= 130
##$RETENTION INDEX=1160
##$CONDENSED SPECTRUM=NO
##NPOINTS= 70
##XYDATA=(XY..XY) 1 
    15          1
    17          1
    18          5
    26          2
    27         14
    28          4
    37          3
    38          9
    39         42
    40          3
    41          3
    43          5
    49          2
    50         39
    51         99
    52         16
    53          7
    55          1
    57          7
    58          1
    61          7
    62         22
    63         74
    64         74
    65         42
    66          2
    73          3
    74         29
    75         31
    76         25
    77         66
    78         26
    79          3
    85          3
    86          8
    87         11
    88          6
    89         42
    90          5
    91         12
    92          1
    97          1
    98          7
    99          3
   100          2
   101         15
   102         48
   103         24
   104         21
   105          5
   110          1
   113          6
   114          9
   115        636
   116         68
   117         10
   118          5
   119          4
   121          4
   122          1
   125          2
   126         25
   127        113
   128        243
   129        568
   130        999
   131        120
   132         27
   133          5
   134          2