##TITLE=Library Entry 32959
##JCAMP-DX=Revision 4.10 
##DATA TYPE=MASS SPECTRUM
##SAMPLE DESCRIPTION=Japan AIST/NIMC Database- Spectrum MS-NW-7329
##NAMES=HP
##CAS NAME=3-Cyclopentyl-1-propanol
##MOLFORM=C8H16O
##CAS REGISTRY NO=767-05-5
##MP= -300
##BP= -300
##MW= 128
##$RETENTION INDEX=0
##$CONDENSED SPECTRUM=NO
##NPOINTS= 69
##XYDATA=(XY..XY) 1 
    15          2
    18          2
    26          5
    27         71
    28         14
    29         59
    30          4
    31         96
    32          2
    37          1
    38          7
    39        126
    40         32
    41        413
    42        160
    43         58
    44         33
    45         13
    46          1
    50          5
    51         13
    52          8
    53         62
    54        208
    55        247
    56         58
    57         81
    58         16
    59          5
    60         10
    61          1
    62          1
    63          4
    64          1
    65         19
    66         84
    67        999
    68        422
    69        280
    70         23
    71         85
    72         12
    73          1
    75          1
    77         12
    78          3
    79         27
    80         11
    81        196
    82        797
    83         69
    84          5
    85         25
    86          3
    91          4
    93          4
    94          2
    95         80
    96          7
    97          7
    98          2
    99          2
   100          1
   107          1
   108          1
   109         12
   110         50
   111          6
   112          1