##TITLE=Library Entry 57679
##JCAMP-DX=Revision 4.10 
##DATA TYPE=MASS SPECTRUM
##SAMPLE DESCRIPTION=K.JANKOWSKI UNIV. OF MONCTON, NEW BRUNSWICK, CANADA
##NAMES=HP
##CAS NAME=1,4-Oxathian-2-one, 6-methyl-
##MOLFORM=C5H8O2S
##CAS REGISTRY NO=7670-39-5
##MP= -300
##BP= -300
##MW= 132
##$RETENTION INDEX=0
##$CONDENSED SPECTRUM=NO
##NPOINTS= 30
##XYDATA=(XY..XY) 1 
    41         30
    42        350
    43         30
    44        100
    45         70
    46        640
    47        310
    48        120
    49         90
    58         40
    59        110
    60         50
    61         70
    62         40
    73         30
    74        420
    75         60
    76         60
    81         40
    86        110
    87        200
    88        999
    89        330
    90        210
    91         30
    92         30
    93         30
    97         40
   117         40
   132         60