##TITLE=Library Entry 44277
##JCAMP-DX=Revision 4.10 
##DATA TYPE=MASS SPECTRUM
##SAMPLE DESCRIPTION=O A MAMER, MCGILL UNIVERSITY, MONTRE
##NAMES=HP
##CAS NAME=3-Trimethylsiloxysebacic acid, bis(trimethylsilyl)- ester
##MOLFORM=C19H42O5Si3
##CAS REGISTRY NO=76735-13-2
##MP= -300
##BP= -300
##MW= 434
##$RETENTION INDEX=2095
##$CONDENSED SPECTRUM=NO
##NPOINTS= 165
##XYDATA=(XY..XY) 1 
    41          6
    45         26
    46          5
    54          5
    55         38
    56          7
    57          6
    58          2
    59         14
    61          9
    67         22
    68          3
    69         17
    71          1
    72         28
    73        999
    74         85
    75        140
    76          7
    77          7
    81         32
    82          5
    85          3
    86          5
    87          6
    89          8
    91          5
    93         15
    94          4
    95        129
    96          9
    99          7
   101         52
   102          7
   103         14
   105          9
   107          6
   108          4
   109          8
   113          0
   115          5
   116          3
   117         63
   118          8
   119         52
   120          7
   121         11
   122          5
   123         20
   127          5
   129        108
   130         68
   131         42
   132         10
   133         67
   134         13
   135         13
   136         20
   137         70
   141         20
   142          5
   143         47
   144          5
   145          6
   146          6
   147        410
   148         64
   149         77
   150         17
   151         11
   153          5
   155          2
   157          6
   158          5
   159          6
   161          9
   163          9
   164         40
   165         63
   166          7
   169        115
   170         16
   171         11
   172          4
   173          7
   175         10
   177          7
   183          7
   185          2
   186          6
   189        128
   190         27
   191         56
   192         12
   193          7
   195          5
   197         54
   198         13
   199          4
   202          5
   203          9
   204         62
   205         13
   206          8
   211         14
   212          5
   213         60
   214         12
   215         14
   216          6
   217        214
   218         56
   219         24
   220          6
   221          3
   226          8
   227         13
   231         18
   233        424
   234         87
   235         39
   236          9
   239          8
   246          5
   254         12
   255         21
   257          5
   259         37
   260         11
   261          6
   272          4
   273          8
   274         99
   275         27
   276         10
   285         11
   287        128
   288         33
   289         23
   290          5
   301         10
   303        251
   304         63
   305         37
   306         10
   313          5
   316         42
   317         14
   318          6
   329         39
   330         12
   331          7
   339          7
   343          7
   344          9
   345          6
   375         19
   377         88
   378         30
   379         14
   419        455
   420        163
   421         79
   422         21
   423          7