##TITLE=Library Entry 89213
##JCAMP-DX=Revision 4.10 
##DATA TYPE=MASS SPECTRUM
##SAMPLE DESCRIPTION=S. TAHARA, DEP. AGRIC CHEM., HOKKAIDO UNIV., SAPPORO, J
A
##NAMES=HP
##CAS NAME=5-Methylenehydantoin
##MOLFORM=C4H4N2O2
##CAS REGISTRY NO=7673-65-6
##MP= -300
##BP= -300
##MW= 112
##$RETENTION INDEX=0
##$CONDENSED SPECTRUM=NO
##NPOINTS= 56
##XYDATA=(XY..XY) 1 
    38          0
    39         13
    40         56
    41        844
    42         13
    43         17
    44         11
    45          1
    46          0
    47          0
    50          1
    51          2
    52          3
    53          5
    54          3
    55          2
    56          1
    57          3
    59          0
    60          0
    63          1
    65          0
    66          1
    67          1
    68          7
    69         31
    70         13
    71          2
    73          0
    77          0
    79          0
    81          1
    82          1
    83          2
    84          3
    85          1
    88          0
    89          1
    91          1
    92          0
    93          0
    94          1
    95          1
    96          1
    97          2
    98          0
    99          0
   100          0
   105          1
   109          1
   110          0
   111          1
   112        999
   113         18
   114          2
   115          0