##TITLE=Library Entry 53671
##JCAMP-DX=Revision 4.10 
##DATA TYPE=MASS SPECTRUM
##SAMPLE DESCRIPTION=NIST Mass Spectrometry Data Center, 1994
##NAMES=HP
##CAS NAME=Trimethylsilyl cyanide
##MOLFORM=C4H9NSi
##CAS REGISTRY NO=7677-24-9
##MP= -300
##BP= -300
##MW= 99
##$RETENTION INDEX=775
##$CONDENSED SPECTRUM=NO
##NPOINTS= 49
##XYDATA=(XY..XY) 1 
    12          3
    13          5
    14          4
    15         50
    26          9
    27         35
    28          8
    29         63
    30          7
    31          9
    38          1
    39          3
    40          5
    41         25
    42         59
    43        210
    44         21
    45         15
    46          1
    52          5
    53         38
    54        131
    55         38
    56         82
    57         79
    58        111
    59          8
    60          3
    64          0
    65          2
    66          2
    67         18
    68         43
    69         23
    70         23
    71          3
    72          5
    73         19
    74          1
    78          0
    80          1
    82         14
    84        999
    85        103
    86         39
    87          1
    99         21
   100          2
   101          1