##TITLE=Library Entry 23893
##JCAMP-DX=Revision 4.10 
##DATA TYPE=MASS SPECTRUM
##SAMPLE DESCRIPTION=Chemical Concepts
##NAMES=HP
##CAS NAME=4,4'-Furfurylidenebis(2,6-di-tert-butylphenol)
##MOLFORM=C33H46O3
##CAS REGISTRY NO=76786-32-8
##MP= -300
##BP= -300
##MW= 490
##$RETENTION INDEX=0
##$CONDENSED SPECTRUM=NO
##NPOINTS= 229
##XYDATA=(XY..XY) 1 
    34          9
    36          5
    37          3
    38          7
    39         51
    40        134
    41        372
    43        108
    44         54
    50          4
    51          8
    53         23
    55        115
    57        999
    58         34
    59          5
    63          3
    65         10
    67         18
    68          4
    69         20
    70          5
    71          6
    77         19
    79         19
    81         44
    83         19
    84          3
    85          8
    89          5
    91         33
    92          5
    93          8
    95         13
    96          6
    98          3
    99          8
   101          4
   102          4
   103          6
   104          4
   105         19
   106          7
   107         10
   108          4
   109          6
   110          3
   111          3
   113         25
   114          6
   115         29
   116         10
   117         10
   118          4
   119         12
   120          6
   121         21
   122          5
   123          3
   124          6
   127         17
   128         27
   129         28
   130          9
   131         16
   132          5
   133          9
   134          5
   135          9
   139          7
   140          5
   141         26
   142         16
   143         14
   144         10
   145         14
   146          6
   147         13
   149         13
   150          3
   151          4
   152         15
   153         16
   154          9
   155         15
   156          8
   157         15
   158          7
   159         10
   160          5
   161          8
   162          4
   163          7
   164          4
   165         24
   166         13
   167         11
   168          8
   169          9
   170          7
   171         11
   172          6
   173          9
   174          5
   175         11
   176          4
   177          8
   178         17
   179         13
   180          6
   181         10
   182          6
   183          9
   184          6
   185         10
   186         27
   187         12
   188          3
   189          9
   190          7
   191         12
   192          8
   193          9
   194         25
   195         15
   196          5
   197         12
   198          5
   199         10
   200         11
   201         11
   202         63
   203         18
   204          4
   205          7
   206          4
   207          9
   208         21
   209         15
   210          7
   211         18
   212          6
   213         22
   214          8
   215         17
   216         95
   218          6
   219         29
   220          7
   221          6
   222         12
   223          9
   224          3
   225          8
   226          6
   227         37
   228         12
   229         22
   230        192
   232          5
   233         28
   234          6
   235          4
   236          4
   237         13
   238          6
   239         12
   240          5
   241         10
   242          4
   243          6
   244          3
   245          6
   246          3
   247          4
   249          3
   251         21
   252          7
   253         15
   254          7
   255         24
   256          7
   257          4
   259          3
   261          3
   265          4
   267          5
   268          6
   269         51
   270         11
   271          6
   272          6
   273          3
   277          3
   281          3
   282          3
   283         11
   284         15
   285        137
   286         29
   287          7
   293          5
   321          4
   349          5
   377          5
   403          4
   417          6
   429          5
   430          4
   431         12
   433        269
   434         81
   435         14
   447          3
   462          3
   473          6
   474          5
   475         49
   476         16
   477          3
   485          3
   486          5
   487          7
   488         10
   489         32
   490        332
   491        105
   492         20
   493          3