##TITLE=Library Entry 43324
##JCAMP-DX=Revision 4.10 
##DATA TYPE=MASS SPECTRUM
##SAMPLE DESCRIPTION=A. Brossi, LAC, NIDDK, NIH, Bethesda, MD 20892
##NAMES=HP
##CAS NAME=Morphinan-2,4-diol-6-one, N-formyl-
##MOLFORM=C17H19NO4
##CAS REGISTRY NO=76786-95-3
##MP= -300
##BP= -300
##MW= 301
##$RETENTION INDEX=0
##$CONDENSED SPECTRUM=NO
##NPOINTS= 196
##XYDATA=(XY..XY) 1 
    41        145
    42          5
    43        114
    44         80
    45         59
    46         34
    47          2
    49         10
    50          6
    51         32
    52         11
    53         41
    54         24
    55         76
    56         42
    57         46
    58        262
    59         13
    60          3
    62          3
    63         19
    64         11
    65         41
    66         11
    67         39
    68         24
    69         15
    70         11
    71         15
    72         38
    73        999
    74         43
    75          8
    76         15
    77         82
    78         34
    79         49
    80         19
    81         14
    82         16
    83         16
    84         27
    85          9
    86         12
    87          7
    88          5
    89         25
    90         15
    91         91
    92         22
    93         10
    94         54
    96          7
    97          8
    98         10
    99         26
   100          1
   101          8
   102         19
   103         31
   104         14
   105         30
   106         21
   107         37
   108         21
   110          3
   111          4
   112          4
   113          7
   114         10
   115        170
   116         34
   117         26
   118         12
   119         12
   120          8
   121         35
   122          9
   123          3
   124          2
   125          1
   126          8
   127         72
   128        101
   129         62
   130         22
   131         32
   132         15
   133          8
   134         13
   135          7
   136          4
   137         10
   138          2
   139         20
   140          9
   141         89
   142         26
   143         22
   144         30
   145         30
   146         16
   147         10
   148          7
   149          9
   150          6
   151         11
   152         51
   153         50
   154         27
   155         37
   156         23
   157         38
   158         37
   159         31
   160         18
   161          9
   162          9
   163          3
   164          9
   165         58
   166         22
   167         26
   168         24
   169         47
   170         27
   171         64
   172         27
   173         15
   174          9
   175          2
   176          5
   177         12
   178         32
   179        107
   180         37
   181         38
   182         19
   183         20
   184         32
   185         32
   186         13
   187          6
   188          3
   189          2
   190          1
   191          2
   192          2
   193          4
   194          8
   195         35
   196         92
   197         44
   198         14
   199         10
   200          7
   201          3
   202          1
   206          0
   207          2
   208          2
   209         16
   210         37
   211        849
   212        160
   213         21
   214          6
   215          2
   216          0
   222          1
   223          3
   224          3
   225         13
   226          5
   227          3
   228         22
   229        558
   230        102
   231         10
   237          1
   238         18
   239          4
   240          1
   241          0
   242          3
   243          0
   251          1
   252          2
   254          2
   272          1
   283         62
   284         12
   285          1
   301        155
   302         38
   303          5