##TITLE=Library Entry 97546
##JCAMP-DX=Revision 4.10 
##DATA TYPE=MASS SPECTRUM
##SAMPLE DESCRIPTION=Chemical Concepts
##NAMES=HP
##CAS NAME=Benzene, (2-methyl-1-propenyl)-
##MOLFORM=C10H12
##CAS REGISTRY NO=768-49-0
##MP= -300
##BP= -300
##MW= 132
##$RETENTION INDEX=1072
##$CONDENSED SPECTRUM=NO
##NPOINTS= 84
##XYDATA=(XY..XY) 1 
    26          7
    27         44
    28         12
    29          6
    31          4
    34          1
    35          1
    37          3
    38         17
    39        108
    40          9
    41         28
    42          8
    43          4
    44          6
    46          1
    47          0
    49          7
    50         44
    51        108
    52         17
    53         24
    54         18
    55          8
    57         21
    61          7
    62         24
    63         77
    64         43
    65        106
    66         13
    67          2
    69         10
    70          1
    71          1
    72          2
    73          4
    74         22
    75         14
    76         23
    77         91
    78         73
    79         21
    80          5
    83          1
    84          1
    85          2
    86         10
    87         11
    88          6
    89         68
    90         10
    91        401
    92         46
    93          6
    95          1
    97          6
    98          4
    99          6
   100          1
   101          9
   102         25
   103         40
   104         31
   105         16
   106          3
   110          2
   111          1
   113          2
   114          7
   115        522
   116        118
   117        999
   118        104
   119          5
   126          3
   127         28
   128         48
   129         56
   130         18
   131        171
   132        632
   133         76
   134          4