##TITLE=Library Entry 68766
##JCAMP-DX=Revision 4.10 
##DATA TYPE=MASS SPECTRUM
##SAMPLE DESCRIPTION=Japan AIST/NIMC Database- Spectrum MS-NW-7223
##NAMES=HP
##CAS NAME=1-Adamantanol
##MOLFORM=C10H16O
##CAS REGISTRY NO=768-95-6
##MP= -300
##BP= -300
##MW= 152
##$RETENTION INDEX=1333
##$CONDENSED SPECTRUM=NO
##NPOINTS= 73
##XYDATA=(XY..XY) 1 
    15          2
    18          1
    26          1
    27         26
    28          5
    29         17
    31          6
    38          2
    39         48
    40          9
    41         68
    42          7
    43         27
    44          1
    45          2
    50          3
    51         10
    52          5
    53         24
    54          6
    55         27
    56          4
    57          6
    58          4
    59          4
    60          1
    61          1
    62          1
    63          4
    64          2
    65         14
    66          9
    67         37
    68         17
    69         12
    70          5
    71          2
    74          1
    77         47
    78          9
    79         51
    80          7
    81         19
    82          9
    83          8
    84          2
    91         18
    92          6
    93         15
    94        105
    95        999
    96         84
    97          9
   103          1
   105          4
   106          1
   107          3
   108          4
   109         45
   110          7
   111          2
   115          1
   117          1
   119          1
   123          1
   124          1
   134          1
   135          2
   137          3
   151          1
   152        214
   153         24
   154          2