##TITLE=Library Entry 67797
##JCAMP-DX=Revision 4.10 
##DATA TYPE=MASS SPECTRUM
##SAMPLE DESCRIPTION=Exported from NIST MS Search
##NAMES=HP
##CAS NAME=2-Propanone, 1-(1-cyclohexen-1-yl)-
##MOLFORM=C9H14O
##CAS REGISTRY NO=768-50-3
##MP= -300
##BP= -300
##MW= 138
##$RETENTION INDEX=0
##$CONDENSED SPECTRUM=NO
##NPOINTS= 26
##XYDATA=(XY..XY) 1 
    39        509
    40         70
    41        569
    43        679
    44         70
    45        150
    51        120
    52         70
    53        220
    55        270
    65        110
    66         70
    67        629
    68         70
    73         80
    77        150
    79        270
    80        589
    81        270
    91         70
    93        100
    94        140
    95        999
    96        150
   123         60
   138        180