##TITLE=Library Entry 78593
##JCAMP-DX=Revision 4.10 
##DATA TYPE=MASS SPECTRUM
##SAMPLE DESCRIPTION=Chemical Concepts
##NAMES=HP
##CAS NAME=2-Propen-1-one, 1-phenyl-
##MOLFORM=C9H8O
##CAS REGISTRY NO=768-03-6
##MP= -300
##BP= -300
##MW= 132
##$RETENTION INDEX=1143
##$CONDENSED SPECTRUM=NO
##NPOINTS= 84
##XYDATA=(XY..XY) 1 
    25          4
    26         48
    27        182
    29         12
    30          1
    33          0
    36          0
    37         20
    38         31
    39         44
    40          2
    41          0
    42          2
    43         42
    44          6
    46          0
    47          1
    48          1
    49         16
    50        221
    51        498
    52         32
    53         20
    54          5
    55        122
    56          9
    57          1
    58          5
    60          2
    61         11
    62         18
    63         27
    64          3
    65          3
    66          1
    67          3
    72          1
    73         13
    74         79
    75         37
    76         55
    77        919
    78        117
    79          4
    80          1
    81          1
    83          1
    84          1
    85          1
    86          8
    87          4
    89          8
    90          1
    91          5
    92          0
    95          0
    96          0
    97          1
    98          1
    99          0
   100          1
   101          2
   102          9
   103         43
   104        123
   105        999
   106         75
   107          5
   108          1
   110          1
   111          1
   113          1
   115          5
   116          3
   117          2
   118          4
   120          0
   128          1
   129          0
   131        175
   132        346
   133         35
   134         14
   135          1