##TITLE=Library Entry 83666
##JCAMP-DX=Revision 4.10 
##DATA TYPE=MASS SPECTRUM
##SAMPLE DESCRIPTION=Japan AIST/NIMC Database- Spectrum MS-NW-7422
##NAMES=HP
##CAS NAME=Benzenemethanol, 4-ethyl-
##MOLFORM=C9H12O
##CAS REGISTRY NO=768-59-2
##MP= -300
##BP= -300
##MW= 136
##$RETENTION INDEX=2145
##$CONDENSED SPECTRUM=NO
##NPOINTS= 94
##XYDATA=(XY..XY) 1 
    15          3
    18          2
    26          5
    27         51
    28         11
    29         52
    30          2
    31         22
    32          2
    37          5
    38         12
    39         86
    40         10
    41         41
    42          8
    43          8
    44          2
    45          3
    46          2
    47          1
    49          3
    50         42
    51         99
    52         27
    53         38
    54          5
    55          9
    56          2
    57          7
    58          6
    59          4
    60         23
    61          6
    62         21
    63         53
    64         13
    65         75
    66         14
    67          9
    68          1
    69          1
    71          3
    72          3
    73          3
    74         17
    75         15
    76         12
    77        342
    78         72
    79        721
    80         53
    81          4
    82          1
    84          2
    85          2
    86          5
    87          6
    88          2
    89         37
    90         18
    91        294
    92         36
    93         92
    94          9
    95          1
    97          1
    98          2
    99          1
   101          3
   102         17
   103         91
   104         49
   105        282
   106         36
   107        999
   108         82
   109          6
   114          1
   115         28
   116          7
   117         58
   118         49
   119         89
   120         64
   121        150
   122         14
   123          2
   131          2
   133         25
   134         12
   135         96
   136        563
   137         60
   138          4