##TITLE=Library Entry 97533
##JCAMP-DX=Revision 4.10 
##DATA TYPE=MASS SPECTRUM
##SAMPLE DESCRIPTION=D.HENNEBERG, MAX-PLANCK INSTITUTE, MULHEIM, WEST GERMAN
Y
##NAMES=HP
##CAS NAME=Benzene, (1-methyl-1-propenyl)-, (E)-
##MOLFORM=C10H12
##CAS REGISTRY NO=768-00-3
##MP= -300
##BP= -300
##MW= 132
##$RETENTION INDEX=1486
##$CONDENSED SPECTRUM=NO
##NPOINTS= 86
##XYDATA=(XY..XY) 1 
    26          3
    27         38
    29          6
    33          0
    34          0
    36          0
    37          2
    38          6
    39         75
    40          3
    41         11
    45          0
    47          0
    48          0
    49          3
    50         36
    51        103
    52         24
    53         38
    54         23
    55          4
    57          5
    58          8
    59          0
    60          0
    61          4
    62         15
    63         54
    64         46
    65         82
    66         13
    67          1
    68          0
    69          0
    70          1
    71          2
    72          1
    73          2
    74         15
    75         17
    76         18
    77        101
    78         78
    79         19
    80          1
    81          0
    85          1
    86          3
    87          6
    88          3
    89         29
    90          5
    91        258
    92         23
    93          1
    98          2
    99          1
   100          2
   101          7
   102         29
   103         69
   104         31
   105         50
   106          4
   109          0
   110          0
   111          1
   113         25
   114         12
   115        335
   116        110
   117        999
   118         95
   119          4
   123          0
   124          0
   125          2
   126          5
   127         23
   128         45
   129         52
   130         19
   131        233
   132        637
   133         71
   134          3