##TITLE=Library Entry 70280
##JCAMP-DX=Revision 4.10 
##DATA TYPE=MASS SPECTRUM
##SAMPLE DESCRIPTION=B. Derendyaev, Novosibirsk Institute of Organic Chemist
ry
##NAMES=HP
##CAS NAME=1-Fluoroadamantane
##MOLFORM=C10H15F
##CAS REGISTRY NO=768-92-3
##MP= -300
##BP= -300
##MW= 154
##$RETENTION INDEX=1159
##$CONDENSED SPECTRUM=NO
##NPOINTS= 49
##XYDATA=(XY..XY) 1 
    40        110
    41        440
    42         52
    43         66
    46         24
    47         35
    50         53
    51        176
    52         58
    53        171
    54         82
    55        115
    56         58
    57        101
    58        120
    63         41
    65         96
    66         55
    67        189
    68         50
    69         21
    70         25
    73         25
    77        156
    78         65
    79        240
    80         48
    81         57
    82         46
    83         29
    84         31
    91        100
    92         74
    93        206
    94        154
    95        104
    96        321
    97        999
    98        495
    99         93
   105         28
   107         26
   109         52
   110         67
   111        299
   112         50
   153         45
   154        487
   155         62