##TITLE=Library Entry 66042
##JCAMP-DX=Revision 4.10 
##DATA TYPE=MASS SPECTRUM
##SAMPLE DESCRIPTION=Chemical Concepts
##NAMES=HP
##CAS NAME=Pyridine, 5-ethyl-2-methyl-, 1-oxide
##MOLFORM=C8H11NO
##CAS REGISTRY NO=768-44-5
##MP= -300
##BP= -300
##MW= 137
##$RETENTION INDEX=0
##$CONDENSED SPECTRUM=NO
##NPOINTS= 91
##XYDATA=(XY..XY) 1 
    26         83
    27        549
    28        225
    29        233
    30        123
    31         46
    37         44
    38        142
    39        858
    40        140
    41        456
    42        185
    43        164
    44         41
    45         15
    46          7
    47         13
    49         24
    50        277
    51        555
    52        338
    53        384
    54         74
    55         89
    56         98
    57         66
    58         11
    59         15
    60          5
    61         23
    62         57
    63        181
    64         89
    65        331
    66         83
    67        117
    68         23
    69         10
    70          6
    71          8
    72         22
    73         14
    74         28
    75         28
    76         32
    77        872
    78        285
    79        141
    80         63
    81         30
    82          5
    83         13
    84         15
    85        442
    86         34
    87         51
    88          6
    89         46
    90         21
    91        557
    92        144
    93        999
    94        119
    95         23
    96          2
   101          9
   102          5
   103         17
   104         34
   105        120
   106        116
   107         17
   108          9
   109         10
   110         10
   115          9
   116          6
   117         13
   118         32
   119         39
   120        702
   121        121
   122         75
   123         45
   124          2
   134          5
   135          4
   136         10
   137        515
   138        121
   139          9