##TITLE=Library Entry 42547
##JCAMP-DX=Revision 4.10 
##DATA TYPE=MASS SPECTRUM
##SAMPLE DESCRIPTION=E.D. MORGAN, DEP. CHEM., KEELE UNIV., KEELE, STAFFORDSH
IRE,
##NAMES=HP
##CAS NAME=2.beta.,3.beta.,14.alpha.-Tris(trimethylsilyloxy)-5.beta.-cholest
-7-en-6-one
##MOLFORM=C36H68O4Si3
##CAS REGISTRY NO=76808-41-8
##MP= -300
##BP= -300
##MW= 648
##$RETENTION INDEX=0
##$CONDENSED SPECTRUM=NO
##NPOINTS= 96
##XYDATA=(XY..XY) 1 
    41        150
    43        300
    55        200
    57        220
    69        200
    71        120
    73        999
    74        160
    75        320
    81        130
    83        100
    93        120
   103         60
   105         90
   107         50
   117         60
   119         60
   121         80
   129        100
   131         90
   133        110
   145         80
   147        530
   148         70
   149         70
   157         50
   159         70
   169        110
   171         60
   173         70
   181        100
   193         60
   195         50
   207         70
   208         80
   209         70
   210         20
   211         30
   213         40
   215         30
   217         40
   219         20
   221         70
   223         40
   231         50
   233         60
   235        180
   236        110
   237         80
   247         30
   249         60
   261         40
   263         30
   273         40
   275         50
   281         30
   283         20
   285         50
   287         30
   295         40
   303         50
   335         50
   336         30
   337         50
   348        100
   349         60
   350         30
   363         60
   375         60
   376         40
   379         30
   387         70
   417         40
   423         30
   425         20
   440         20
   441        100
   442         60
   458         40
   470         50
   471         70
   508         30
   530         30
   543         60
   557        130
   558         70
   559         50
   619         20
   620        100
   621         40
   622         20
   633         30
   634         20
   648        110
   649         40
   650         10