##TITLE=Library Entry 8221
##JCAMP-DX=Revision 4.10 
##DATA TYPE=MASS SPECTRUM
##SAMPLE DESCRIPTION=A.Pleshkova, Nesmeyanov Inst.Org.Elem.Cpds, Moscow
##NAMES=HP
##CAS NAME=1,1,1,3,3,3-Hexafluoro-2-[1,1-bis-(methoxycarbonyl)ethoxyimino pr
opane
##MOLFORM=C9H9F6NO5
##CAS REGISTRY NO=76808-83-8
##MP= -300
##BP= -300
##MW= 325
##$RETENTION INDEX=0
##$CONDENSED SPECTRUM=NO
##NPOINTS= 50
##XYDATA=(XY..XY) 1 
    41         43
    42         76
    43        999
    44         76
    45         65
    47         83
    50         21
    51         45
    54         24
    55        145
    56         65
    57        245
    58         23
    59        547
    60         25
    67         27
    69        167
    70         21
    75        201
    76         24
    77        102
    78         24
    81         25
    83         65
    85        201
    86         23
    89         67
    91         63
    92         26
   100         27
   101        125
   102        445
   103         43
   105        176
   106         25
   110         26
   112         27
   113        102
   114         21
   115         21
   117        387
   118         21
   123         24
   145        163
   146         23
   238         23
   266        143
   267         12
   294          4
   306          8