##TITLE=Library Entry 9203
##JCAMP-DX=Revision 4.10 
##DATA TYPE=MASS SPECTRUM
##SAMPLE DESCRIPTION=A.Pleshkova, Nesmeyanov Inst.Org.Elem.Cpds, Moscow
##NAMES=HP
##CAS NAME=1,1,1,3,3,3-Hexafluoro-2-[(2-methoxycarbonyl)prop-2-oxyimino]prop
ane
##MOLFORM=C8H9F6NO3
##CAS REGISTRY NO=76808-82-7
##MP= -300
##BP= -300
##MW= 281
##$RETENTION INDEX=0
##$CONDENSED SPECTRUM=NO
##NPOINTS= 33
##XYDATA=(XY..XY) 1 
    39        213
    40         71
    41        534
    42        213
    43        999
    44         73
    45         65
    55         65
    56         23
    57         76
    58        725
    59        613
    60         23
    61         63
    67         81
    69        446
    70         81
    73        956
    74        104
    75         32
    76         62
    87         21
    96         27
    99         24
   100         57
   101        423
   102         63
   112         57
   161         56
   164         34
   222        635
   223         64
   224          8