##TITLE=Library Entry 57620
##JCAMP-DX=Revision 4.10 
##DATA TYPE=MASS SPECTRUM
##SAMPLE DESCRIPTION=A.Pleshkova, Nesmeyanov Inst.Org.Elem.Cpds, Moscow
##NAMES=HP
##CAS NAME=N-(1,1-Dicarbamoylethoxy)-2,2-bis(trifluoromethyl)aziridine
##MOLFORM=C8H9F6N3O3
##CAS REGISTRY NO=76808-90-7
##MP= -300
##BP= -300
##MW= 309
##$RETENTION INDEX=0
##$CONDENSED SPECTRUM=NO
##NPOINTS= 41
##XYDATA=(XY..XY) 1 
    33         48
    42         40
    43        987
    44        281
    45         30
    46         88
    47          7
    55         52
    56          5
    58         35
    59         23
    65         45
    66          4
    69         78
    70          9
    72         74
    73          6
    87         91
    88        999
    89         55
    90         31
    91        247
    92         36
    98        100
    99          9
   100        100
   101         45
   102          7
   109         47
   115         40
   128         88
   129          2
   132        203
   133         17
   155        147
   156         26
   178         81
   179         21
   180         11
   265         12
   310         12