##TITLE=Library Entry 16425
##JCAMP-DX=Revision 4.10 
##DATA TYPE=MASS SPECTRUM
##SAMPLE DESCRIPTION=R.SELF FOOD RESEARCH INSTITUTE, NORWICH, UK
##NAMES=HP
##CAS NAME=L-Aspartic acid, N-(2,4-dinitrophenyl)-
##MOLFORM=C10H9N3O8
##CAS REGISTRY NO=7683-81-0
##MP= -300
##BP= -300
##MW= 299
##$RETENTION INDEX=0
##$CONDENSED SPECTRUM=NO
##NPOINTS= 105
##XYDATA=(XY..XY) 1 
    25         13
    26         59
    27         63
    29         26
    30         74
    31         13
    37         22
    38         41
    39         78
    40         30
    41         44
    42         41
    43        159
    44        999
    45         28
    50         59
    51         85
    52        104
    53         30
    54         33
    55         24
    61         22
    62         74
    63        174
    64         81
    65         37
    66         48
    67         24
    68         26
    69         33
    70         13
    73         11
    74         52
    75        104
    76         59
    77         70
    78        141
    79         48
    80         28
    87         18
    88         26
    89        111
    90        130
    91         85
    92         26
    93         30
    94         24
    95         12
   101         15
   102         33
   103         35
   104         89
   105        107
   106         37
   107         26
   115         13
   116         46
   117         52
   118        104
   119         44
   120         22
   121         31
   129         22
   130         22
   131         59
   132         30
   133        100
   134         37
   135         10
   137         22
   145         11
   146         20
   147         44
   148         15
   149         31
   150         24
   151         11
   153         30
   161         10
   162         15
   163         25
   164         78
   165         15
   166         22
   167         33
   175         30
   176         22
   177         89
   178         26
   179        259
   180         37
   183         41
   190         19
   191         33
   192         26
   193         61
   194         17
   205         17
   208         12
   209         26
   219         19
   236         22
   254         30
   281         52
   299         12