##TITLE=Library Entry 39597
##JCAMP-DX=Revision 4.10 
##DATA TYPE=MASS SPECTRUM
##SAMPLE DESCRIPTION=AAFS Toxicology Section MS DB Committee, U. Alberta, Ca
nada
##NAMES=HP
##CAS NAME=Isoproterenol
##MOLFORM=C11H17NO3
##CAS REGISTRY NO=7683-59-2
##MP= -300
##BP= -300
##MW= 211
##$RETENTION INDEX=1730
##$CONDENSED SPECTRUM=NO
##NPOINTS= 116
##XYDATA=(XY..XY) 1 
    29          2
    30        104
    31          3
    35          7
    36         31
    37          3
    38         17
    39         19
    41         20
    42         47
    43         50
    44         81
    45          8
    46          1
    50          6
    51         17
    52          9
    53         12
    57          7
    58          3
    59          2
    60          9
    62          5
    63         12
    64         10
    65         57
    66         11
    67          6
    71          6
    72        999
    73         46
    74          6
    75          8
    76          2
    77         32
    78          8
    79         12
    80          7
    81         15
    82          5
    85          6
    88         45
    89         13
    90          6
    91         10
    92          6
    93         54
    94         12
    95          3
    96          1
    97          1
    98          4
   102          3
   103          5
   104          7
   105          4
   106          5
   107         14
   108          3
   109          7
   110         11
   111         13
   115          8
   116          1
   117          5
   118          3
   119          2
   120         11
   121          3
   122          3
   123         47
   124         38
   125          4
   127          3
   128          1
   129          2
   130          2
   131          4
   132         10
   133          6
   134         11
   135         20
   136         17
   137         32
   138          1
   139         43
   140          5
   141          6
   150          1
   151          6
   154          3
   155          1
   160          5
   161          4
   162          5
   163          3
   164          2
   174          2
   175          2
   176          7
   178         17
   179          1
   181          3
   182         14
   183          1
   189          2
   190          3
   191          5
   192          7
   193         19
   194          1
   208          3
   209          2
   211         20
   212          4
   213          1