##TITLE=Library Entry 35382
##JCAMP-DX=Revision 4.10 
##DATA TYPE=MASS SPECTRUM
##SAMPLE DESCRIPTION=Japan AIST/NIMC Database- Spectrum MS-NW-8230
##NAMES=HP
##CAS NAME=Supraene
##MOLFORM=C30H50
##CAS REGISTRY NO=7683-64-9
##MP= -300
##BP= -300
##MW= 410
##$RETENTION INDEX=2826
##$CONDENSED SPECTRUM=NO
##NPOINTS= 193
##XYDATA=(XY..XY) 1 
    27         11
    28          3
    29         19
    39         16
    40          8
    41        257
    42         12
    43         34
    44          1
    51          2
    52          1
    53         35
    54          4
    55         67
    56          5
    57         27
    58          2
    59          2
    65          7
    66          4
    67         82
    68        124
    69        999
    70         57
    71         16
    72          1
    77         17
    78          4
    79         39
    80         29
    81        612
    82         83
    83         40
    84          5
    85          5
    91         24
    92         21
    93        115
    94         72
    95        184
    96         23
    97         23
    98          2
    99          1
   103          1
   104          1
   105         27
   106         12
   107         85
   108         31
   109        119
   110         16
   111         20
   112          2
   113          1
   115          1
   117          2
   118          1
   119         43
   120         16
   121        139
   122         48
   123        137
   124         18
   125          9
   126          1
   127          2
   128          1
   129          1
   131          3
   132          3
   133         29
   134         41
   135        100
   136        243
   137        240
   138         26
   139          3
   143          1
   145          8
   146          3
   147         47
   148         23
   149        119
   150         32
   151         11
   152          2
   153          2
   157          1
   159          8
   160          3
   161         35
   162         20
   163         34
   164          6
   165          4
   166          1
   171          1
   173          8
   174          3
   175         41
   176         14
   177         34
   178          9
   179          5
   180          1
   185          1
   187          7
   188          3
   189         36
   190         18
   191         58
   192         60
   193         10
   194          1
   199          1
   201          6
   202          4
   203         46
   204         19
   205         32
   206          7
   207          1
   213          1
   215          7
   216          6
   217         21
   218         23
   219          8
   220          2
   221          1
   227          1
   229          9
   230          5
   231         28
   232          7
   233          5
   234          1
   243          5
   244          2
   245          5
   246          2
   247          1
   255          1
   257          9
   258          5
   259          9
   260         10
   261          4
   271          7
   272          7
   273         23
   274          9
   275          2
   284          1
   285          5
   286          9
   287          3
   288          1
   297          5
   298          2
   299         17
   300          6
   301          5
   302          1
   313          2
   314          1
   315          1
   325          7
   326          5
   327          7
   328         23
   329          7
   330          1
   339          2
   340          3
   341         66
   342         18
   343          3
   353          1
   354          1
   355          1
   357          1
   367         24
   368          8
   369          1
   395          5
   396          2
   408          1
   409          1
   410         91
   411         30
   412          6