##TITLE=Library Entry 78834
##JCAMP-DX=Revision 4.10 
##DATA TYPE=MASS SPECTRUM
##SAMPLE DESCRIPTION=NIST Mass Spectrometry Data Center
##NAMES=HP
##CAS NAME=E-2-Hexenyl benzoate
##MOLFORM=C13H16O2
##CAS REGISTRY NO=76841-70-8
##MP= -300
##BP= -300
##MW= 204
##$RETENTION INDEX=1588
##$CONDENSED SPECTRUM=NO
##NPOINTS= 34
##XYDATA=(XY..XY) 1 
    27         22
    29         23
    39         47
    41         86
    42          9
    50         22
    51         71
    52          7
    53         20
    54         34
    55         99
    57         28
    65          8
    67        120
    68         15
    74          6
    75          6
    76          9
    77        219
    78         19
    79         16
    81         17
    82         60
    83         13
   104          5
   105        999
   106         80
   110         13
   117         11
   151         15
   162          5
   175         10
   180          6
   204          8