##TITLE=Library Entry 44668
##JCAMP-DX=Revision 4.10 
##DATA TYPE=MASS SPECTRUM
##SAMPLE DESCRIPTION=Japan AIST/NIMC Database- Spectrum MS-NW-9528
##NAMES=HP
##CAS NAME=dl-c-Allylglycine
##MOLFORM=C5H9NO2
##CAS REGISTRY NO=7685-44-1
##MP= -300
##BP= -300
##MW= 115
##$RETENTION INDEX=0
##$CONDENSED SPECTRUM=NO
##NPOINTS= 48
##XYDATA=(XY..XY) 1 
    14          1
    15         11
    17          4
    18         19
    19          2
    26          5
    27         34
    28        308
    29         20
    30         36
    31          1
    32          1
    33          1
    35          1
    37          4
    38          9
    39         54
    40          9
    41         71
    42         35
    43        129
    44         11
    45          9
    46         51
    47          2
    50          3
    51          6
    52          4
    53         19
    54         19
    55          4
    56         12
    57          3
    66          1
    67          2
    68         17
    69          7
    70        389
    71         18
    74        999
    75         27
    76          4
    81          1
    97          3
   114          1
   115          3
   116         19
   117          1