##TITLE=Library Entry 50047
##JCAMP-DX=Revision 4.10 
##DATA TYPE=MASS SPECTRUM
##SAMPLE DESCRIPTION=NO AUTHOR
##NAMES=HP
##CAS NAME=Stigmasta-4,22-diene
##MOLFORM=C29H48
##CAS REGISTRY NO=76866-92-7
##MP= -300
##BP= -300
##MW= 396
##$RETENTION INDEX=0
##$CONDENSED SPECTRUM=NO
##NPOINTS= 97
##XYDATA=(XY..XY) 1 
    41        285
    43        402
    53         50
    55        998
    56         64
    57        199
    67        478
    68         76
    69        708
    70         71
    71        135
    77         88
    79        400
    80         76
    81        999
    82        162
    83        870
    84        100
    85         81
    91        313
    92         68
    93        606
    94        151
    95        595
    96        135
    97        467
   105        315
   106        110
   107        658
   108        389
   109        587
   110        135
   111         86
   117         63
   119        213
   120         99
   121        356
   122        181
   123        399
   124         86
   131        114
   133        273
   134        240
   135        467
   136         66
   137        185
   139         68
   145        162
   146         83
   147        504
   148        127
   149        303
   151         66
   159        135
   160         84
   161        415
   162        103
   163        237
   166         77
   173        101
   175        226
   176         59
   177         54
   187         77
   189         93
   191         53
   201        130
   203         74
   213        133
   214         65
   215        231
   216         93
   217         75
   229        116
   230        132
   231         72
   241         73
   242        159
   243         86
   254         95
   255        612
   256        378
   257        746
   258        149
   259         85
   269        149
   270         50
   283        140
   284        535
   285        225
   298        113
   353        452
   354        136
   381        131
   396        993
   397        314
   398        130