##TITLE=Library Entry 72856
##JCAMP-DX=Revision 4.10 
##DATA TYPE=MASS SPECTRUM
##SAMPLE DESCRIPTION=P. VAINIOTALO, DEPT. CHEM., UNIV. JOENSUU, JOENSUU, FIN
LAND
##NAMES=HP
##CAS NAME=3,4-Dimethylperhydro-1,3-oxazine
##MOLFORM=C6H13NO
##CAS REGISTRY NO=76888-60-3
##MP= -300
##BP= -300
##MW= 115
##$RETENTION INDEX=0
##$CONDENSED SPECTRUM=NO
##NPOINTS= 39
##XYDATA=(XY..XY) 1 
    15         94
    26         22
    27        104
    28        140
    29        103
    30         96
    31         18
    38          9
    39         90
    40         18
    41        171
    42        742
    43        747
    44        401
    45         51
    52          8
    53         13
    54         34
    55         95
    56        259
    57        291
    58        284
    59         16
    60         16
    68         22
    69         29
    70        524
    71        214
    72        244
    73         18
    84        105
    85         56
    86        272
    87        108
   100        999
   101         64
   114        245
   115        526
   116         47