##TITLE=Library Entry 19553
##JCAMP-DX=Revision 4.10 
##DATA TYPE=MASS SPECTRUM
##SAMPLE DESCRIPTION=Exported from NIST MS Search
##NAMES=HP
##CAS NAME=2-Hexene, (Z)-
##MOLFORM=C6H12
##CAS REGISTRY NO=7688-21-3
##MP= -300
##BP= -300
##MW= 84
##$RETENTION INDEX=604
##$CONDENSED SPECTRUM=NO
##NPOINTS= 61
##XYDATA=(XY..XY) 1 
    12          3
    13          4
    14         14
    15         97
    16          3
    24          1
    25          5
    26         78
    27        495
    28         94
    29        341
    30          8
    31          2
    32          1
    33          1
    36          1
    37         18
    38         44
    39        382
    40         65
    41        501
    42        566
    43        141
    44          5
    48          1
    49          6
    50         33
    51         46
    52         18
    53         95
    54         77
    55        999
    56        252
    57         10
    58          1
    60          1
    61          2
    62          5
    63          8
    64          1
    65         10
    66          5
    67         29
    68          7
    69        207
    70         11
    71          1
    73          1
    74          2
    75          1
    76          1
    77          4
    78          1
    79          3
    80          1
    81          2
    82          1
    83          3
    84        301
    85         19
    86          1