##TITLE=Library Entry 78804
##JCAMP-DX=Revision 4.10 
##DATA TYPE=MASS SPECTRUM
##SAMPLE DESCRIPTION=NIST Mass Spectrometry Data Center
##NAMES=HP
##CAS NAME=Vinyl benzoate
##MOLFORM=C9H8O2
##CAS REGISTRY NO=769-78-8
##MP= -300
##BP= -300
##MW= 148
##$RETENTION INDEX=0
##$CONDENSED SPECTRUM=NO
##NPOINTS= 44
##XYDATA=(XY..XY) 1 
    12          2
    13          2
    14         11
    15         57
    18          2
    25          2
    26         17
    27         49
    28         19
    29          6
    37          6
    38         13
    39         19
    40          2
    41          3
    42         15
    43          3
    49          4
    50        112
    51        276
    52         12
    53          4
    55          1
    61          1
    62          3
    63          3
    64          1
    65          6
    66          4
    73          5
    74         30
    75         20
    76         36
    77        645
    78         36
    79          1
    89          1
    91          3
    94          1
   105        999
   106         70
   107          3
   148         52
   149          5