##TITLE=Library Entry 5283
##JCAMP-DX=Revision 4.10 
##DATA TYPE=MASS SPECTRUM
##SAMPLE DESCRIPTION=Chemical Concepts
##NAMES=HP
##CAS NAME=1,3-Dimethylbarbituric acid
##MOLFORM=C6H8N2O3
##CAS REGISTRY NO=769-42-6
##MP= -300
##BP= -300
##MW= 156
##$RETENTION INDEX=0
##$CONDENSED SPECTRUM=NO
##NPOINTS= 59
##XYDATA=(XY..XY) 1 
    26          5
    27         20
    28         41
    29         37
    30        251
    31         26
    35          0
    36          0
    37          0
    38          1
    39          2
    41         34
    42        999
    43        180
    44         11
    45          1
    50          0
    51          1
    52          4
    53          2
    54          5
    55         11
    56        117
    57         14
    58        107
    59          5
    60          1
    64          0
    67          0
    68          1
    69         53
    70         34
    71        185
    72          9
    73          5
    81          1
    82          5
    83          2
    84          0
    85          3
    86          2
    87          5
    88          0
    98         16
    99         54
   100         12
   101          1
   112          0
   113          0
   115          0
   127          6
   128         30
   129         31
   130          1
   141          0
   155          0
   156        424
   157         29
   158          4