##TITLE=Library Entry 79365
##JCAMP-DX=Revision 4.10 
##DATA TYPE=MASS SPECTRUM
##SAMPLE DESCRIPTION=Chemical Concepts
##NAMES=HP
##CAS NAME=2-Propen-1-one, 2-methyl-1-phenyl-
##MOLFORM=C10H10O
##CAS REGISTRY NO=769-60-8
##MP= -300
##BP= -300
##MW= 146
##$RETENTION INDEX=0
##$CONDENSED SPECTRUM=NO
##NPOINTS= 61
##XYDATA=(XY..XY) 1 
    37          1
    38          4
    39         53
    41         38
    49          0
    50         26
    51        101
    52          7
    53          1
    58          1
    59          0
    61          0
    62          3
    63          6
    64          1
    65          3
    68          0
    69         18
    72          4
    73          1
    74         11
    75          8
    76         17
    77        560
    78         41
    79          1
    86          0
    87          1
    88          0
    89          3
    90          0
    91          8
    92          0
   101          0
   102          2
   103          7
   104          1
   105        999
   106         76
   107          4
   108          0
   110          0
   113          0
   114          0
   115         17
   116          6
   117         39
   118        152
   119         16
   120          0
   127          2
   128          1
   129          1
   130          0
   131         17
   132          1
   144          0
   145         44
   146        509
   147         52
   148          3