##TITLE=Library Entry 78023
##JCAMP-DX=Revision 4.10 
##DATA TYPE=MASS SPECTRUM
##SAMPLE DESCRIPTION=LAC, NIDDK, NIH, Bethesda, MD 20892
##NAMES=HP
##CAS NAME=2-Benzoyl-3,4-diacetyl-d-galactosan
##MOLFORM=C17H18O8
##CAS REGISTRY NO=76909-70-1
##MP= -300
##BP= -300
##MW= 350
##$RETENTION INDEX=0
##$CONDENSED SPECTRUM=NO
##NPOINTS= 117
##XYDATA=(XY..XY) 1 
    41         12
    42         13
    43        494
    44         18
    45         13
    47          4
    48          1
    49          7
    50         18
    51         68
    52          4
    53          4
    54          1
    55          7
    56          2
    57          5
    59          1
    60          1
    61          2
    65          1
    68          2
    69         16
    70          8
    71          7
    72          1
    73          4
    74          4
    75          5
    76         12
    77        227
    78         17
    79          1
    80          4
    81         14
    82          2
    83          1
    84          5
    85          4
    86          4
    89          1
    91          4
    96          1
    97         32
    98         27
    99          5
   101          8
   102          2
   103          2
   105        999
   106         79
   107          4
   112         15
   113          2
   115          7
   121          1
   122          2
   123          3
   124          1
   125          3
   126         18
   127          6
   128          2
   139         26
   140         26
   141          3
   143          6
   144          3
   147          1
   149          2
   150          1
   155          3
   157          7
   158          1
   165          2
   168          2
   171          1
   173          1
   174          4
   177          3
   182          4
   183          1
   184          1
   185         10
   186         68
   187          5
   188          1
   193          4
   194          1
   199          1
   202         44
   203          7
   206          1
   207          7
   208          1
   219        111
   220         14
   221          2
   228          1
   229          2
   230          3
   231          2
   244          8
   245          3
   247          1
   248         19
   249          3
   262          1
   290        109
   291         53
   292          9
   293          1
   307         64
   308         11
   349          3
   350          5
   351          3
   352          1