##TITLE=Library Entry 28182
##JCAMP-DX=Revision 4.10 
##DATA TYPE=MASS SPECTRUM
##SAMPLE DESCRIPTION=A.A.Kutin, Moscow, Russia
##NAMES=HP
##CAS NAME=Cyclohexanone, 2-dimethylaminomethyl-4-(1,1-dimethylethyl)-
##MOLFORM=C13H25NO
##CAS REGISTRY NO=76919-81-8
##MP= -300
##BP= -300
##MW= 211
##$RETENTION INDEX=0
##$CONDENSED SPECTRUM=NO
##NPOINTS= 140
##XYDATA=(XY..XY) 1 
    35          3
    36         18
    37          0
    38          6
    39         19
    40          5
    41         68
    42         50
    43         26
    44         19
    45         13
    46          2
    50          0
    51          1
    53          9
    54          3
    55         32
    56          9
    57         87
    58        999
    59         36
    60          0
    63          0
    64          0
    65          3
    66          2
    67         12
    68          5
    69          7
    70          6
    71          3
    72          2
    73          0
    74          0
    77          6
    78          1
    79          7
    80          2
    81          8
    82          7
    83          6
    84         11
    85          1
    86          1
    91          4
    92          1
    93          2
    94          3
    95          8
    96          4
    97          2
    98         13
    99          0
   100          0
   103          0
   104          0
   105          1
   106          0
   107          1
   108          2
   109          2
   110          6
   111          1
   112          1
   113          0
   114          0
   115          0
   116          0
   117          0
   118          0
   119          0
   120          0
   121          1
   122          0
   123          2
   124          2
   125          0
   126          3
   127          0
   128          0
   129          0
   130          3
   131          0
   133          0
   134          1
   135          1
   136          1
   137          0
   138          1
   139          0
   140          1
   141          0
   142          0
   146          0
   148          0
   149          0
   150          0
   151          0
   152          3
   153          1
   154          6
   155          0
   156          0
   157          0
   158          0
   161          0
   162          0
   166          2
   167          0
   168          4
   169          0
   170          0
   171          1
   172          3
   173          0
   174          2
   175          0
   176          0
   180          0
   181          0
   182          0
   183          0
   185          0
   186          0
   192         10
   193          1
   194          2
   195          0
   196         13
   197          1
   198          0
   200          0
   208          0
   209          0
   210          7
   211         64
   212         10
   213          1
   214          0
   215          0