##TITLE=Library Entry 6045
##JCAMP-DX=Revision 4.10 
##DATA TYPE=MASS SPECTRUM
##SAMPLE DESCRIPTION=Scientific Instruments & Applications
##NAMES=HP
##CAS NAME=3-Oxo-N-(tetrahydro-2-oxo-3-furanyl)hexanamide
##MOLFORM=C10H15NO4
##CAS REGISTRY NO=76924-95-3
##MP= -300
##BP= -300
##MW= 213
##$RETENTION INDEX=0
##$CONDENSED SPECTRUM=NO
##NPOINTS= 75
##XYDATA=(XY..XY) 1 
    38         10
    39        120
    40         31
    41        301
    42        209
    43        999
    44        122
    45         10
    46          3
    48          1
    49          3
    50          4
    51          6
    52          6
    53         18
    54         20
    55         72
    56        242
    57         39
    58         63
    59          8
    65          3
    67          6
    69        105
    70          5
    71        206
    72         23
    74         26
    83         30
    84         78
    85         21
    86         15
    91          5
    92          5
    96          2
    97         12
    98         25
    99          7
   100         32
   101         95
   102         83
   103          5
   105          1
   110          1
   111          3
   112         27
   113         30
   114          3
   115          5
   125         18
   126          2
   127          2
   128          7
   129          1
   133          2
   134          4
   140          1
   141          1
   142          2
   143         32
   144          2
   149          6
   154          2
   155          8
   156          1
   161          4
   168          4
   169          3
   170          7
   184          1
   185         13
   186          1
   195          1
   213         15
   214          1