##TITLE=Library Entry 31652
##JCAMP-DX=Revision 4.10 
##DATA TYPE=MASS SPECTRUM
##SAMPLE DESCRIPTION=NIST Mass Spectrometry Data Center, 1994
##NAMES=HP
##CAS NAME=4-Chlorophenyl chloroformate
##MOLFORM=C7H4Cl2O2
##CAS REGISTRY NO=7693-45-0
##MP= -300
##BP= -300
##MW= 190
##$RETENTION INDEX=0
##$CONDENSED SPECTRUM=NO
##NPOINTS= 97
##XYDATA=(XY..XY) 1 
    12          9
    13          7
    14          0
    15          2
    17          0
    18          0
    24          4
    25         23
    26         61
    29         12
    31         56
    32          0
    35        121
    36         51
    37        221
    38        313
    39        131
    40          3
    41          7
    42          2
    44         18
    45          7
    46         11
    47         50
    48         23
    49        117
    50        214
    51         65
    52          5
    53         20
    56         42
    60         39
    61        141
    62        287
    63        999
    64        123
    65        186
    66          7
    67          1
    73        425
    74        159
    75        390
    76         47
    77         14
    78          5
    84         15
    85         26
    86          6
    87          8
    89          4
    90          1
    91          3
    92         13
    95          1
    96          3
    97         12
    98          1
    99        814
   100         63
   101        263
   102         14
   108          2
   109          7
   111        780
   112         74
   113        257
   114         18
   115          0
   127        990
   128         64
   129        309
   130         13
   131          0
   134         14
   135          3
   136         10
   137          1
   138          2
   146        290
   148        192
   149         15
   150         30
   151          2
   155        128
   156         15
   157         44
   158          3
   162         94
   164         60
   165          4
   166         10
   167          1
   190        750
   192        489
   193         42
   194         78
   195          6