##TITLE=Library Entry 31684
##JCAMP-DX=Revision 4.10 
##DATA TYPE=MASS SPECTRUM
##SAMPLE DESCRIPTION=Japan AIST/NIMC Database- Spectrum MS-IW-1184
##NAMES=HP
##CAS NAME=Carbonochloridic acid, 4-nitrophenyl ester
##MOLFORM=C7H4ClNO4
##CAS REGISTRY NO=7693-46-1
##MP= -300
##BP= -300
##MW= 201
##$RETENTION INDEX=0
##$CONDENSED SPECTRUM=NO
##NPOINTS= 95
##XYDATA=(XY..XY) 1 
    25          1
    26          9
    27          4
    28         33
    29          2
    30         61
    31          4
    35          7
    36         34
    37         15
    38         62
    39         16
    40          1
    41          1
    42          1
    43          1
    44        106
    45          2
    46          1
    49          5
    50         65
    51         20
    52         17
    53         12
    54          9
    55          3
    57          1
    60          3
    61         14
    62         40
    63        999
    64        133
    65        328
    66          5
    67          1
    68          7
    69          1
    73         17
    74         30
    75        108
    76         57
    77          5
    78          1
    79          6
    80          7
    81          3
    82          4
    89          2
    91          3
    92         75
    93          8
    94          1
    96          2
    99         52
   100          3
   101         16
   102          1
   106          3
   107          8
   108          8
   109          7
   110          2
   111         13
   112          1
   113          4
   122        296
   123         21
   124          2
   127         14
   128          1
   129          4
   138         10
   139         12
   140          1
   141          1
   143          1
   155         18
   156          2
   157         20
   158          2
   159          5
   166         52
   167          4
   168          1
   171         10
   173         15
   174          1
   175          4
   185         10
   187          3
   201        360
   202         29
   203        122
   204          9
   205          1