##TITLE=Library Entry 48051
##JCAMP-DX=Revision 4.10 
##DATA TYPE=MASS SPECTRUM
##SAMPLE DESCRIPTION=NIST Mass Spectrometry Data Center, 1994
##NAMES=HP
##CAS NAME=sec-Butyl ethyl sulfoxide
##MOLFORM=C6H14OS
##CAS REGISTRY NO=7694-18-0
##MP= -300
##BP= -300
##MW= 134
##$RETENTION INDEX=0
##$CONDENSED SPECTRUM=NO
##NPOINTS= 69
##XYDATA=(XY..XY) 1 
    12          3
    13          2
    14          4
    15         31
    17          5
    18         11
    24          3
    25         16
    26        115
    27        566
    28        155
    29        918
    30         15
    32          9
    33         14
    34         11
    35         35
    36          3
    37         18
    38         32
    39        298
    40         41
    41        996
    42         36
    43          3
    44          5
    45         49
    46         26
    47         42
    48         69
    49         41
    50        255
    51         52
    52         18
    53         43
    54         11
    55        144
    56        144
    57        338
    58         41
    59         41
    60         27
    61         86
    62         30
    63        342
    64         21
    65         15
    66          4
    71          3
    75          7
    76         25
    77         81
    78        999
    79         46
    80         44
    81          2
    88          2
    89         33
    90          3
    91          3
    94          3
    95          3
   105          2
   106         10
   118          6
   122          3
   134         59
   135          4
   136          3