##TITLE=Library Entry 76968
##JCAMP-DX=Revision 4.10 
##DATA TYPE=MASS SPECTRUM
##SAMPLE DESCRIPTION=D.HENNEBERG, MAX-PLANCK INSTITUTE, MULHEIM, WEST GERMAN
Y
##NAMES=HP
##CAS NAME=Benzene, 1,1'-(1,2-cyclobutanediyl)bis-, cis-
##MOLFORM=C16H16
##CAS REGISTRY NO=7694-30-6
##MP= -300
##BP= -300
##MW= 208
##$RETENTION INDEX=0
##$CONDENSED SPECTRUM=NO
##NPOINTS= 73
##XYDATA=(XY..XY) 1 
    24          0
    27          7
    35          0
    37          0
    38          2
    39         18
    41          2
    49          1
    50         11
    51         33
    52         13
    53          3
    54          0
    56          0
    57          2
    58          2
    59          1
    60          0
    61          1
    62          2
    63         14
    64          2
    65         10
    66          1
    67          0
    74          2
    75          5
    76         13
    77         46
    78         90
    79          7
    83          0
    86          1
    87          1
    88          3
    89         14
    90          0
    91          9
    92          0
    98          1
    99          1
   100          2
   102         21
   103         87
   104        999
   105         81
   106          3
   113          0
   114          0
   115          4
   126          1
   127          1
   128          2
   129          0
   139          1
   149          0
   150          0
   151          1
   152          1
   153          1
   163          0
   165          3
   166          0
   176          1
   177          2
   178          6
   179          5
   180          2
   189          1
   191          0
   201          0
   208          2
   209          0