##TITLE=Library Entry 33482
##JCAMP-DX=Revision 4.10 
##DATA TYPE=MASS SPECTRUM
##SAMPLE DESCRIPTION=NIST Mass Spectrometry Data Center
##NAMES=HP
##CAS NAME=1-Cyclohexene-1-carboxylic acid, 4-(1-methylethenyl)-
##MOLFORM=C10H14O2
##CAS REGISTRY NO=7694-45-3
##MP= -300
##BP= -300
##MW= 166
##$RETENTION INDEX=1484
##$CONDENSED SPECTRUM=NO
##NPOINTS= 104
##XYDATA=(XY..XY) 1 
    26          1
    27         30
    28          5
    29         17
    31          3
    37          2
    38          7
    39        121
    40         37
    41        108
    42         21
    44          3
    45         26
    46          1
    47          1
    49          1
    50         22
    51         70
    52         36
    53        176
    54         16
    55         57
    56          5
    57          5
    59         31
    60          2
    61          2
    62          7
    63         24
    64          6
    65         73
    66         44
    67        560
    68        999
    69         66
    70          4
    73          4
    74         15
    75         14
    76          6
    77        214
    78         55
    79        386
    80         43
    81        101
    82         14
    83          5
    86          3
    87          2
    88          1
    89          6
    90          2
    91        141
    92         34
    93        155
    94         37
    95         11
    97          6
    98          5
    99          4
   101          1
   102          4
   103         26
   104          9
   105        187
   106         40
   107         53
   110         60
   111         22
   112          5
   115         13
   116          4
   117         11
   118          3
   119         25
   120         40
   121        477
   122        305
   123        311
   124        158
   125         19
   129          1
   130          1
   131          4
   132          1
   133         27
   134          3
   135          2
   136          4
   137         29
   138         54
   139          5
   145          1
   146          1
   147          3
   148         18
   149          7
   150          5
   151         65
   152          5
   165          2
   166        156
   167         16
   168          2