##TITLE=Library Entry 12102
##JCAMP-DX=Revision 4.10 
##DATA TYPE=MASS SPECTRUM
##SAMPLE DESCRIPTION=Chemical Concepts
##NAMES=HP
##CAS NAME=1,1,1-Trifluoro-2-(4-methylphenyl)propan-2-ol
##MOLFORM=C10H11F3O
##CAS REGISTRY NO=76953-97-4
##MP= -300
##BP= -300
##MW= 204
##$RETENTION INDEX=0
##$CONDENSED SPECTRUM=NO
##NPOINTS= 74
##XYDATA=(XY..XY) 1 
    27         56
    28          8
    31          6
    37          5
    38         14
    39        127
    40          4
    41         38
    42          6
    43        999
    44         63
    45         16
    50         44
    51         94
    52         17
    53         18
    55          5
    57         12
    59         27
    61          6
    62         32
    63        101
    64         26
    65        150
    66         25
    67         54
    69         61
    74          9
    75         18
    77         62
    78         17
    79         14
    81          6
    83          5
    85          3
    86          6
    87          8
    89         49
    90         33
    91        328
    92         53
    93         21
    95          3
    97          4
   101         12
   102          9
   104          6
   105         29
   107          6
   109         11
   115         36
   116         10
   117         25
   118          9
   119        221
   120         18
   121         12
   123         11
   125          2
   127          4
   131          1
   133         13
   134         17
   135        959
   136        115
   137         34
   141         22
   145          4
   164          2
   165         19
   168          4
   189         19
   204        213
   205         25