##TITLE=Library Entry 9810
##JCAMP-DX=Revision 4.10 
##DATA TYPE=MASS SPECTRUM
##SAMPLE DESCRIPTION=NIST Mass Spectrometry Data Center, 1990.
##NAMES=HP
##CAS NAME=3-Methyl-3-hexen-2-ol
##MOLFORM=C7H14O
##CAS REGISTRY NO=76966-27-3
##MP= -300
##BP= -300
##MW= 114
##$RETENTION INDEX=0
##$CONDENSED SPECTRUM=NO
##NPOINTS= 41
##XYDATA=(XY..XY) 1 
    14         19
    15         61
    26         26
    27        205
    28        144
    29        154
    31         27
    32         24
    39        317
    40         53
    41        389
    43        999
    44         42
    45        200
    50         42
    51         67
    52         31
    53        158
    54         49
    55        272
    57        244
    63         21
    65         56
    66         26
    67        202
    68         27
    69         74
    70         31
    71         75
    72         64
    77         41
    79        162
    81        351
    82         25
    83         19
    85        752
    86         55
    96         80
    97         23
    99        128
   114        124