##TITLE=Library Entry 66536
##JCAMP-DX=Revision 4.10 
##DATA TYPE=MASS SPECTRUM
##SAMPLE DESCRIPTION=RH-9
##NAMES=HP
##CAS NAME=Bicyclo[2.2.2]octane, 1-chloro-4-methyl-
##MOLFORM=C9H15Cl
##CAS REGISTRY NO=7697-06-5
##MP= -300
##BP= -300
##MW= 158
##$RETENTION INDEX=0
##$CONDENSED SPECTRUM=NO
##NPOINTS= 81
##XYDATA=(XY..XY) 1 
    14         20
    15        185
    16          6
    17          8
    18         24
    26        150
    27        634
    28        426
    29        288
    37         51
    38        115
    39        810
    40        159
    41        459
    42         54
    43         25
    49         93
    50        143
    51        288
    52        111
    53        450
    54        123
    55        263
    56         24
    61         46
    62         55
    63        126
    64         25
    65        215
    66         71
    67        307
    68        241
    69         57
    70         54
    71         15
    73         28
    74         23
    75         80
    76         17
    77        370
    78         96
    79        552
    80        139
    81        290
    82         39
    88         52
    89         51
    90         29
    91        273
    92        156
    93        999
    94        306
    95        148
    96         18
   101         51
   102         18
   103         31
   104          9
   105         37
   106          9
   107        346
   108         40
   109         30
   113         12
   115         22
   116          8
   117          8
   120          8
   121         28
   122        937
   123        473
   124         48
   128          5
   129         16
   130          5
   131          3
   143          7
   158        151
   159         19
   160         54
   161          8