##TITLE=Library Entry 85730
##JCAMP-DX=Revision 4.10 
##DATA TYPE=MASS SPECTRUM
##SAMPLE DESCRIPTION=RH-3
##NAMES=HP
##CAS NAME=Bicyclo[2.2.2]octane, 1-bromo-
##MOLFORM=C8H13Br
##CAS REGISTRY NO=7697-09-8
##MP= -300
##BP= -300
##MW= 188
##$RETENTION INDEX=0
##$CONDENSED SPECTRUM=NO
##NPOINTS= 76
##XYDATA=(XY..XY) 1 
    14          4
    15         51
    16          2
    17          2
    18          3
    25          3
    26         48
    27        199
    28         72
    29         55
    30          2
    37         16
    38         44
    39        321
    40         67
    41        183
    42         19
    43         28
    49         10
    50         73
    51        123
    52         61
    53        164
    54         60
    55        100
    56          6
    61         10
    62         16
    63         39
    64         10
    65         89
    66         53
    67        563
    68         62
    69         19
    74         14
    75         17
    76          9
    77        176
    78         68
    79        279
    80        118
    81        247
    82         24
    83         10
    91         70
    92         12
    93         52
    94         25
    95         14
   105         11
   107         33
   108         32
   109        999
   110         91
   111          5
   116          1
   118          2
   120          5
   122          3
   132          1
   133          6
   134          2
   135          5
   136          1
   145          4
   146          9
   147          2
   148          9
   149          1
   159          1
   161          1
   188         10
   189          1
   190         10
   191          1