##TITLE=Library Entry 43284
##JCAMP-DX=Revision 4.10 
##DATA TYPE=MASS SPECTRUM
##SAMPLE DESCRIPTION=Chemical Concepts
##NAMES=HP
##CAS NAME=4-Phenyl-3-buten-2-ol, (E)-, TMS derivative
##MOLFORM=C13H20OSi
##CAS REGISTRY NO=76987-16-1
##MP= -300
##BP= -300
##MW= 220
##$RETENTION INDEX=0
##$CONDENSED SPECTRUM=NO
##NPOINTS= 153
##XYDATA=(XY..XY) 1 
    26          2
    27         34
    28          2
    29          9
    30          0
    31          6
    37          0
    38          2
    39         34
    41         19
    42          3
    43        114
    44         21
    45        114
    46          7
    47         40
    48          2
    49          1
    50         13
    51         56
    52         14
    53         30
    54          2
    55         34
    56          1
    57          7
    58         11
    59         31
    60          5
    61         23
    62          6
    63         22
    64          7
    65         33
    66          5
    67          1
    68          0
    69          3
    70          1
    71          3
    72         13
    73        999
    74         87
    75        467
    76         44
    77        105
    78         41
    79         33
    80          2
    81          1
    82          5
    83          2
    84          0
    85          3
    86          1
    87          4
    88          3
    89         17
    90          2
    91        216
    92         20
    93          1
    94          3
    95         19
    96          0
    97          1
    98          1
    99          2
   100          0
   101         27
   102         21
   103         59
   104         25
   105        165
   106         26
   107          4
   108          0
   111          2
   112          0
   113          2
   114          2
   115        162
   116         71
   117         31
   118          5
   119          5
   120          1
   121          8
   122          0
   124          0
   125          0
   126          2
   127         28
   128         49
   129        110
   130        136
   131        246
   132         27
   133         56
   134          5
   135         58
   136          8
   137          3
   138          0
   141          1
   142          1
   143         32
   144          5
   145         10
   146          2
   147         15
   148         97
   149         12
   150          1
   157          0
   158          0
   159          3
   160          0
   161          8
   162          3
   163          2
   164          0
   165          0
   171          0
   172          0
   173          0
   175          6
   176          0
   177          3
   178          0
   179          8
   180          1
   181          0
   187         14
   188          2
   189         11
   190          3
   191          2
   192          0
   193          3
   201          0
   203          4
   204          1
   205        878
   206        167
   207         44
   208          5
   218          0
   219         82
   220        481
   221         95
   222         27
   223          2