##TITLE=Library Entry 30445
##JCAMP-DX=Revision 4.10 
##DATA TYPE=MASS SPECTRUM
##SAMPLE DESCRIPTION=Chemical Concepts
##NAMES=HP
##CAS NAME=2-Pentenedioic acid, 4-methyl-, dimethyl ester
##MOLFORM=C8H12O4
##CAS REGISTRY NO=76999-56-9
##MP= -300
##BP= -300
##MW= 172
##$RETENTION INDEX=0
##$CONDENSED SPECTRUM=NO
##NPOINTS= 90
##XYDATA=(XY..XY) 1 
    26         80
    27        398
    28         66
    29        129
    30         20
    31         45
    33         12
    34          2
    36          4
    37         15
    38         44
    39        377
    40          7
    41        350
    42         30
    43         92
    44         17
    45        108
    46          4
    47          2
    48          1
    49          6
    50         48
    51        111
    52         69
    53        634
    54        262
    55        344
    56         63
    57         53
    58         15
    59        999
    60         24
    61          4
    63          1
    64          2
    65          8
    66         12
    67         24
    68         30
    69        130
    70         18
    71        116
    72         13
    73          7
    74         50
    75         10
    77          4
    79          8
    80         18
    81        632
    82        378
    83         72
    84         12
    85        506
    86         33
    87         22
    88         12
    89          6
    91          2
    95         17
    96          6
    97        136
    98         30
    99         50
   100          7
   101         20
   108         14
   109         15
   110          4
   111         19
   112        380
   113        963
   114         60
   115         12
   116          4
   117         44
   125          3
   127         33
   128        152
   129         18
   130          6
   140        585
   141        237
   142         20
   143          2
   144          5
   157         37
   158          3
   172          3