##TITLE=Library Entry 30863
##JCAMP-DX=Revision 4.10 
##DATA TYPE=MASS SPECTRUM
##SAMPLE DESCRIPTION=LAC, NIDDK, NIH, Bethesda, MD 20892
##NAMES=HP
##CAS NAME=Stevioside
##MOLFORM=C38H60O18
##CAS REGISTRY NO=77-05-4
##MP= -300
##BP= -300
##MW= 804
##$RETENTION INDEX=0
##$CONDENSED SPECTRUM=NO
##NPOINTS= 122
##XYDATA=(XY..XY) 1 
    41        340
    42        381
    43        897
    44        378
    45        381
    46         18
    47         98
    49         41
    51         22
    52         20
    53         65
    54         46
    55        376
    56        268
    57        591
    58        155
    59         98
    60        999
    61        231
    65          9
    67         67
    68         51
    69        189
    70        155
    71        189
    72        138
    73        625
    74        154
    75         17
    77         27
    79         53
    80         40
    81         69
    82         11
    83         28
    84         57
    85        196
    86         66
    87        151
    88         27
    89         75
    90         51
    91        168
    92          9
    93         40
    94         10
    95         53
    96         35
    97        122
    98        130
    99         34
   100         15
   101         54
   102        121
   103         57
   104          9
   105         37
   106         11
   107         49
   108         30
   109         51
   110          8
   111          7
   113         97
   114         76
   115         70
   116         20
   117         20
   118          6
   119         32
   120         12
   121        161
   122         28
   123         31
   124          8
   125         18
   126         54
   127         46
   128          9
   129         17
   131         36
   132         34
   133         40
   134         23
   135         24
   136          7
   137         11
   139          7
   142         13
   143          7
   144        135
   145         92
   146         23
   147         27
   148          7
   149         11
   150          9
   151          8
   152          7
   159         11
   161         11
   162         26
   163         36
   164          8
   165         21
   166         31
   167          9
   173         10
   185          8
   189          6
   199          6
   214          6
   254         10
   255         11
   260         14
   272          7
   285          8
   300         27
   301         22
   318         83
   319         26
   436         19