##TITLE=Library Entry 30595
##JCAMP-DX=Revision 4.10 
##DATA TYPE=MASS SPECTRUM
##SAMPLE DESCRIPTION=NIST Mass Spectrometry Data Center
##NAMES=HP
##CAS NAME=Levorphanol
##MOLFORM=C17H23NO
##CAS REGISTRY NO=77-07-6
##MP= -300
##BP= -300
##MW= 257
##$RETENTION INDEX=2225
##$CONDENSED SPECTRUM=NO
##NPOINTS= 198
##XYDATA=(XY..XY) 1 
    15          5
    26          1
    27         21
    28         16
    29         26
    30        107
    31        165
    32          2
    38          2
    39         49
    40          6
    41         92
    42        305
    43         44
    44        210
    45          8
    46          1
    50          6
    51         42
    52         17
    53         46
    54         17
    55         84
    56         38
    57         51
    58        172
    59        999
    60         56
    61          1
    62          5
    63         25
    64          8
    65         51
    66         15
    67         47
    68         26
    69         14
    70         67
    71         10
    72          9
    74          3
    75          9
    76         14
    77        123
    78         35
    79         65
    80         19
    81         45
    82        123
    83         32
    84         22
    85          7
    87          3
    88          5
    89         27
    91        121
    92         23
    93         28
    94         80
    95         35
    96         34
    97         16
    99         19
   101         13
   102         26
   103         53
   104         16
   105         46
   106         24
   107        117
   108         67
   109         23
   110         17
   111          4
   112          3
   114         13
   115        226
   116         62
   117         53
   118         21
   119         25
   120         54
   121         44
   122         59
   123         46
   124         56
   125          6
   126         14
   127        148
   128        232
   129        110
   130         28
   131        119
   132         65
   133         68
   134         41
   135         11
   136         31
   137          8
   138          5
   139         30
   140         11
   141         88
   142         34
   143         28
   144        109
   145        117
   146         74
   147         92
   148        147
   149         32
   150        848
   151        109
   152         64
   153         53
   154         25
   155         31
   156         17
   157        527
   158        241
   159         66
   160        147
   161         70
   162         25
   163          5
   164          5
   165         40
   166         15
   167         18
   168         19
   169         51
   170         88
   171        110
   172         51
   173         23
   174         40
   175         11
   176          6
   177          3
   178          7
   179         10
   180          5
   181         26
   182         16
   183         34
   184         31
   185         36
   186         34
   187         18
   188         47
   189        217
   190         30
   191          3
   193          1
   194          2
   195          6
   196          9
   197         26
   198        120
   199        151
   200        356
   201         56
   202         15
   203          2
   204          1
   208          1
   209          1
   210          5
   211          5
   212         21
   213         13
   214         74
   215         22
   216          6
   217          1
   222          1
   224          2
   225          2
   226         10
   227          4
   228        107
   229         23
   230          2
   238          1
   240          9
   241          2
   242         70
   243         13
   244          1
   251          1
   252          1
   254          6
   255         13
   256        543
   257        753
   258        147
   259         15
   260          1