##TITLE=Library Entry 29261
##JCAMP-DX=Revision 4.10 
##DATA TYPE=MASS SPECTRUM
##SAMPLE DESCRIPTION=HOME OFFICE, CENTRAL RES. EST., ALDERMASTON, BERKS., U.
K.
##NAMES=HP
##CAS NAME=Proheptazine
##MOLFORM=C17H25NO2
##CAS REGISTRY NO=77-14-5
##MP= -300
##BP= -300
##MW= 275
##$RETENTION INDEX=1929
##$CONDENSED SPECTRUM=NO
##NPOINTS= 72
##XYDATA=(XY..XY) 1 
    27         30
    28         60
    29         60
    30         10
    32         10
    39         20
    41         50
    42        150
    43         50
    44        140
    45         10
    51         10
    53         20
    56         10
    57        300
    58        999
    59         20
    65         10
    70         40
    71         50
    72         10
    73         10
    74         10
    77         70
    78         10
    79         40
    80         90
    81         40
    82        100
    83         10
    84        140
    85         10
    91         90
    92         10
    96         10
   101         10
   103         10
   105         60
   106         10
   115         40
   116         20
   117         40
   118         10
   124         20
   127         10
   128         10
   129         30
   130         20
   131         30
   132         10
   141         10
   142         10
   143         20
   144         10
   147         10
   157         10
   158         20
   159         10
   160         20
   172         20
   173         20
   174         10
   175         10
   186        120
   187         20
   200         10
   201        150
   202        360
   203         60
   218         60
   219         10
   275         10