##TITLE=Library Entry 56492
##JCAMP-DX=Revision 4.10 
##DATA TYPE=MASS SPECTRUM
##SAMPLE DESCRIPTION=Japan AIST/NIMC Database- Spectrum MS-IW-3279
##NAMES=HP
##CAS NAME=Dicyclomine
##MOLFORM=C19H35NO2
##CAS REGISTRY NO=77-19-0
##MP= -300
##BP= -300
##MW= 309
##$RETENTION INDEX=2095
##$CONDENSED SPECTRUM=NO
##NPOINTS= 67
##XYDATA=(XY..XY) 1 
    27          4
    28          9
    29         14
    30         17
    39          4
    40          1
    41         27
    42         12
    43          6
    44         32
    45          2
    53          5
    54          4
    55         45
    56         17
    57          8
    58         33
    59          1
    65          1
    66          1
    67         12
    68          2
    69          7
    70          9
    71         40
    72         21
    73          4
    77          2
    79          6
    80          1
    81         15
    82          3
    83         29
    84         15
    85          4
    86        999
    87         62
    88          1
    91          1
    93          1
    95          6
    97          3
    98          1
    99        262
   100         69
   101          4
   102          1
   109          7
   110          1
   114          4
   116          1
   123          1
   125          1
   128          2
   153          2
   155          5
   165         10
   166          1
   193          1
   225          1
   227          4
   237          9
   238          1
   294          5
   295          1
   308          2
   309          4