##TITLE=Library Entry 27188
##JCAMP-DX=Revision 4.10 
##DATA TYPE=MASS SPECTRUM
##SAMPLE DESCRIPTION=AAFS Toxicology Section MS DB Committee, U. Alberta, Ca
nada
##NAMES=HP
##CAS NAME=Ethoheptazine
##MOLFORM=C16H23NO2
##CAS REGISTRY NO=77-15-6
##MP= -300
##BP= -300
##MW= 261
##$RETENTION INDEX=1853
##$CONDENSED SPECTRUM=NO
##NPOINTS= 109
##XYDATA=(XY..XY) 1 
    39         20
    40         10
    41         47
    42        286
    43         92
    44        147
    45         10
    51         37
    53         16
    54         10
    55         27
    56         25
    57        999
    58        442
    59         22
    63         25
    65         48
    67         29
    68         15
    70        518
    71        207
    72        106
    73         10
    76         16
    77        141
    78         36
    79         23
    82         73
    83         45
    84        559
    85        268
    86         22
    89         32
    91        321
    92         30
    94         36
    95         16
    96         52
    97         38
    98        147
    99         18
   102         51
   103        221
   104         64
   105         66
   106          9
   108         10
   110        238
   111         22
   113         17
   115        331
   116        108
   117        127
   118         31
   119         15
   120         14
   124         21
   126         11
   127         43
   128        136
   129        127
   130         49
   131         65
   132         26
   133         11
   134         10
   140         56
   141         30
   142         64
   143         49
   144         25
   145         43
   146         58
   147         15
   154         54
   155        198
   156         38
   157         22
   158         57
   159         78
   160         80
   161         19
   162         11
   168         10
   169         87
   170         48
   172         18
   173         12
   174         16
   183         48
   184         38
   186         55
   187         16
   188        649
   189        100
   190         22
   204        105
   205         16
   216        128
   217         25
   218         21
   232         54
   233         25
   246        148
   247         23
   260         89
   261        369
   262         74
   263         10