##TITLE=Library Entry 23911
##JCAMP-DX=Revision 4.10 
##DATA TYPE=MASS SPECTRUM
##SAMPLE DESCRIPTION=NIST Mass Spectrometry Data Center
##NAMES=HP
##CAS NAME=4-Piperidinecarboxylic acid, 4-phenyl-, ethyl ester
##MOLFORM=C14H19NO2
##CAS REGISTRY NO=77-17-8
##MP= -300
##BP= -300
##MW= 233
##$RETENTION INDEX=1754
##$CONDENSED SPECTRUM=NO
##NPOINTS= 138
##XYDATA=(XY..XY) 1 
    15          2
    26          3
    27         26
    28         45
    29         61
    30         51
    31          3
    38          1
    39         18
    40          2
    41         14
    42        363
    43        251
    44         25
    45          4
    46          1
    50         11
    51         41
    52         12
    53         34
    54         10
    55         13
    56        336
    57        999
    58         39
    59          3
    62          3
    63         16
    64          5
    65         25
    66          3
    67          4
    68          9
    69          3
    70          8
    71          2
    72          7
    74          6
    75          7
    76         12
    77        100
    78         26
    79         12
    80         29
    81          5
    82         61
    83          7
    84          1
    85          1
    86          1
    87          2
    88          2
    89         14
    90          5
    91        158
    92         14
    93          2
    94          1
    96          3
    98          1
    99          5
   100          5
   101          5
   102         36
   103        180
   104         32
   105         26
   106         11
   107          3
   108          2
   109          1
   110          4
   112          3
   113          2
   114          6
   115        112
   116         48
   117         55
   118         17
   119          7
   120         11
   121          3
   124          1
   126         51
   127         25
   128         55
   129         60
   130         57
   131        101
   132         33
   133          8
   134          1
   135          1
   136          2
   140          1
   141         12
   142         12
   143         25
   144         26
   145         20
   146          5
   147          2
   148          2
   149          9
   150          2
   154          4
   155         18
   156         11
   157          4
   158        181
   159         70
   160        129
   161         23
   162         12
   163          2
   164          2
   170          1
   174          1
   175          1
   176         11
   177          5
   178          1
   186          5
   187         66
   188         15
   189          2
   190          7
   191          2
   204         44
   205          8
   206          1
   218         11
   219          2
   231          1
   232         17
   233        218
   234         34
   235          4