##TITLE=Library Entry 56481
##JCAMP-DX=Revision 4.10 
##DATA TYPE=MASS SPECTRUM
##SAMPLE DESCRIPTION=Tox21 Consortium/NIST Mass Spectrometry Data Center, 20
12
##NAMES=HP
##CAS NAME=Cyclopentanecarboxylic acid, 1-phenyl-, 2-(diethylamino)ethyl est
er
##MOLFORM=C18H27NO2
##CAS REGISTRY NO=77-22-5
##MP= -300
##BP= -300
##MW= 289
##$RETENTION INDEX=1981
##$CONDENSED SPECTRUM=NO
##NPOINTS= 86
##XYDATA=(XY..XY) 1 
    18          1
    26          1
    27          5
    28          9
    29         15
    30         22
    39          7
    40          1
    41         16
    42         26
    43          6
    44         30
    45          3
    50          1
    51          6
    52          2
    53          2
    54          3
    55          3
    56         31
    57         16
    58         42
    59          2
    62          1
    63          3
    64          1
    65          7
    66          2
    67         16
    68          2
    69          1
    70         13
    71         24
    72         11
    73         10
    74          1
    75          1
    76          1
    77         14
    78          5
    79          2
    84         21
    86        999
    87         60
    88          2
    89          5
    91        125
    92         10
    93          1
    95          1
    96          1
    97          1
    99        137
   100         29
   101          2
   102          6
   103         20
   104          4
   105          5
   106          1
   114          2
   115         34
   116         12
   117          9
   118          1
   126          1
   127          4
   128         15
   129         10
   130          3
   131          1
   139          1
   141          3
   142          2
   143          6
   144          4
   145         48
   146          6
   149          2
   175          1
   217         10
   218          1
   274          4
   275          1
   288          1
   289          1