##TITLE=Library Entry 97710
##JCAMP-DX=Revision 4.10 
##DATA TYPE=MASS SPECTRUM
##SAMPLE DESCRIPTION=NIST Mass Spectrometry Data Center
##NAMES=HP
##CAS NAME=Glutethimide
##MOLFORM=C13H15NO2
##CAS REGISTRY NO=77-21-4
##MP= -300
##BP= -300
##MW= 217
##$RETENTION INDEX=1849
##$CONDENSED SPECTRUM=NO
##NPOINTS= 139
##XYDATA=(XY..XY) 1 
    15          1
    26          4
    27         34
    28         16
    29         16
    30          5
    37          1
    38          5
    39         72
    40          9
    41         33
    42         29
    43          9
    44         22
    45          2
    46          1
    49          1
    50         32
    51        104
    52         27
    53         33
    54         37
    55         51
    56          6
    58         19
    59         28
    60          1
    61          2
    62         15
    63         61
    64         22
    65         70
    66          8
    67         13
    68          4
    69          5
    70         11
    71          6
    72          4
    73          7
    74         13
    75         19
    76         27
    77        159
    78         89
    79         23
    80          6
    82         33
    83          2
    84          2
    85          1
    86          4
    87         10
    88          6
    89         80
    90         17
    91        304
    92         27
    93          3
    94          2
    95          2
    96          1
    97          1
    98          4
    99          1
   100          2
   101          7
   102         59
   103        185
   104         58
   105         51
   106          8
   107          2
   110          1
   111          1
   112          5
   113          8
   114          8
   115        450
   116        121
   117        999
   118        141
   119         17
   120          7
   121          1
   126          6
   127         22
   128         64
   129         87
   130         47
   131        120
   132        591
   133         68
   134          6
   135          2
   139          2
   140          5
   141          5
   142          5
   143         18
   144         23
   145         32
   146         68
   147         25
   148          3
   153          1
   154          1
   155          1
   156          3
   157         72
   158         12
   159         29
   160        418
   161        110
   162         12
   163          1
   170          1
   171          4
   172         22
   173          7
   174         20
   175          5
   176          1
   184          1
   185          6
   186          1
   187          2
   188         33
   189        952
   190        118
   191         10
   192          1
   200          1
   202         44
   203          6
   216          1
   217         65
   218         10
   219          1