##TITLE=Library Entry 403
##JCAMP-DX=Revision 4.10 
##DATA TYPE=MASS SPECTRUM
##SAMPLE DESCRIPTION=NIST Mass Spectrometry Data Center, 1994
##NAMES=HP
##CAS NAME=Diethyl diethylmalonate
##MOLFORM=C11H20O4
##CAS REGISTRY NO=77-25-8
##MP= -300
##BP= -300
##MW= 216
##$RETENTION INDEX=0
##$CONDENSED SPECTRUM=NO
##NPOINTS= 95
##XYDATA=(XY..XY) 1 
    12          1
    14          5
    15         44
    16          0
    27        367
    28         70
    29        999
    30         31
    31         31
    36          0
    37          2
    39        118
    41        288
    42         51
    43        165
    44          0
    45        204
    46          6
    47          2
    49          0
    50          3
    51          7
    52          0
    53         53
    54          0
    55        205
    56         20
    57         88
    58          8
    59         44
    60          2
    62          0
    63          0
    65          5
    66          4
    67         27
    68          0
    69        271
    70         29
    71         42
    72          0
    73        124
    74          7
    75          1
    77          0
    79          1
    81         11
    83        111
    84          9
    85         14
    86         33
    87         73
    88          8
    89          1
    95         14
    96         24
    97        102
    98         68
    99        127
   100          1
   101        211
   102         12
   103          1
   109          2
   113         42
   114        109
   115        255
   116         47
   117          4
   124          2
   127         48
   129        199
   130         15
   131          1
   141         71
   142        142
   143        189
   144         64
   145          8
   146          0
   155          3
   157         16
   158          1
   159          1
   160          1
   171        160
   173        209
   174         17
   175          2
   188        356
   189         37
   190          4
   201          1
   216          0
   217          1