##TITLE=Library Entry 56748
##JCAMP-DX=Revision 4.10 
##DATA TYPE=MASS SPECTRUM
##SAMPLE DESCRIPTION=Japan AIST/NIMC Database- Spectrum MS-IW-8082
##NAMES=HP
##CAS NAME=Carbetapentane
##MOLFORM=C20H31NO3
##CAS REGISTRY NO=77-23-6
##MP= -300
##BP= -300
##MW= 333
##$RETENTION INDEX=2233
##$CONDENSED SPECTRUM=NO
##NPOINTS= 63
##XYDATA=(XY..XY) 1 
    27          3
    28          9
    29          7
    30         17
    39          5
    40          3
    41          8
    42          9
    43          6
    44         22
    45          3
    51          1
    55          2
    56         12
    57          8
    58         39
    59          1
    65          2
    67         11
    68          3
    69          1
    70          6
    71          5
    72         10
    73          9
    77          3
    78          1
    84          8
    85          3
    86        999
    87         60
    88          2
    89          1
    91         55
    92          4
    98          2
    99          5
   100         17
   101          1
   102          2
   103          4
   105          1
   114          2
   115          7
   116          3
   117          3
   127          1
   128          5
   129          4
   130          2
   141          1
   142          1
   143          3
   144         68
   145         29
   146          3
   149          1
   217          6
   318          9
   319          2
   332          4
   333          2
   334          1