##TITLE=Library Entry 29170
##JCAMP-DX=Revision 4.10 
##DATA TYPE=MASS SPECTRUM
##SAMPLE DESCRIPTION=AAFS Toxicology Section MS DB Committee, U. Alberta, Ca
nada
##NAMES=HP
##CAS NAME=Ethylamine, 2-[1-(p-chlorophenyl)-1-phenylethoxy]-N,N-dimethyl-
##MOLFORM=C18H22ClNO
##CAS REGISTRY NO=77-38-3
##MP= -300
##BP= -300
##MW= 303
##$RETENTION INDEX=2085
##$CONDENSED SPECTRUM=NO
##NPOINTS= 84
##XYDATA=(XY..XY) 1 
    39          2
    41          1
    42         27
    43         12
    44          8
    45          1
    50          2
    51         10
    52          1
    55          1
    56         11
    57         12
    58        999
    59         38
    63          3
    65          2
    70          6
    71          6
    72         20
    73          5
    74          3
    75         12
    76          9
    77         35
    78          5
    82          2
    85          1
    86          5
    87          2
    88         18
    89         16
    90          2
    91          2
    99          1
   101         18
   102         24
   103         45
   104          4
   105          7
   111          9
   112          1
   113          4
   114          1
   115          4
   125          1
   126          2
   127          2
   128          2
   136          1
   137         19
   138          4
   139         17
   140          2
   141          3
   146          1
   149          1
   150          3
   151          7
   152         11
   153          3
   163          7
   164          6
   165         52
   166          9
   167          1
   175          1
   176         11
   177          7
   178         48
   179         43
   180         21
   181          3
   194          1
   199          5
   200          1
   201          3
   214          6
   215         21
   216          6
   217          8
   218          1
   303         13
   304          3
   305          4