##TITLE=Library Entry 71695
##JCAMP-DX=Revision 4.10 
##DATA TYPE=MASS SPECTRUM
##SAMPLE DESCRIPTION=Patti Price, Georgia Bureau of Investigation, Decatur,
 Georgia
##NAMES=HP
##CAS NAME=1-Piperidinepropanol, .alpha.-cyclopentyl-.alpha.-phenyl-
##MOLFORM=C19H29NO
##CAS REGISTRY NO=77-39-4
##MP= -300
##BP= -300
##MW= 287
##$RETENTION INDEX=2132
##$CONDENSED SPECTRUM=NO
##NPOINTS= 110
##XYDATA=(XY..XY) 1 
    41         11
    44          7
    50          1
    51          3
    52          1
    53          3
    54          3
    55         25
    56          9
    57          3
    58          1
    63          1
    64          1
    65          3
    66          1
    67          7
    68          5
    69         35
    70         24
    71          1
    72          1
    73          1
    74          1
    76          1
    77         30
    78          8
    79         10
    80          1
    81          1
    82          3
    83          4
    84         22
    85         23
    86          2
    87          1
    89          1
    90          1
    91         21
    92          2
    93          1
    94          1
    95          1
    96         25
    97         12
    98        999
    99         70
   100          2
   101          1
   102          1
   103          6
   104          2
   105         28
   106          2
   107          7
   108          1
   110          3
   111          2
   112         22
   113          8
   114          9
   115         10
   116          2
   117          4
   118          1
   119          1
   120          1
   121          1
   124          1
   125          1
   126          1
   127          2
   128          4
   129          6
   130          1
   131          4
   132          1
   133          5
   134          1
   138          1
   140          1
   141          2
   142          3
   143          3
   144          1
   174          1
   175          3
   176          4
   177          1
   210          5
   211          1
   216         16
   217          3
   218        145
   219         54
   220          6
   221          1
   226          1
   228          1
   230          1
   242          1
   244          1
   269         12
   270          9
   271          1
   272          1
   284          1
   285          1
   286          2
   287          1
   288          1