##TITLE=Library Entry 2090
##JCAMP-DX=Revision 4.10 
##DATA TYPE=MASS SPECTRUM
##SAMPLE DESCRIPTION=Chemical Concepts
##NAMES=HP
##CAS NAME=2-Nitro-2-methyl-1,3-propanediol
##MOLFORM=C4H9NO4
##CAS REGISTRY NO=77-49-6
##MP= -300
##BP= -300
##MW= 135
##$RETENTION INDEX=0
##$CONDENSED SPECTRUM=NO
##NPOINTS= 48
##XYDATA=(XY..XY) 1 
    25          4
    26         26
    27        195
    28        126
    29        406
    30        295
    31        515
    33          2
    36          2
    37         13
    38         34
    39        323
    40        106
    41        999
    42        135
    43        436
    44         28
    45         41
    46         14
    47         26
    48         10
    49          2
    50          2
    51          4
    52          3
    53         14
    54          5
    55         28
    56          8
    57        157
    58        262
    59        262
    60         12
    69         43
    70        109
    71        240
    72         14
    73         16
    75          7
    76         44
    77          2
    85          3
    87         18
    88         29
    89         11
   104          0
   105         28
   106          1