##TITLE=Library Entry 66513
##JCAMP-DX=Revision 4.10 
##DATA TYPE=MASS SPECTRUM
##SAMPLE DESCRIPTION=R. RYHAGE KAROLINSKA INSTITUTET, STOCKHOLM
##NAMES=HP
##CAS NAME=.beta.-Santalol
##MOLFORM=C15H24O
##CAS REGISTRY NO=77-42-9
##MP= -300
##BP= -300
##MW= 220
##$RETENTION INDEX=1715
##$CONDENSED SPECTRUM=NO
##NPOINTS= 112
##XYDATA=(XY..XY) 1 
    14         13
    15         13
    16         13
    17         50
    18        338
    26         13
    27         19
    29         56
    30         13
    31         13
    39         19
    40         38
    41        125
    42         13
    43        250
    44         81
    45         13
    53         19
    55        344
    56         25
    57         38
    58         13
    65         13
    66         25
    67        144
    68         56
    69        130
    70         19
    71         50
    72         19
    73         19
    77        100
    78         25
    79        331
    80         69
    81        138
    82         50
    83         38
    84         75
    85         19
    91        274
    92        119
    93        999
    94        625
    95        231
    96         44
    97         38
    98         19
   100         50
   103         19
   104         13
   105        200
   106         94
   107        250
   108        100
   109        100
   110         38
   111         25
   112         13
   113         16
   117         50
   118         38
   119        213
   120         94
   121        688
   122        219
   123         88
   124         25
   125         25
   128         13
   129         13
   130         19
   131         75
   132         63
   133         75
   134         81
   135         75
   136         25
   137         38
   138         13
   143         13
   145         56
   146         44
   147         50
   148         25
   149         25
   150         13
   151         25
   152         13
   153         13
   157         13
   159         63
   160         19
   161         38
   162         25
   163         25
   164         13
   173         19
   174         25
   175         13
   177         13
   187         44
   188         13
   189         25
   202         63
   203         19
   205         13
   207         38
   208         13
   209         13
   218         13
   220         19