##TITLE=Library Entry 91132
##JCAMP-DX=Revision 4.10 
##DATA TYPE=MASS SPECTRUM
##SAMPLE DESCRIPTION=LAC, NIDDK, NIH, Bethesda, MD 20892
##NAMES=HP
##CAS NAME=Tomatidine
##MOLFORM=C27H45NO2
##CAS REGISTRY NO=77-59-8
##MP= -300
##BP= -300
##MW= 415
##$RETENTION INDEX=3370
##$CONDENSED SPECTRUM=NO
##NPOINTS= 178
##XYDATA=(XY..XY) 1 
    41        109
    42         30
    43         83
    44         21
    45          3
    47          8
    48          3
    49          5
    51          1
    53         20
    54         21
    55        153
    56         25
    57         45
    58         20
    59          6
    65          8
    66          3
    67         82
    68         35
    69         64
    70         37
    71         11
    72          3
    73          6
    77         24
    78          2
    79         79
    80         17
    81         88
    82         27
    83         34
    84          4
    85          7
    86          2
    87          1
    88          2
    91         64
    92         13
    93         86
    94         25
    95         67
    96         34
    97         17
    98         52
    99          5
   100          1
   101          1
   103          2
   104          1
   105         56
   106         17
   107         78
   108         40
   109         36
   110         38
   111         97
   113        658
   114        999
   115         79
   116          5
   117         14
   118          5
   119         33
   120         18
   121         44
   122         40
   123         18
   124         68
   125         85
   126         19
   127         12
   128         18
   129          9
   130          3
   131         17
   132          5
   133         28
   134         12
   135         21
   136         13
   137          2
   138        765
   139        123
   140         12
   141          1
   142          6
   143         10
   144          4
   145         18
   146          6
   147         29
   148         12
   149         15
   150         14
   152         92
   153         15
   154          6
   155          2
   156          2
   157          9
   158          1
   159         16
   160          4
   161         41
   162         15
   163         11
   164         17
   165          7
   166         30
   167          6
   168          8
   169          1
   170          1
   171          5
   172          1
   173          9
   174          2
   175          9
   176         11
   177          9
   178         12
   179          1
   180         21
   181          4
   182          1
   185          5
   187          4
   188          1
   189          2
   190          5
   191          1
   192         13
   193          1
   194          1
   199          6
   201          5
   202          1
   213          1
   214          1
   215          5
   216          3
   217          1
   227          1
   229          4
   232          2
   234          2
   245          2
   246          1
   255          6
   269          5
   271          1
   273         24
   274          5
   285          5
   287          9
   288          4
   302          3
   316         15
   317          2
   330          1
   344          3
   358          8
   359          9
   372          7
   384          1
   385          4
   386         34
   387         62
   388         16
   398          2
   400         15
   401          4
   413          4
   414         11
   415         54
   416         19
   417          3