##TITLE=Library Entry 39866
##JCAMP-DX=Revision 4.10 
##DATA TYPE=MASS SPECTRUM
##SAMPLE DESCRIPTION=R RYHAGE MS-LAB KAROLINSKA INSTITUTET STOCKHOLM SWEDEN
##NAMES=HP
##CAS NAME=Isoaminile
##MOLFORM=C16H24N2
##CAS REGISTRY NO=77-51-0
##MP= -300
##BP= -300
##MW= 244
##$RETENTION INDEX=1830
##$CONDENSED SPECTRUM=NO
##NPOINTS= 155
##XYDATA=(XY..XY) 1 
    15         10
    16          1
    25          0
    27         23
    28         12
    30         10
    34          0
    39         10
    40          4
    41         14
    42         52
    43         23
    44         29
    45         16
    46          1
    51          9
    52          7
    53          4
    54          1
    55          2
    56         26
    57          9
    58        421
    59         16
    61          0
    62          1
    63          3
    64          1
    65          2
    66          0
    67          0
    68          1
    70         24
    71         63
    72        999
    73         53
    74          2
    75          2
    76          1
    77          8
    78          1
    79          1
    80          3
    81          0
    86          4
    88          0
    89          3
    90          1
    91         19
    92          2
    94          0
    97          1
    98          0
   100          0
   101          1
   102          3
   103          7
   104          2
   105          2
   107          0
   108          0
   109          1
   111          1
   112          0
   113          0
   114          1
   115         13
   116         13
   117          4
   124          0
   125          0
   126          0
   127          3
   128          4
   129         11
   130          2
   131          6
   133          0
   134          0
   139          0
   140          2
   141          1
   142          3
   143          4
   144          0
   145          1
   146          1
   147          1
   148          1
   149          1
   150          0
   151          1
   152          0
   153          0
   154          1
   155          1
   156          3
   157          2
   158         18
   159          2
   160          1
   167          3
   168          1
   169          1
   170          0
   172          2
   173          0
   175          0
   176          0
   177          1
   179          0
   180          1
   181          0
   182          1
   183          0
   184          1
   185          1
   186          1
   187          1
   188          0
   189          0
   191          0
   192          0
   193          0
   195          0
   196          0
   198          1
   199          1
   200          1
   201          0
   202          2
   203          0
   204          0
   208          0
   211          0
   212          0
   213          2
   214          0
   215          0
   216          0
   217          0
   218          0
   223          0
   225          0
   226          0
   227          0
   228          0
   229         37
   230          5
   231          0
   242          0
   243          6
   244         24
   245          2
   246          0