##TITLE=Library Entry 89990
##JCAMP-DX=Revision 4.10 
##DATA TYPE=MASS SPECTRUM
##SAMPLE DESCRIPTION=NIST Mass Spectrometry Data Center
##NAMES=HP
##CAS NAME=Ethosuximide
##MOLFORM=C7H11NO2
##CAS REGISTRY NO=77-67-8
##MP= -300
##BP= -300
##MW= 141
##$RETENTION INDEX=1194
##$CONDENSED SPECTRUM=NO
##NPOINTS= 70
##XYDATA=(XY..XY) 1 
    14          1
    15          4
    16          1
    26          9
    27         70
    28         21
    29         64
    30          3
    31          1
    33          1
    34          1
    37          6
    38         17
    39        195
    40         45
    41        200
    42        253
    43         29
    44         27
    45          2
    48          1
    49          2
    50         15
    51         23
    52         14
    53         64
    54         36
    55        935
    56         48
    57          3
    58          1
    59          2
    61          1
    62          2
    63          3
    64          1
    65          5
    66          5
    67         18
    68         16
    69         77
    70        518
    71         29
    72          2
    73          1
    78          1
    80          3
    81          2
    82          2
    83          5
    84          5
    85         73
    86          4
    94          3
    95          2
    96          3
    97          2
    98         37
    99          2
   108          1
   109          2
   110          1
   111          1
   113        999
   114         59
   115          6
   126         11
   127          1
   141         10
   142          1