##TITLE=Library Entry 15700
##JCAMP-DX=Revision 4.10 
##DATA TYPE=MASS SPECTRUM
##SAMPLE DESCRIPTION=Virginia Division of Forensic Science
##NAMES=HP
##CAS NAME=Carbromal
##MOLFORM=C7H13BrN2O2
##CAS REGISTRY NO=77-65-6
##MP= -300
##BP= -300
##MW= 236
##$RETENTION INDEX=1521
##$CONDENSED SPECTRUM=NO
##NPOINTS= 97
##XYDATA=(XY..XY) 1 
    15         16
    16          7
    18         10
    26         20
    27        131
    28         73
    29        150
    30         13
    31          3
    32          2
    37          7
    38         21
    39        191
    40         34
    41        465
    42        104
    43        290
    44        999
    45         20
    46         26
    50         11
    51         24
    52         24
    53         86
    54         46
    55        287
    56         31
    57         14
    58          6
    59          6
    60         39
    61         54
    62          5
    63          5
    65         14
    66         12
    67         61
    68         44
    69        688
    70        111
    71        193
    72         27
    79          9
    80         19
    81         18
    82         24
    83         94
    84         11
    85          7
    86         14
    87        166
    88         64
    89          7
    95         10
    96         39
    97        175
    98         56
    99          9
   100          6
   102         13
   105          6
   107         29
   109         25
   113         25
   114        154
   115         22
   119         11
   121         12
   122          5
   123          6
   128          5
   129         74
   130         36
   133         11
   135         12
   140          6
   141          4
   143         10
   147          5
   148         44
   149         73
   150         92
   151         66
   152         43
   156         16
   157         84
   158          7
   165        185
   166         12
   167        194
   168          8
   193         12
   195          8
   208        520
   209         36
   210        524
   211         37