##TITLE=Library Entry 38750
##JCAMP-DX=Revision 4.10 
##DATA TYPE=MASS SPECTRUM
##SAMPLE DESCRIPTION=NIST Mass Spectrometry Data Center, 2010
##NAMES=HP
##CAS NAME=Propanoic acid, 2-methyl-, 3-hydroxy-2,2,4-trimethylpentyl ester
##MOLFORM=C12H24O3
##CAS REGISTRY NO=77-68-9
##MP= -300
##BP= -300
##MW= 216
##$RETENTION INDEX=1380
##$CONDENSED SPECTRUM=NO
##NPOINTS= 84
##XYDATA=(XY..XY) 1 
    15          2
    19          1
    26          2
    27         49
    28         11
    29         39
    30          2
    31         18
    37          1
    38          2
    39         52
    40         13
    41        221
    42         33
    43        600
    44         23
    45         47
    46          1
    47          1
    50          1
    51          2
    52          1
    53         20
    54         12
    55        187
    56        793
    57        194
    58         10
    59         22
    60          1
    61          1
    65          3
    66          1
    67         11
    68          4
    69         35
    70         23
    71        999
    72         81
    73        184
    74         10
    75          1
    77          2
    79          4
    81          5
    83         67
    84          6
    85        108
    86          8
    87          9
    89        722
    90         33
    91          4
    95          8
    96          1
    97         14
    98         33
    99          8
   100          1
   101          2
   102          2
   103          4
   109          1
   110          2
   111         12
   112          1
   113         19
   114          5
   115          5
   127          3
   128          3
   129          2
   131          1
   143        105
   144         10
   145          7
   146          1
   155         10
   156          1
   161         23
   162          2
   173        158
   174         16
   175          2