##TITLE=Library Entry 34762
##JCAMP-DX=Revision 4.10 
##DATA TYPE=MASS SPECTRUM
##SAMPLE DESCRIPTION=NIST Mass Spectrometry Data Center, 1990.
##NAMES=HP
##CAS NAME=1-Pentyn-3-ol, 3-methyl-
##MOLFORM=C6H10O
##CAS REGISTRY NO=77-75-8
##MP= -300
##BP= -300
##MW= 98
##$RETENTION INDEX=662
##$CONDENSED SPECTRUM=NO
##NPOINTS= 47
##XYDATA=(XY..XY) 1 
    14          3
    15         12
    26         18
    27         77
    28         19
    29         64
    31         10
    32          0
    37         11
    38         24
    39        118
    40         20
    41         50
    42          0
    43        449
    44         14
    45          7
    49         12
    50         56
    51         65
    52         25
    53        124
    54         17
    55        142
    56         11
    57         10
    61          6
    62         11
    63         18
    65         22
    66          8
    67         11
    68          6
    69        999
    70         46
    71          6
    72          5
    74          7
    77         23
    78          7
    79         48
    80         15
    81         10
    82          5
    83        265
    84         14
    97         13