##TITLE=Library Entry 18603
##JCAMP-DX=Revision 4.10 
##DATA TYPE=MASS SPECTRUM
##SAMPLE DESCRIPTION=Chemical Concepts
##NAMES=HP
##CAS NAME=2,5-Dihydrothiophene sulfone
##MOLFORM=C4H6O2S
##CAS REGISTRY NO=77-79-2
##MP= -300
##BP= -300
##MW= 118
##$RETENTION INDEX=0
##$CONDENSED SPECTRUM=NO
##NPOINTS= 53
##XYDATA=(XY..XY) 1 
    26        129
    27        435
    28        323
    29          8
    30          0
    31          1
    32          8
    33          3
    34          2
    36          1
    37         18
    38         36
    39        623
    40         25
    41          6
    42          1
    43          2
    44          4
    45         35
    46          5
    47          3
    48         53
    49         17
    50         79
    51         85
    52         43
    53        242
    54        999
    55         46
    56          1
    57          7
    58          9
    59          3
    60          0
    62          0
    63          0
    64         52
    65          5
    66          2
    68          0
    69          3
    71          1
    73          0
    76          0
    81          0
    82          1
    84          0
    85          5
    86          1
    87          0
   118         15
   119          1
   120          0