##TITLE=Library Entry 17187
##JCAMP-DX=Revision 4.10 
##DATA TYPE=MASS SPECTRUM
##SAMPLE DESCRIPTION=NIST Mass Spectrometry Data Center, 1994
##NAMES=HP
##CAS NAME=2-Ethyl-2-methyl-1,3-propanediol
##MOLFORM=C6H14O2
##CAS REGISTRY NO=77-84-9
##MP= -300
##BP= -300
##MW= 118
##$RETENTION INDEX=0
##$CONDENSED SPECTRUM=NO
##NPOINTS= 47
##XYDATA=(XY..XY) 1 
    15         45
    17          0
    19         11
    26         42
    27        281
    28         50
    29        409
    30          2
    31        522
    32          6
    33          9
    37          8
    39        234
    41        630
    42        129
    43        299
    44          2
    45        999
    46         24
    47          8
    50         16
    51         21
    52         10
    53         57
    54          8
    55        271
    56         19
    57        116
    58         23
    59         29
    60          2
    61          5
    63          2
    65          8
    67         27
    69        256
    70        699
    71        193
    72         12
    82          6
    83          4
    85         14
    86         27
    87        111
    88         10
    89          2
   100          3