##TITLE=Library Entry 25977
##JCAMP-DX=Revision 4.10 
##DATA TYPE=MASS SPECTRUM
##SAMPLE DESCRIPTION=Japan AIST/NIMC Database- Spectrum MS-NW- 219
##NAMES=HP
##CAS NAME=1,3-Propanediol, 2-ethyl-2-(hydroxymethyl)-
##MOLFORM=C6H14O3
##CAS REGISTRY NO=77-99-6
##MP= -300
##BP= -300
##MW= 134
##$RETENTION INDEX=0
##$CONDENSED SPECTRUM=NO
##NPOINTS= 69
##XYDATA=(XY..XY) 1 
     3          2
    14          1
    15         20
    18          3
    19         62
    26          9
    27        171
    28         33
    29        424
    30         10
    31        334
    32          8
    33          4
    37          2
    38          6
    39        154
    40         31
    41        429
    42         56
    43        236
    44        145
    45         63
    46          2
    47         23
    49          3
    50          5
    51          9
    52          5
    53         70
    54         20
    55        337
    56         49
    57        999
    58         86
    59         13
    60          2
    61         22
    65         12
    66          3
    67         93
    68        144
    69         84
    70        111
    71        221
    72         16
    73         22
    74          2
    75          2
    79          3
    80          7
    81         10
    83         54
    84         11
    85         73
    86        511
    87         32
    88          2
    97          6
    98         13
    99         11
   100          1
   101          2
   103          5
   104          2
   115          1
   116          2
   117         12
   135         26
   136          2