##TITLE=Library Entry 67106
##JCAMP-DX=Revision 4.10 
##DATA TYPE=MASS SPECTRUM
##SAMPLE DESCRIPTION=NIST Mass Spectrometry Data Center
##NAMES=HP
##CAS NAME=1-Phenoxypropan-2-ol
##MOLFORM=C9H12O2
##CAS REGISTRY NO=770-35-4
##MP= -300
##BP= -300
##MW= 152
##$RETENTION INDEX=1246
##$CONDENSED SPECTRUM=NO
##NPOINTS= 66
##XYDATA=(XY..XY) 1 
    13          3
    14          6
    15         47
    16          1
    17          1
    18          3
    19         19
    25          2
    26         11
    27         63
    28         11
    29         62
    31        128
    33          1
    37         10
    38         41
    39        196
    40         33
    41         60
    42         17
    43         88
    45        181
    46          4
    50         66
    51        185
    52         22
    53         10
    54          2
    55         16
    57         11
    58         15
    59         74
    60          3
    61          5
    62         12
    63         38
    64         15
    65        124
    66        130
    67         10
    68          3
    69          1
    73          2
    74         12
    75          9
    77        270
    78        201
    79         85
    80          8
    91         20
    94        999
    95        110
    96          7
   105          4
   107         56
   108        160
   109         11
   119         27
   120          2
   121          5
   133          2
   137          3
   150          2
   152        173
   153         20
   154          1