##TITLE=Library Entry 41746
##JCAMP-DX=Revision 4.10 
##DATA TYPE=MASS SPECTRUM
##SAMPLE DESCRIPTION=RADIAN CORP
##NAMES=HP
##CAS NAME=Silane, trimethyl(phenylmethyl)-
##MOLFORM=C10H16Si
##CAS REGISTRY NO=770-09-2
##MP= -300
##BP= -300
##MW= 164
##$RETENTION INDEX=0
##$CONDENSED SPECTRUM=NO
##NPOINTS= 67
##XYDATA=(XY..XY) 1 
    15          7
    27          8
    28          3
    29         20
    31          4
    38          2
    39         43
    41          9
    42         14
    43        124
    44         25
    45        113
    46          6
    50          8
    51         21
    52          6
    53         29
    54          4
    55         22
    57         10
    58         46
    59         24
    62          6
    63         33
    64          7
    65        137
    66         14
    67         12
    69          5
    70          2
    71          4
    72         13
    73        999
    74         90
    75         40
    76          1
    77         17
    78          5
    79         10
    81          4
    83          3
    89         27
    90         10
    91        194
    92         16
    93         18
    95          7
   103          7
   105         33
   106          3
   107         15
   117          7
   119         18
   120          2
   121        162
   122         19
   123          5
   131         11
   133          7
   135          3
   145          5
   149        105
   150         15
   151          2
   164        143
   165         21
   166          4