##TITLE=Library Entry 87211
##JCAMP-DX=Revision 4.10 
##DATA TYPE=MASS SPECTRUM
##SAMPLE DESCRIPTION=A.A.Kutin, Moscow, Russia
##NAMES=HP
##CAS NAME=Pyridine, 2-acetamido-6-hydroxy-
##MOLFORM=C7H8N2O2
##CAS REGISTRY NO=770-20-7
##MP= -300
##BP= -300
##MW= 152
##$RETENTION INDEX=0
##$CONDENSED SPECTRUM=NO
##NPOINTS= 99
##XYDATA=(XY..XY) 1 
    33          2
    34          1
    35          0
    36          2
    37         24
    38         71
    39        178
    40         60
    41         33
    42         62
    43        428
    44         50
    45          4
    47          2
    48          2
    49          1
    50          5
    51          9
    52         26
    53         27
    54         58
    55        124
    56          7
    57          6
    58          0
    60          2
    61          0
    62          1
    63          6
    64         23
    65         44
    66         61
    67         13
    68          9
    69         20
    70          4
    71          3
    73          0
    75          2
    76          1
    77          2
    78          2
    79          2
    80          9
    81         54
    82        600
    83        165
    84          8
    85          4
    87          0
    88          0
    89          0
    90          1
    91          6
    92         12
    93         55
    94         26
    95          5
    96          1
    97          1
    98          1
    99          0
   101          0
   103          0
   104          0
   105          2
   106          0
   108          7
   110        999
   111         53
   112          3
   113          0
   118          0
   119          4
   120          0
   121          0
   122          0
   123          2
   124          0
   125          0
   126          0
   127          0
   128          0
   129          0
   133          1
   135          0
   136          3
   137          9
   138          0
   145          0
   147          0
   149          1
   150          1
   152        349
   153         30
   154          2
   155          0
   157          0
   158          0