##TITLE=Library Entry 59608
##JCAMP-DX=Revision 4.10 
##DATA TYPE=MASS SPECTRUM
##SAMPLE DESCRIPTION=RADIAN CORP
##NAMES=HP
##CAS NAME=Silane, trichloro(phenylmethyl)-
##MOLFORM=C7H7Cl3Si
##CAS REGISTRY NO=770-10-5
##MP= -300
##BP= -300
##MW= 224
##$RETENTION INDEX=0
##$CONDENSED SPECTRUM=NO
##NPOINTS= 54
##XYDATA=(XY..XY) 1 
    26          2
    27          4
    35          2
    37          4
    38         16
    39         69
    40          4
    41         10
    50         21
    51         28
    52          8
    53          7
    61          7
    62         26
    63        125
    64         19
    65        145
    66          9
    74          3
    75          2
    77          3
    85          1
    86          4
    87          4
    88          2
    89         68
    90         25
    91        999
    92         79
    93          2
    98         20
    99          3
   100         12
   101          2
   102          2
   123          2
   125         11
   127          2
   133         73
   134          3
   135         75
   136          4
   137         26
   139          2
   152          7
   154          2
   188          2
   189          1
   224         67
   225          8
   226         68
   227          7
   228         22
   230          1