##TITLE=Library Entry 66598
##JCAMP-DX=Revision 4.10 
##DATA TYPE=MASS SPECTRUM
##SAMPLE DESCRIPTION=NIST Mass Spectrometry Data Center, 2010
##NAMES=HP
##CAS NAME=(3S,6R)-3-Hydroperoxy-3-methyl-6-(prop-1-en-2-yl)cyclohex-1-ene
##MOLFORM=C10H16O2
##CAS REGISTRY NO=77026-87-0
##MP= -300
##BP= -300
##MW= 168
##$RETENTION INDEX=0
##$CONDENSED SPECTRUM=NO
##NPOINTS= 75
##XYDATA=(XY..XY) 1 
    39         63
    40         17
    41        108
    43        233
    44          7
    45         10
    46          1
    50         19
    51         64
    52         34
    53         90
    54         11
    55        180
    58         19
    59         10
    60          4
    62         11
    63         35
    64         11
    65        105
    66         37
    67        135
    68         26
    69         74
    71         22
    74          6
    75          5
    76          5
    77        356
    78         71
    79        657
    80        141
    81        163
    84         28
    86          2
    89          9
    90          4
    91        534
    92         84
    93        999
    94        363
    95        116
    96         12
   102          4
   103         28
   104         14
   105        181
   106         45
   107        856
   108        113
   109        197
   110         22
   111          6
   115         22
   117         33
   118          5
   119        107
   120         33
   121        170
   122         25
   123         49
   124         13
   125          5
   131          2
   133         11
   134         56
   135        891
   136        129
   137         99
   138         11
   140          2
   150          3
   151          3
   152         12
   153          6