##TITLE=Library Entry 51952
##JCAMP-DX=Revision 4.10 
##DATA TYPE=MASS SPECTRUM
##SAMPLE DESCRIPTION=NIST Mass Spectrometry Data Center, 2012
##NAMES=HP
##CAS NAME=Jasmonic Acid
##MOLFORM=C12H18O3
##CAS REGISTRY NO=77026-92-7
##MP= -300
##BP= -300
##MW= 210
##$RETENTION INDEX=0
##$CONDENSED SPECTRUM=NO
##NPOINTS= 102
##XYDATA=(XY..XY) 1 
    15          4
    26          8
    27        132
    28         55
    29        117
    31          9
    37          4
    38          9
    39        239
    40         47
    41        531
    42         65
    43        129
    45         59
    50         14
    51         67
    52         37
    53        216
    54         77
    55        355
    56         37
    57         65
    58          8
    60         27
    61         13
    62          5
    63         14
    64          4
    65         88
    66         41
    67        272
    68         89
    69        106
    70         40
    71         43
    72          8
    74          3
    77        152
    78         35
    79        262
    80         56
    81        173
    82        190
    83        999
    84         71
    85         16
    91        159
    93        204
    94         76
    95        325
    96         54
    97         31
    98          7
    99         18
   105         68
   106         20
   107        103
   108         54
   109        245
   110         20
   112         19
   113         11
   117         56
   118          9
   119         13
   121         98
   122         26
   123         55
   124         42
   126          8
   131         19
   132         30
   133        129
   134         18
   135         79
   136         16
   137         15
   138          9
   139          6
   140         12
   141         63
   142        275
   143         24
   145          4
   146          5
   147         18
   148          4
   149         16
   150         45
   151        357
   152         39
   153         29
   154         15
   155         17
   159          1
   163         36
   167          6
   177          7
   181         27
   192         20
   210        162
   211         19