##TITLE=Library Entry 53356
##JCAMP-DX=Revision 4.10 
##DATA TYPE=MASS SPECTRUM
##SAMPLE DESCRIPTION=Chemical Concepts
##NAMES=HP
##CAS NAME=N,N,N',N'-Tetracyclohexyloxamide
##MOLFORM=C26H44N2O2
##CAS REGISTRY NO=77043-37-9
##MP= -300
##BP= -300
##MW= 416
##$RETENTION INDEX=0
##$CONDENSED SPECTRUM=NO
##NPOINTS= 122
##XYDATA=(XY..XY) 1 
    27          5
    28          4
    29         11
    30          4
    31          4
    37          3
    39         11
    40          2
    41        101
    42         10
    43         19
    44         14
    45          2
    46          8
    47          1
    53         10
    54         25
    55        231
    56         41
    57          6
    58          2
    59          3
    65          2
    66          2
    67         39
    68          8
    69         11
    70          7
    71          3
    72          2
    74          2
    77          4
    78          1
    79         14
    80          8
    81         72
    82         40
    83        999
    84         81
    85          5
    89         23
    93          2
    94          4
    95          6
    96         10
    97          7
    98        112
    99         10
   100          6
   108          3
   109          4
   110          8
   111          2
   112          2
   113          3
   120          2
   122          3
   123          3
   124         10
   125          8
   126        727
   127         76
   128         39
   129          3
   130          2
   136          7
   137          2
   138         18
   139          2
   140          1
   141          1
   142          1
   149         17
   150          6
   151          3
   152          5
   153          2
   154          2
   160          2
   164          6
   165          3
   166         33
   167          7
   168          1
   169         12
   170          3
   171         11
   178          7
   179          5
   180        291
   181         49
   182          5
   192         10
   193          2
   195          3
   196          4
   200          2
   206          4
   207          5
   208        730
   210        181
   212         25
   214          2
   236          2
   251         38
   252          6
   253         12
   254          2
   277          2
   291          3
   305          4
   315          2
   329          2
   333        333
   334         99
   335         17
   336          3
   344          2
   358          2
   415          5
   416         17
   417          5