##TITLE=Library Entry 6090
##JCAMP-DX=Revision 4.10 
##DATA TYPE=MASS SPECTRUM
##SAMPLE DESCRIPTION=DKFZ HD SORG, HEIDELBERG, GERMANY, F.R.G.
##NAMES=HP
##CAS NAME=Tetradecanoic acid, 3,3a,4,6a,7,8,9,10,10a,10b-decahydro-3a,10a-d
ihydroxy-5-(hydroxymethyl)-2,10-dimethyl-3-oxobenz[e]azulen-8-yl ester, [3aR
-(3a.alpha.,6a.alpha.,8.alpha.,10.beta.,10a.beta.,10b.beta.)]-
##MOLFORM=C31H50O6
##CAS REGISTRY NO=77058-95-8
##MP= -300
##BP= -300
##MW= 518
##$RETENTION INDEX=0
##$CONDENSED SPECTRUM=NO
##NPOINTS= 470
##XYDATA=(XY..XY) 1 
    12         13
    13          1
    15         17
    17         10
    18         52
    25          3
    26         38
    27        185
    28        101
    29        285
    30         11
    31         23
    34          1
    35          2
    36         10
    37          7
    38         15
    39        176
    40         38
    41        666
    42        147
    43        999
    44        419
    45         38
    46          6
    47          1
    48          2
    49          2
    50         13
    51         42
    52         28
    53        180
    54         85
    55        523
    56        138
    57        571
    58         23
    59         23
    60        138
    61         33
    62          6
    63         19
    64          7
    65         61
    66         33
    67        166
    68         71
    69        295
    70         66
    71        204
    72         10
    73        180
    74         15
    75          7
    76          8
    77        138
    78         42
    79        152
    80         61
    81        190
    82        104
    83        138
    84         47
    85        100
    86          6
    87         28
    88          5
    89          9
    90          6
    91        176
    92         42
    93        109
    94         52
    95        133
    96         52
    97        100
    98         47
    99         71
   100          9
   101         15
   102          7
   103         23
   104         18
   105        138
   106         57
   107        104
   108         80
   109        176
   110        119
   111         95
   112         57
   113         19
   114          8
   115         57
   116         23
   117         47
   118         17
   119         66
   120         33
   121         90
   122         47
   123         47
   124         33
   125          9
   126         10
   127         23
   128         42
   129         80
   130         33
   131         71
   132         33
   133         71
   134         42
   135         66
   136         33
   137         38
   138         47
   139         42
   140         11
   141         38
   142         20
   143         61
   144         23
   145         85
   146         42
   147         95
   148         52
   149         66
   150         28
   151         42
   152         33
   153         23
   154         11
   155         38
   156         20
   157         38
   158         38
   159         71
   160         57
   161        142
   162        114
   163        166
   164         71
   165         66
   166         38
   167         23
   168         28
   169         28
   170         16
   171         42
   172         28
   173         61
   174         42
   175         61
   176         52
   177         47
   178         33
   179         38
   180         28
   181         52
   182         16
   183         33
   184         28
   185         52
   186         38
   187         38
   188         23
   189         33
   190         20
   191         42
   192         61
   193         42
   194         15
   195         17
   196         10
   197         33
   198         28
   199         47
   200         20
   201         38
   202         33
   203         28
   204         23
   205         11
   206          9
   207         10
   208         10
   209         38
   210         15
   211         57
   212         28
   213         47
   214         33
   215         38
   216         52
   217         23
   218         10
   219         10
   220         10
   221         12
   222         10
   223         15
   224         23
   225         33
   226         85
   227         57
   228         52
   229         61
   230         23
   231         28
   232         14
   233         10
   234          6
   235          6
   236         23
   237         20
   238         17
   239         28
   240         18
   241         47
   242         38
   243         38
   244        128
   245         42
   246         19
   247          6
   248          4
   249          2
   250          2
   251          2
   252          6
   253         10
   254        214
   255         71
   256         76
   257         33
   258         15
   259         14
   260         18
   261         11
   262         42
   263          9
   264          4
   265          2
   266          2
   267          1
   268          3
   269          4
   270         20
   271         19
   272        547
   273        152
   274         71
   275         20
   276          4
   277          6
   278          3
   279          2
   280          1
   281          1
   282          1
   283          1
   284          8
   285          2
   286          2
   287          2
   288         47
   289         19
   290        138
   291         38
   292         10
   293          2
   294          1
   295          1
   296          1
   297          1
   298          1
   299          1
   300          1
   301          0
   302          1
   303          1
   304          1
   305          1
   306          1
   307          0
   308          2
   309          1
   310          1
   311          1
   312          1
   313          1
   314          1
   315          0
   316          0
   317          1
   318          0
   319          1
   320          0
   321          1
   322          0
   323          0
   324          0
   325          0
   326          0
   327          0
   328          0
   329          0
   330          1
   331          0
   332          0
   333          0
   335          0
   336          0
   337          0
   338          0
   339          0
   340          0
   341          0
   342          0
   343          0
   344          0
   345          0
   346          1
   347          0
   348          0
   349          0
   350          0
   351          0
   352          0
   353          1
   354          1
   355          0
   356          0
   357          0
   358          1
   359          0
   360          0
   361          0
   362          0
   363          0
   364          0
   365          0
   366          0
   367          1
   368          3
   369          1
   370          0
   371          1
   372          1
   373          1
   374          0
   375          0
   376          1
   377          1
   378          0
   379          0
   380          0
   382          1
   383          1
   384          0
   385          0
   386          1
   387          3
   388          0
   389          6
   390          3
   391          1
   392          0
   393          1
   394          0
   395          0
   396          0
   397          0
   398          1
   399          0
   400          0
   401          1
   402          0
   403          0
   404          0
   405          0
   406          0
   407          0
   408          0
   409          0
   410          0
   411          3
   412          1
   413          0
   414          0
   415          0
   416          0
   417          0
   418          0
   419          1
   420          0
   421          0
   425          0
   426          0
   427          0
   428          1
   429          0
   430          1
   431          0
   432          1
   433          0
   435          0
   438          0
   439          0
   440          0
   441          0
   442          0
   443          0
   444          0
   445          0
   446          1
   447          0
   448          0
   449          0
   450          0
   452          0
   453          0
   454          1
   455          0
   456          1
   457          0
   458          0
   459          0
   460          0
   464          0
   465          0
   466          0
   467          0
   468          0
   469          0
   470          1
   471          1
   472          2
   473          1
   474          1
   475          1
   476          0
   477          0
   480          3
   481          0
   482         10
   483          2
   484          5
   485          1
   486          0
   487          0
   488          1
   489          0
   490          2
   491          0
   492          0
   498          3
   499          1
   500         20
   501          5
   502          3
   503          1
   504          0
   505          0
   516          3
   517          1
   518          2
   519          2
   520          0