##TITLE=Library Entry 81616
##JCAMP-DX=Revision 4.10 
##DATA TYPE=MASS SPECTRUM
##SAMPLE DESCRIPTION=Institute of Organic Chemistry, Novosibirsk, USSR 1988
##NAMES=HP
##CAS NAME=4-Ethyl-4,5-dihydro-4-methyl-2-phenyl-1,3-oxazin-6-one
##MOLFORM=C13H15NO2
##CAS REGISTRY NO=77064-47-2
##MP= -300
##BP= -300
##MW= 217
##$RETENTION INDEX=0
##$CONDENSED SPECTRUM=NO
##NPOINTS= 14
##XYDATA=(XY..XY) 1 
    41         49
    42         82
    51        129
    55        111
    70        111
    76         43
    77        431
    78         32
   104         52
   105        999
   106         95
   188        462
   189         47
   217         20