##TITLE=Library Entry 78817
##JCAMP-DX=Revision 4.10 
##DATA TYPE=MASS SPECTRUM
##SAMPLE DESCRIPTION=Institute of Organic Chemistry, Novosibirsk, USSR 1988
##NAMES=HP
##CAS NAME=4,5-Dihydro-5-methyl-4,4-pentamethylene-2-phenyl-1,3-oxazin-6-one
##MOLFORM=C16H19NO2
##CAS REGISTRY NO=77064-49-4
##MP= -300
##BP= -300
##MW= 257
##$RETENTION INDEX=0
##$CONDENSED SPECTRUM=NO
##NPOINTS= 14
##XYDATA=(XY..XY) 1 
    40        383
    41         50
    51         50
    55        312
    56        521
    57         28
    77        780
    78         51
   103         53
   105        999
   106         92
   202         29
   229         20
   257         31