##TITLE=Library Entry 79757
##JCAMP-DX=Revision 4.10 
##DATA TYPE=MASS SPECTRUM
##SAMPLE DESCRIPTION=Institute of Organic Chemistry, Novosibirsk, USSR 1988
##NAMES=HP
##CAS NAME=4,5-Dihydro-4,4-hexamethylene-2-phenyl-1,3-oxazin-6-one
##MOLFORM=C16H19NO2
##CAS REGISTRY NO=77064-48-3
##MP= -300
##BP= -300
##MW= 257
##$RETENTION INDEX=0
##$CONDENSED SPECTRUM=NO
##NPOINTS= 16
##XYDATA=(XY..XY) 1 
    41         71
    51         70
    77        470
    78         31
   104         31
   105        999
   106         95
   122        143
   136         71
   186         93
   200         92
   201        101
   202         15
   229        313
   230         57
   257         30