##TITLE=Library Entry 76166
##JCAMP-DX=Revision 4.10 
##DATA TYPE=MASS SPECTRUM
##SAMPLE DESCRIPTION=A.A.Kutin, Moscow, Russia
##NAMES=HP
##CAS NAME=4-Phenyl furoxan
##MOLFORM=C8H6N2O2
##CAS REGISTRY NO=7707-64-4
##MP= -300
##BP= -300
##MW= 162
##$RETENTION INDEX=0
##$CONDENSED SPECTRUM=NO
##NPOINTS= 65
##XYDATA=(XY..XY) 1 
    37          0
    38          1
    39          2
    41          0
    43          0
    46          0
    48          0
    49          1
    50         10
    51          7
    52          2
    60          0
    61          1
    62         12
    63         15
    64          2
    65          1
    66          0
    72          0
    74         33
    75         29
    76         54
    77          6
    78          0
    81          0
    84          0
    85          1
    86          5
    87          7
    89          7
    90          5
    91          7
    92          0
    94          3
    97          0
    98          4
    99          4
   102        999
   105         10
   106          0
   107          0
   109          0
   111          0
   114          1
   115          1
   116          1
   117          1
   119         10
   121          2
   122          1
   129          0
   130          2
   132        185
   134          2
   135          6
   136          0
   144          0
   145          2
   146          1
   157          0
   158          0
   159          3
   162        397
   164          1
   166          0