##TITLE=Library Entry 79534
##JCAMP-DX=Revision 4.10 
##DATA TYPE=MASS SPECTRUM
##SAMPLE DESCRIPTION=Institute of Organic Chemistry, Novosibirsk, USSR 1988
##NAMES=HP
##CAS NAME=4,5-Dihydro-2,4,4-triphenyl-1,3-oxazin-6-one
##MOLFORM=C22H17NO2
##CAS REGISTRY NO=77074-12-5
##MP= -300
##BP= -300
##MW= 327
##$RETENTION INDEX=0
##$CONDENSED SPECTRUM=NO
##NPOINTS= 21
##XYDATA=(XY..XY) 1 
    42        100
    51        201
    52         15
    77        692
    78         50
   103        121
   104         19
   105        999
   106         95
   178         80
   179         72
   180        250
   181         20
   194         49
   195          7
   285          3
   286          3
   299         50
   300         11
   327         31
   328          9