##TITLE=Library Entry 84458
##JCAMP-DX=Revision 4.10 
##DATA TYPE=MASS SPECTRUM
##SAMPLE DESCRIPTION=Chemical Concepts
##NAMES=HP
##CAS NAME=Propanedioic acid, [(4-hydroxyphenyl)methyl]-, diethyl ester
##MOLFORM=C14H18O5
##CAS REGISTRY NO=77094-90-7
##MP= -300
##BP= -300
##MW= 266
##$RETENTION INDEX=0
##$CONDENSED SPECTRUM=NO
##NPOINTS= 89
##XYDATA=(XY..XY) 1 
    26          5
    27         65
    28          9
    29        218
    30          5
    31         10
    38          2
    39         42
    40          4
    41         10
    42          3
    43         13
    45         11
    46          2
    50          4
    51         19
    52         10
    53         17
    55         28
    58          2
    62          2
    63         14
    64          5
    65         48
    66          9
    67          3
    69         12
    73          3
    75          3
    77         73
    78         23
    79         18
    81          5
    86          2
    87          4
    89         11
    90          5
    91         85
    92         11
    93          7
    94         31
    95         11
   101          3
   102          2
   103         16
   105          8
   106          8
   107        999
   108         62
   109          4
   115          3
   117          2
   118         26
   119         76
   120        198
   121         31
   122          2
   123         20
   131         12
   133          8
   135          4
   136          3
   137          2
   145          3
   146         15
   147        565
   148         60
   149         11
   151          7
   160          2
   163         30
   164        114
   165         38
   166          3
   174         14
   175         82
   176          8
   177         30
   178          8
   190         16
   192        853
   193        179
   194         20
   221         40
   222          5
   238          0
   266        312
   267         43
   268          6