##TITLE=Library Entry 22849
##JCAMP-DX=Revision 4.10 
##DATA TYPE=MASS SPECTRUM
##SAMPLE DESCRIPTION=NIST Mass Spectrometry Data Center, 1990.
##NAMES=HP
##CAS NAME=4-Phenylpiperidine
##MOLFORM=C11H15N
##CAS REGISTRY NO=771-99-3
##MP= -300
##BP= -300
##MW= 161
##$RETENTION INDEX=1454
##$CONDENSED SPECTRUM=NO
##NPOINTS= 83
##XYDATA=(XY..XY) 1 
    15         21
    26         13
    27         94
    28        333
    29        219
    30        307
    31          6
    38         14
    39        104
    40         13
    41         59
    42        176
    43        436
    44        226
    45          5
    50         56
    51        144
    52         51
    53         37
    54         38
    55        124
    56        999
    57        604
    58         26
    62         21
    63         57
    64         19
    65         90
    66         11
    67         10
    68         89
    69         65
    70         25
    74         20
    75         25
    76         31
    77        165
    78        130
    79         30
    80         23
    81         10
    82         75
    83        313
    84         25
    86          3
    87          5
    89         32
    91        187
    92         14
   101          9
   102         42
   103        121
   104        207
   105         54
   106         13
   115        117
   116         40
   117         83
   118         54
   119         22
   120         17
   126          4
   127         16
   128         31
   129         50
   130         40
   131         25
   132         44
   133         12
   143         12
   144         17
   145          4
   146         19
   154         10
   155         12
   156          8
   157          4
   158         32
   159         78
   160        409
   161        739
   162         89
   163          5