##TITLE=Library Entry 70541
##JCAMP-DX=Revision 4.10 
##DATA TYPE=MASS SPECTRUM
##SAMPLE DESCRIPTION=Chuck Anderson, Aldrich Chemical Co.
##NAMES=HP
##CAS NAME=Ethyl 2,2,3,3-tetramethylcyclopropane-carboxylate
##MOLFORM=C10H18O2
##CAS REGISTRY NO=771-10-8
##MP= -300
##BP= -300
##MW= 170
##$RETENTION INDEX=0
##$CONDENSED SPECTRUM=NO
##NPOINTS= 94
##XYDATA=(XY..XY) 1 
    14          0
    15          8
    16          0
    19          0
    26          6
    27        126
    28         20
    29        262
    30          7
    31          7
    36          0
    37          1
    38          5
    39        160
    40         23
    41        228
    42         17
    43        100
    44          4
    45          8
    47          0
    50          2
    51          7
    52          3
    53         41
    54          9
    55        368
    56         22
    57         77
    58          3
    59         46
    60          2
    61          0
    62          0
    63          1
    64          0
    65         10
    66          4
    67         41
    68          3
    69        111
    70          8
    71          2
    72          0
    73          2
    74          0
    77          9
    78          1
    79         33
    80          3
    81        117
    82         26
    83        181
    84         19
    85         18
    86          1
    87         32
    88          2
    91          2
    93          2
    94          0
    95         32
    96         33
    97        999
    98         73
    99         20
   100         12
   101         33
   102          1
   107          0
   109        161
   110         15
   111          6
   112          2
   113          3
   114          0
   115          3
   123          6
   124          9
   125        303
   126         25
   127        144
   128         15
   129          4
   130          0
   139          0
   141          2
   142          0
   154          0
   155        414
   156         36
   157          2
   170          6
   171          1