##TITLE=Library Entry 12940
##JCAMP-DX=Revision 4.10 
##DATA TYPE=MASS SPECTRUM
##SAMPLE DESCRIPTION=Chemical Concepts
##NAMES=HP
##CAS NAME=2H-Pyran-2-one, 3-acetyl-4-hydroxy-6-methyl-
##MOLFORM=C8H8O4
##CAS REGISTRY NO=771-03-9
##MP= -300
##BP= -300
##MW= 168
##$RETENTION INDEX=1679
##$CONDENSED SPECTRUM=NO
##NPOINTS= 91
##XYDATA=(XY..XY) 1 
    25          2
    26         20
    27         56
    28          1
    29         27
    30          2
    31          7
    34          1
    36          0
    37         11
    38         18
    39         79
    40         16
    41         22
    42         51
    43        999
    44         22
    45          5
    49          2
    50          7
    51         11
    52          6
    53         40
    54         14
    55         58
    56          5
    57          1
    58          3
    59          3
    61          2
    62          3
    63          5
    64          0
    65          4
    66         15
    67         19
    68         11
    69        169
    70         14
    71          6
    72          1
    74          1
    77          1
    79          2
    80          3
    81          2
    82          2
    83          3
    84         87
    85        470
    86         15
    87          2
    91          1
    93          3
    94          3
    95          1
    96          1
    97         20
    98        115
    99          8
   100          1
   108          1
   109          1
   110          1
   111         76
   112          4
   113          1
   120          0
   121          1
   122          4
   123          2
   124          1
   125        222
   126         28
   127          7
   128          0
   139          3
   140         25
   141          4
   150          1
   151          0
   152          1
   153        513
   154         30
   155          4
   156          0
   167          0
   168        868
   169         64
   170          8
   171          1