##TITLE=Library Entry 68559
##JCAMP-DX=Revision 4.10 
##DATA TYPE=MASS SPECTRUM
##SAMPLE DESCRIPTION=D.HENNEBERG, MAX-PLANCK INSTITUTE, MULHEIM, WEST GERMAN
Y
##NAMES=HP
##CAS NAME=Cyclopentene, 1-isopropyl-2,3-dimethyl-
##MOLFORM=C10H18
##CAS REGISTRY NO=7712-73-4
##MP= -300
##BP= -300
##MW= 138
##$RETENTION INDEX=0
##$CONDENSED SPECTRUM=NO
##NPOINTS= 91
##XYDATA=(XY..XY) 1 
    26          7
    27        193
    28         21
    29        109
    30          3
    32          1
    37          2
    38          8
    39        220
    40         34
    41        348
    42         24
    43        125
    44          4
    45          1
    46          0
    47          1
    48          0
    49          0
    50         15
    51         54
    52         27
    53        137
    54         20
    55        207
    56         18
    57         47
    58          4
    59          1
    60          0
    61          0
    62          4
    63         19
    64          4
    65         63
    66         21
    67        294
    68         38
    69        172
    70         35
    71          3
    73          0
    74          2
    75          3
    76          1
    77        108
    78         24
    79        123
    80         23
    81        468
    82         87
    83         39
    84          3
    86          0
    87          0
    89          3
    90          1
    91         87
    92         12
    93         60
    94         51
    95        999
    96        110
    97          9
    98          0
   102          0
   103          5
   104          2
   105         17
   106          4
   107         27
   108         13
   109         28
   110          5
   111          2
   112          0
   115          1
   116          0
   117          0
   119          2
   120          0
   121         15
   122          3
   123        496
   124         50
   125          2
   136          1
   137          6
   138        162
   139         20
   140          1