##TITLE=Library Entry 3450
##JCAMP-DX=Revision 4.10 
##DATA TYPE=MASS SPECTRUM
##SAMPLE DESCRIPTION=Chemical Concepts
##NAMES=HP
##CAS NAME=1,6,10-Dodecatriene, 7,11-dimethyl-3-methylene-
##MOLFORM=C15H24
##CAS REGISTRY NO=77129-48-7
##MP= -300
##BP= -300
##MW= 204
##$RETENTION INDEX=1458
##$CONDENSED SPECTRUM=NO
##NPOINTS= 78
##XYDATA=(XY..XY) 1 
    26          9
    27        208
    29         98
    30         10
    37          5
    38         18
    39        296
    40          4
    41        999
    42         50
    43         73
    44          4
    45          0
    50         14
    51         46
    52         24
    53        210
    54         38
    55        233
    56         18
    57         30
    63         17
    64          9
    65         65
    66         20
    67        222
    68         87
    69        898
    70         45
    71         28
    75          7
    77        142
    78         15
    79        217
    80         41
    81        153
    82         49
    83         17
    89          6
    91        149
    92         72
    93        379
    94         75
    95         45
    96          5
   103          4
   105         77
   106         33
   107         83
   108         18
   109         36
   111          5
   115         15
   116         10
   117         12
   118          6
   119         64
   120        142
   121         62
   122          6
   123          6
   128          9
   131          5
   132          6
   133        126
   134         24
   135         16
   136          7
   143          6
   145         13
   147         31
   148         16
   159         17
   161         87
   162         12
   189         11
   190          5
   204         40