##TITLE=Library Entry 114787
##JCAMP-DX=Revision 4.10 
##DATA TYPE=MASS SPECTRUM
##SAMPLE DESCRIPTION=Humboldt-Universitat zu Berlin, Department of Chemistry
, Analytical Group
##NAMES=HP
##CAS NAME=4-Bromophenylthioacetomorpholide
##MOLFORM=C12H14BrNOS
##CAS REGISTRY NO=77129-81-8
##MP= -300
##BP= -300
##MW= 299
##$RETENTION INDEX=0
##$CONDENSED SPECTRUM=NO
##NPOINTS= 233
##XYDATA=(XY..XY) 1 
    12          3
    14          9
    15         70
    16         24
    17        118
    18        304
    19         13
    25          2
    26         35
    27        192
    28        316
    29        156
    30         91
    31         70
    32         15
    33          3
    34          3
    35          2
    37          6
    38         24
    39         98
    40         21
    41        133
    42        128
    43        310
    44         65
    45        212
    46         24
    47         19
    48          2
    49          4
    50         77
    51         72
    52         19
    53          9
    54         58
    55         54
    56        122
    57         69
    58         96
    59        110
    60        176
    61         38
    62         53
    63        154
    64         64
    65         28
    66         17
    67         62
    68         28
    69         43
    70         33
    71        114
    72         67
    73         19
    74         49
    75         62
    76         46
    77         55
    78         16
    79          8
    81         56
    82         26
    83         11
    84         43
    85         22
    86        824
    87         65
    88        208
    89        332
    90        287
    91         83
    92          7
    93         16
    94          5
    95         12
    96          9
    97          8
    98         14
    99          6
   100         23
   101         38
   102        270
   103         39
   104         27
   105          9
   106          9
   107          8
   108         20
   109          6
   110         51
   111          8
   112        259
   113         21
   114         17
   115         47
   116         99
   117         35
   118         14
   119         11
   120         12
   121         27
   122          9
   123          4
   124          2
   125          3
   126          2
   127          5
   128         34
   129         50
   130        999
   131         78
   132         61
   133         57
   134        199
   135         54
   136         17
   137          3
   140          1
   141          3
   142          6
   143         27
   144         17
   145          7
   146          9
   147         17
   148         19
   149          8
   150          2
   151          2
   152          2
   154          2
   155          5
   156         12
   157         18
   158         12
   159         12
   160         20
   161         19
   162         34
   163          5
   164          2
   167          4
   169        172
   170         53
   171        166
   172         54
   173          7
   174          5
   175         14
   176          7
   177          1
   180          4
   181         13
   182         28
   183         19
   184         29
   185          8
   186         11
   187         11
   188          4
   189          2
   190          2
   192          4
   194         16
   195         14
   196         21
   197         17
   198          8
   199         10
   200          3
   201         10
   202          3
   203          3
   204          1
   207          1
   208          6
   209          4
   210          8
   212        152
   213         20
   214        155
   215         20
   216         11
   217          2
   218          1
   219          4
   220         11
   221          3
   222         13
   223          3
   224         14
   225         11
   226          4
   227          9
   228          2
   229          2
   235          1
   236          2
   237          3
   238          5
   239          3
   240          5
   241          2
   242          3
   243          1
   244          1
   252          0
   253          0
   254          2
   255          2
   256         10
   257          3
   258          5
   259          1
   260          0
   264          1
   266         62
   267         11
   268         72
   269         11
   270         14
   271          2
   272          1
   283          1
   284          0
   298         12
   299        267
   300         51
   301        291
   302         44
   303         15
   304          2