##TITLE=Library Entry 28442
##JCAMP-DX=Revision 4.10 
##DATA TYPE=MASS SPECTRUM
##SAMPLE DESCRIPTION=Exported from NIST MS Search
##NAMES=HP
##CAS NAME=2-Butanamine, N-methyl-
##MOLFORM=C5H13N
##CAS REGISTRY NO=7713-69-1
##MP= -300
##BP= -300
##MW= 87
##$RETENTION INDEX=652
##$CONDENSED SPECTRUM=NO
##NPOINTS= 28
##XYDATA=(XY..XY) 1 
    15         20
    17          1
    18          5
    27         40
    28         60
    29         50
    30        150
    31          7
    41         60
    42         50
    43         30
    44         60
    45          4
    55         20
    56         70
    57         70
    58        999
    59         40
    60          1
    69          1
    70         20
    71         20
    72        200
    73         10
    84          4
    85          1
    86         30
    87         50