##TITLE=Library Entry 11203
##JCAMP-DX=Revision 4.10 
##DATA TYPE=MASS SPECTRUM
##SAMPLE DESCRIPTION=Chemical Concepts
##NAMES=HP
##CAS NAME=3-Octene-2,6-dione, 5,5,7-trimethyl-, (E)-
##MOLFORM=C11H18O2
##CAS REGISTRY NO=77142-73-5
##MP= -300
##BP= -300
##MW= 182
##$RETENTION INDEX=0
##$CONDENSED SPECTRUM=NO
##NPOINTS= 124
##XYDATA=(XY..XY) 1 
    26          7
    27        113
    28         14
    29         21
    30          0
    31          2
    37          2
    38          6
    39         88
    40         25
    41        235
    42         34
    43        999
    44         41
    45          5
    46          0
    47          1
    48          0
    49          0
    50          6
    51         17
    52         10
    53         52
    54          9
    55         59
    56          5
    57          6
    58         18
    59          3
    60          0
    61          0
    62          1
    63          5
    64          1
    65         13
    66          6
    67         42
    68         18
    69        111
    70         25
    71        219
    72         12
    73          1
    74          0
    75          1
    76          0
    77         16
    78          3
    79         21
    80          3
    81         23
    82          2
    83         28
    84          4
    85          6
    86          1
    87          0
    89          1
    90          0
    91         10
    92          2
    93          9
    94          3
    95         16
    96         23
    97        191
    98         18
    99          2
   100          1
   103          1
   104          0
   105          4
   106          1
   107         11
   108          2
   109         13
   110          2
   111         56
   112        924
   113         70
   114          5
   115          0
   116          0
   117          0
   118          0
   119          1
   120          1
   121          8
   122          2
   123          3
   124          3
   125          9
   126          1
   127          0
   128          0
   129          0
   133          0
   134          0
   135          0
   136          0
   137          1
   138          1
   139          6
   140          4
   141          1
   142          0
   146          0
   147          0
   148          0
   149          9
   150          1
   151          0
   153          1
   154          1
   164          9
   165          2
   166          0
   167          0
   168          1
   169          1
   170          0
   180          0
   183          3
   184          0