##TITLE=Library Entry 10355
##JCAMP-DX=Revision 4.10 
##DATA TYPE=MASS SPECTRUM
##SAMPLE DESCRIPTION=Chemical Concepts
##NAMES=HP
##CAS NAME=Acetic acid, 1-[2-(2,2,6-trimethyl-bicyclo[4.1.0]hept-1-yl)-ethyl
]-vinyl ester
##MOLFORM=C16H26O2
##CAS REGISTRY NO=77143-23-8
##MP= -300
##BP= -300
##MW= 250
##$RETENTION INDEX=0
##$CONDENSED SPECTRUM=NO
##NPOINTS= 130
##XYDATA=(XY..XY) 1 
    26          2
    27         65
    28         13
    29         91
    30          2
    31          6
    39         83
    40         23
    41        391
    42         35
    43        999
    44         23
    45          7
    50          3
    51         20
    52         11
    53        128
    54         22
    55        340
    56         26
    57         78
    58          9
    59          7
    61          6
    63          5
    64          2
    65         48
    66         20
    67        230
    68         41
    69        331
    70         29
    71         62
    72          4
    76          2
    77        126
    78         28
    79        211
    80         48
    81        380
    82        146
    83        127
    84         31
    85         13
    86          3
    89          3
    91        161
    92         39
    93        215
    94        105
    95        695
    96        154
    97        114
    98         18
    99         10
   100          2
   101          2
   102          2
   103         10
   104          7
   105        109
   106         44
   107        237
   108         79
   109        283
   110         67
   111         30
   112         15
   113         20
   114          2
   115          9
   116          3
   117         12
   118          5
   119         93
   120         30
   121        108
   122         75
   123        305
   125         77
   126         51
   127         11
   128          9
   129          3
   130          2
   131          9
   132          3
   133         51
   134         98
   135        185
   136         37
   137        325
   138         80
   139         38
   140          5
   141          2
   145          4
   146          4
   147         96
   148         24
   149         50
   150        216
   151         77
   152         38
   153          8
   156          4
   160          3
   161         15
   162          8
   164          8
   165          9
   166         77
   167         14
   168          8
   175         64
   176         12
   177          3
   179         17
   180         11
   181          6
   189         20
   190        125
   191         23
   192          7
   193         28
   194          6
   207         25
   208         84
   209         14
   250          1