##TITLE=Library Entry 10592
##JCAMP-DX=Revision 4.10 
##DATA TYPE=MASS SPECTRUM
##SAMPLE DESCRIPTION=Exported from NIST MS Search
##NAMES=HP
##CAS NAME=1-Octen-1-ol, acetate
##MOLFORM=C10H18O2
##CAS REGISTRY NO=77149-68-9
##MP= -300
##BP= -300
##MW= 170
##$RETENTION INDEX=1192
##$CONDENSED SPECTRUM=NO
##NPOINTS= 46
##XYDATA=(XY..XY) 1 
    15         16
    27         66
    28         16
    29         64
    39         52
    40          8
    41        111
    42         28
    43        999
    44         27
    45          5
    51          5
    53         28
    54        172
    55         86
    56         20
    57         67
    58         36
    59          7
    61         10
    65          5
    66          9
    67         77
    68         68
    69         60
    70          8
    71         40
    72         91
    73         15
    79          8
    81         75
    82         36
    83          7
    85         25
    86         20
    95         25
    99        238
   100         32
   109          6
   110         38
   111          6
   113          6
   114         20
   127         15
   128         76
   129          7