##TITLE=Library Entry 59786
##JCAMP-DX=Revision 4.10 
##DATA TYPE=MASS SPECTRUM
##SAMPLE DESCRIPTION=Exported from NIST MS Search
##NAMES=HP
##CAS NAME=Sulfoxide, methyl phenethyl
##MOLFORM=C9H12OS
##CAS REGISTRY NO=7714-32-1
##MP= -300
##BP= -300
##MW= 168
##$RETENTION INDEX=0
##$CONDENSED SPECTRUM=NO
##NPOINTS= 8
##XYDATA=(XY..XY) 1 
    65        120
    66         20
    77         40
    78         40
    91        999
   103         88
   104         88
   105         40