##TITLE=Library Entry 107313
##JCAMP-DX=Revision 4.10 
##DATA TYPE=MASS SPECTRUM
##SAMPLE DESCRIPTION=Chemical Concepts
##NAMES=HP
##CAS NAME=Furan, 2-methyl-5-(1,1,5-trimethyl-5-hexenyl)-
##MOLFORM=C14H22O
##CAS REGISTRY NO=77143-15-8
##MP= -300
##BP= -300
##MW= 206
##$RETENTION INDEX=1440
##$CONDENSED SPECTRUM=NO
##NPOINTS= 103
##XYDATA=(XY..XY) 1 
    26          0
    27         13
    28          3
    29         14
    38          1
    39         20
    40          3
    41         45
    42          3
    43         92
    45          2
    46          1
    50          1
    51          7
    52          4
    53         16
    54          2
    55         25
    56          2
    57          3
    63          1
    64          1
    65          7
    66          2
    67         14
    68          6
    69         14
    70          1
    71          2
    77         17
    78          3
    79         17
    80          4
    81         12
    82          8
    83          4
    85          2
    91         13
    92          3
    93          7
    94          2
    95         24
    96          3
    97          2
    98          1
   103          2
   104          1
   105          9
   106          3
   107         22
   108         11
   109         38
   110          3
   111          1
   115          2
   116          0
   117          2
   118          1
   119          2
   120          1
   121         12
   122         21
   123        999
   124        112
   125          6
   126          0
   127          0
   128          1
   129          1
   130          0
   131          2
   132          0
   133          3
   134          1
   135         43
   136          6
   137          2
   140          1
   144          1
   146          1
   147          2
   148          1
   149          4
   150          2
   160          0
   161          2
   162          0
   163         18
   164          2
   165          0
   173          1
   176          0
   177          1
   178          4
   179          0
   180          2
   189          0
   190          2
   191         20
   192          3
   206        119
   207         16
   208          1