##TITLE=Library Entry 68450
##JCAMP-DX=Revision 4.10 
##DATA TYPE=MASS SPECTRUM
##SAMPLE DESCRIPTION=Chemical Concepts
##NAMES=HP
##CAS NAME=5,7-Octadien-3-ol, 2,4,4,7-tetramethyl-, (E)-
##MOLFORM=C12H22O
##CAS REGISTRY NO=77142-78-0
##MP= -300
##BP= -300
##MW= 182
##$RETENTION INDEX=0
##$CONDENSED SPECTRUM=NO
##NPOINTS= 91
##XYDATA=(XY..XY) 1 
    26          5
    27        131
    28         29
    29        137
    30         34
    31         37
    37          2
    38          6
    39        132
    40         26
    41        286
    42         29
    43        400
    44         15
    45         57
    46          2
    50          7
    51         30
    52         14
    53         92
    54         23
    55        324
    56         51
    57         58
    58         14
    59         20
    63          9
    64          3
    65         46
    66         14
    67        268
    68         77
    69        151
    70         28
    71         46
    72         27
    73        202
    74         10
    75          2
    77         90
    78         20
    79        116
    80         18
    81        145
    82         30
    83         28
    84          5
    85         15
    87          2
    89          2
    91         67
    92          9
    93         73
    94         29
    95        999
    96         98
    97        119
    98         13
    99         13
   100          3
   103          3
   104          2
   105         15
   106          2
   107         26
   108         11
   109        196
   110        822
   111        114
   112        249
   113         30
   114          9
   115          3
   117          2
   119          3
   120          3
   121         27
   122          5
   123         29
   124          8
   125          5
   126          5
   127          2
   139         32
   140          4
   141          7
   149          9
   150          1
   167          2
   182          5
   183          1