##TITLE=Library Entry 61116
##JCAMP-DX=Revision 4.10 
##DATA TYPE=MASS SPECTRUM
##SAMPLE DESCRIPTION=Institute of Organic Chemistry, Novosibirsk, USSR 1988
##NAMES=HP
##CAS NAME=3,5-Dimethyl-2-benzylimino-1,3-thiazolidine
##MOLFORM=C12H16N2S
##CAS REGISTRY NO=77158-39-5
##MP= -300
##BP= -300
##MW= 220
##$RETENTION INDEX=0
##$CONDENSED SPECTRUM=NO
##NPOINTS= 94
##XYDATA=(XY..XY) 1 
    39        149
    41        129
    42        209
    43         59
    44         49
    45         59
    46          9
    47          9
    50        119
    51        249
    52         59
    53         19
    54          9
    55         29
    56         39
    57         29
    58          9
    59         49
    60         59
    61         39
    62         19
    63         69
    64         19
    65        239
    66         19
    67          9
    68          9
    69         39
    70         69
    71         19
    72         49
    73        139
    74        169
    75        129
    76         49
    77        409
    78        119
    79        259
    80         19
    88         59
    89         69
    90         29
    91        999
    92        109
   100          9
   102         29
   103         29
   104        119
   105        319
   106        549
   107         49
   114          9
   115         99
   116         59
   117         29
   118         39
   119          9
   120         49
   121         39
   122         99
   123          9
   127          9
   128         19
   129         49
   130         99
   131         19
   132         49
   133         39
   134          9
   142         19
   143         99
   144         19
   145         39
   146         19
   148         29
   149         19
   150        549
   151         59
   157         19
   164         29
   177          7
   178         99
   179         89
   180          9
   193          9
   194          9
   195          9
   201         19
   205         19
   206         19
   219        229
   220        349
   221         59
   223         24