##TITLE=Library Entry 81324
##JCAMP-DX=Revision 4.10 
##DATA TYPE=MASS SPECTRUM
##SAMPLE DESCRIPTION=Institute of Organic Chemistry, Novosibirsk, USSR 1988
##NAMES=HP
##CAS NAME=3,5-Dimethyl-2-benzoylimino-1,3-thiazolidine
##MOLFORM=C12H14N2OS
##CAS REGISTRY NO=77158-42-0
##MP= -300
##BP= -300
##MW= 234
##$RETENTION INDEX=0
##$CONDENSED SPECTRUM=NO
##NPOINTS= 58
##XYDATA=(XY..XY) 1 
    38          9
    39         69
    40         59
    41        169
    42        159
    43        109
    44         39
    45         19
    50         69
    51        229
    52         29
    55         29
    56         99
    57        169
    58          9
    59         19
    60         19
    61         19
    63          9
    68          9
    69         29
    70         39
    71         59
    72          9
    73         19
    74         39
    75         29
    76         54
    77        729
    78        119
    83         59
    86        129
    88         19
    89          9
    91          9
   102         19
   103         59
   104         24
   105        999
   106         59
   122         19
   129         79
   130         19
   131         29
   136         69
   137          9
   149          9
   155         19
   157        859
   158         69
   159         49
   164         64
   192         79
   193          9
   233         79
   234        649
   235         99
   236         34