##TITLE=Library Entry 63918
##JCAMP-DX=Revision 4.10 
##DATA TYPE=MASS SPECTRUM
##SAMPLE DESCRIPTION=Institute of Organic Chemistry, Novosibirsk, USSR 1988
##NAMES=HP
##CAS NAME=5-Methyl-2-(N-ethylbenzylamino)-2-thiazoline
##MOLFORM=C13H18N2S
##CAS REGISTRY NO=77158-41-9
##MP= -300
##BP= -300
##MW= 234
##$RETENTION INDEX=0
##$CONDENSED SPECTRUM=NO
##NPOINTS= 95
##XYDATA=(XY..XY) 1 
    38         18
    39        144
    40         31
    41        259
    42        119
    43         32
    44         83
    45         65
    50         33
    51         84
    52         25
    53         20
    54         31
    55        219
    56        111
    57         44
    58         52
    59         74
    60         69
    61         81
    62         15
    63         52
    64         18
    65        244
    66         16
    68         19
    69         35
    70         49
    71         21
    72         44
    73         40
    74         71
    75         27
    76         31
    77         96
    78         36
    79         41
    83         88
    84        104
    85         17
    86         31
    87         74
    88         41
    89         69
    90         35
    91        999
    92        109
   100         19
   101         42
   102         26
   103         22
   104         66
   105         76
   106        194
   107         19
   114         17
   116        124
   117         49
   118         60
   119         15
   121         29
   122         44
   123         15
   129         47
   130         41
   131         39
   132         29
   134         29
   135         24
   141         18
   143        219
   144         39
   145         39
   146         89
   148         29
   149         19
   150         19
   151          9
   157         29
   163          9
   164         29
   173         19
   177         19
   178         49
   191         29
   192         39
   203         19
   205        449
   206        115
   207         33
   219         39
   233        159
   234        499
   235         98
   236         31