##TITLE=Library Entry 63592
##JCAMP-DX=Revision 4.10 
##DATA TYPE=MASS SPECTRUM
##SAMPLE DESCRIPTION=Institute of Organic Chemistry, Novosibirsk, USSR 1988
##NAMES=HP
##CAS NAME=5-Methyl-2-(N-methylbenzylamino)-2-thiazoline
##MOLFORM=C12H16N2S
##CAS REGISTRY NO=77158-40-8
##MP= -300
##BP= -300
##MW= 220
##$RETENTION INDEX=0
##$CONDENSED SPECTRUM=NO
##NPOINTS= 90
##XYDATA=(XY..XY) 1 
    38         14
    39        139
    40         19
    41        169
    42        199
    43          9
    44         19
    45         59
    46          9
    47         19
    50         19
    51         69
    52         19
    53          9
    54          9
    55         19
    56         19
    57         29
    58         19
    59         59
    60         49
    61          9
    62          9
    63         59
    64         19
    65        289
    66         19
    68         22
    69        489
    70         39
    71         14
    72         69
    73         49
    74         69
    75         19
    76          9
    77         69
    78         29
    79          9
    83         29
    86          9
    88          9
    89         69
    90         39
    91        999
    92         79
   100         19
   101          9
   102         14
   103         14
   104         39
   105         19
   106         19
   116         19
   117         49
   118        139
   119         39
   120        179
   121         49
   122         49
   123         19
   127         39
   128          9
   129        149
   130         39
   131         39
   132         49
   133         14
   135         49
   136         29
   145         19
   147         29
   148         29
   149          9
   155         12
   159         89
   160         29
   163         79
   164         79
   173         39
   176         12
   178         79
   179         29
   180          9
   203         49
   205        689
   206        119
   219        289
   220        629
   221        129