##TITLE=Library Entry 43692
##JCAMP-DX=Revision 4.10 
##DATA TYPE=MASS SPECTRUM
##SAMPLE DESCRIPTION=Tox21 Consortium/NIST Mass Spectrometry Data Center, 20
12
##NAMES=HP
##CAS NAME={(2,3-Dimethylbutane-1,4-diyl)bis[benzene-4,1,2-triylbis(oxy)]}te
trakis(trimethylsilane)
##MOLFORM=C30H54O4Si4
##CAS REGISTRY NO=77160-59-9
##MP= -300
##BP= -300
##MW= 590
##$RETENTION INDEX=0
##$CONDENSED SPECTRUM=NO
##NPOINTS= 202
##XYDATA=(XY..XY) 1 
    15          1
    29          1
    39          1
    41          6
    42          1
    43          4
    44          5
    45         44
    46          3
    47          3
    53          1
    55          3
    56          2
    57          2
    58          2
    59          7
    60          1
    61          1
    66          1
    69          5
    70          1
    71          2
    73        999
    74         82
    75         50
    76          2
    77          3
    78          2
    79          1
    83          1
    85          1
    87          1
    89          1
    90          1
    91          5
    92          1
    93          1
    95          1
    99          1
   102          1
   103          5
   104         10
   105          8
   106          1
   107          1
   115          4
   116          2
   117          6
   118          2
   119          8
   120          1
   121          1
   127          1
   128          1
   129          2
   130          1
   131         13
   132          2
   133         16
   134          2
   135          3
   136          1
   137          1
   141          1
   143          1
   145          4
   146          1
   147         50
   148          8
   149         21
   150          3
   151          5
   152          1
   153          1
   157          1
   159          1
   160          1
   161          6
   162          2
   163          7
   164          2
   165          5
   166          6
   167          3
   168          1
   169          1
   173          1
   174          1
   175          2
   176          1
   177         13
   179        451
   180         76
   181         23
   182          2
   183          1
   189          2
   191          4
   192          5
   193         19
   194          4
   195          4
   196          1
   203          2
   204          2
   205          5
   206          2
   207          7
   208          1
   209          4
   210          1
   217          2
   218          1
   219          3
   220          1
   221          2
   222          1
   223          4
   224          1
   225          1
   231          1
   233          5
   234          1
   235          2
   236          1
   237         13
   238          3
   239          2
   245          1
   247          8
   248          2
   249          2
   251          8
   252          3
   253          5
   254          3
   255          2
   256          1
   261          1
   262          1
   263          1
   264          1
   265         17
   266          5
   267        721
   268        241
   269         85
   270         19
   271          3
   272          1
   277          1
   279          1
   280          1
   281          3
   282          1
   283          1
   293          1
   294          6
   295         27
   296          8
   297          2
   305          1
   306          1
   307          2
   308          1
   319          1
   321          7
   322          7
   323          4
   324          1
   335          5
   336          2
   337          4
   338          1
   339          1
   357          1
   399          2
   427          1
   428          1
   443          1
   485          1
   486          1
   487          4
   488          1
   489          1
   502          3
   503          1
   504          1
   519          1
   533          1
   575         18
   576          9
   577          5
   578          1
   579          1
   588          1
   590        183
   591         95
   592         49
   593         17
   594          5
   595          1