##TITLE=Library Entry 48486
##JCAMP-DX=Revision 4.10 
##DATA TYPE=MASS SPECTRUM
##SAMPLE DESCRIPTION=A.A.Kutin, Moscow, Russia
##NAMES=HP
##CAS NAME=Adamantane-2-carbonitrile, 4-oxo-
##MOLFORM=C11H13NO
##CAS REGISTRY NO=77172-06-6
##MP= -300
##BP= -300
##MW= 175
##$RETENTION INDEX=0
##$CONDENSED SPECTRUM=NO
##NPOINTS= 112
##XYDATA=(XY..XY) 1 
    35          2
    36          1
    37         22
    38         78
    39        829
    40        170
    41        658
    42         56
    43        148
    44         24
    45          4
    46          0
    47          3
    48          2
    49          5
    50         79
    51        234
    52        197
    53        348
    54        251
    55        219
    56         71
    57         56
    58         10
    59         13
    60          3
    61          4
    62         18
    63         75
    64         63
    65        224
    66        207
    67        297
    68        150
    69        110
    70         21
    71         11
    72         15
    73          5
    74          7
    75         14
    76         35
    77        398
    78        230
    79        999
    80        357
    81        553
    82         47
    83         18
    84         10
    85          6
    86          1
    87          3
    88          4
    89         24
    90         21
    91        253
    92        197
    93        126
    94         54
    95         21
    96         32
    97         69
    98          5
    99          1
   101          1
   102         12
   103         38
   104        295
   105        387
   106        114
   107         31
   108         11
   109         19
   110          2
   114          1
   115         20
   116         43
   117         70
   118        110
   119        185
   120         93
   121         16
   122          5
   126          0
   127          3
   128          7
   129         48
   130         97
   131         42
   132        120
   133         24
   134         18
   135         10
   140          1
   141          3
   142         26
   143          5
   144         16
   145         10
   146        173
   147        295
   148         37
   149          3
   156         53
   157         24
   158          6
   160          5
   172          0
   175        767
   176         87
   177          6