##TITLE=Library Entry 6311
##JCAMP-DX=Revision 4.10 
##DATA TYPE=MASS SPECTRUM
##SAMPLE DESCRIPTION=H. SURBURG, C/O HAARMANN U. REIMER GMBH, HOLZMINDEN, W.
##NAMES=HP
##CAS NAME=(-)-Spathulenol
##MOLFORM=C15H24O
##CAS REGISTRY NO=77171-55-2
##MP= -300
##BP= -300
##MW= 220
##$RETENTION INDEX=1577
##$CONDENSED SPECTRUM=NO
##NPOINTS= 159
##XYDATA=(XY..XY) 1 
    26          4
    27        175
    29        159
    30          3
    31         18
    37          2
    38          6
    39        196
    40         35
    41        688
    42         32
    43        999
    44         17
    45         37
    46          1
    50          9
    51         55
    52         28
    53        153
    54         18
    55        274
    56         14
    57         52
    58         38
    59         31
    60          1
    61          1
    62          3
    63         14
    64         10
    65         96
    66         31
    67        244
    68         27
    69        349
    70         24
    71        201
    72         24
    73          6
    74          4
    75          3
    76          4
    77        195
    78         62
    79        316
    80         71
    81        228
    82        159
    83         83
    84         12
    85         39
    86          6
    87          2
    89          6
    90          1
    91        422
    92        109
    93        397
    94        106
    95        196
    96         37
    97         50
    98          4
    99         22
   100          2
   101          0
   102          5
   103         29
   104         47
   105        341
   106        200
   107        291
   108         62
   109        106
   110         27
   111         15
   112          2
   113          2
   115         34
   116         15
   117        140
   118         48
   119        421
   120        142
   121        175
   122         47
   123         63
   124         11
   125         24
   126          3
   127          7
   128         23
   129         27
   130         18
   131        208
   132         59
   133        167
   134        103
   135        112
   136         27
   137         24
   138          7
   139          3
   140          0
   141          6
   142          6
   143         17
   144         18
   145        172
   146        152
   147        217
   148         35
   149        127
   150         45
   151         16
   152          4
   153          2
   155          3
   156          0
   157          8
   158          9
   159        335
   160         94
   161         38
   162        235
   163         50
   164         14
   165          4
   166          1
   170          0
   171          2
   172          2
   173         29
   174         24
   175          8
   176          4
   177         86
   178         11
   179          1
   183          0
   187        171
   188         25
   189          7
   190          0
   191          5
   192          9
   193          0
   198          0
   200          1
   201          2
   202        161
   203         31
   204          2
   205        332
   206         55
   207          5
   219          1
   220         56
   221         10