##TITLE=Library Entry 61978
##JCAMP-DX=Revision 4.10 
##DATA TYPE=MASS SPECTRUM
##SAMPLE DESCRIPTION=R. SELF, AGRIC. RES. COUNC., FOOD RES. INST., NORWICH,
 UG
##NAMES=HP
##CAS NAME=.beta.-D-Glucopyranose, 1-thio-, 1-(N-hydroxybenzenepropanimidate
)
##MOLFORM=C15H21NO6S
##CAS REGISTRY NO=77171-31-4
##MP= -300
##BP= -300
##MW= 343
##$RETENTION INDEX=0
##$CONDENSED SPECTRUM=NO
##NPOINTS= 142
##XYDATA=(XY..XY) 1 
    31         32
    33          7
    34         17
    35          8
    36         18
    37          5
    38         10
    39         46
    40         11
    41         42
    42         26
    43         57
    44         55
    45         41
    46         12
    47         20
    48         12
    49          7
    50         25
    51         47
    52         17
    53         14
    54         14
    55         47
    56         29
    57         49
    58         17
    59         24
    60         90
    61         80
    62         21
    63         36
    64         35
    65         80
    66          8
    67          8
    68         10
    69         35
    70         14
    71         29
    72         24
    73         84
    74         32
    75         22
    76         33
    77         52
    78         26
    79         17
    80          6
    81         13
    82         14
    83         18
    84         10
    85         35
    86         14
    87         28
    88         10
    89         30
    90         14
    91        999
    92         77
    93          7
    94          9
    95         13
    96         49
    97         25
    98         12
    99         10
   100          7
   101         14
   102         20
   103         49
   104         42
   105         48
   106         12
   107          8
   108          7
   109          8
   110         13
   111          2
   112          5
   113          8
   114          5
   115         13
   116         12
   117          6
   118          5
   119          7
   120          4
   121          2
   122          8
   123          8
   124         13
   125          3
   126          7
   127         14
   128         18
   129         17
   130         21
   131        268
   132         35
   133         12
   134          5
   135          3
   136          6
   138         10
   142          8
   143          3
   144          7
   145         30
   146         11
   147         41
   148         11
   149         35
   150         10
   156          7
   157          1
   160          5
   161          2
   162          3
   163         34
   164          8
   165         16
   166          3
   170          6
   171         16
   172          4
   173          3
   174          2
   181         14
   182          3
   184          1
   185         13
   186          3
   187          2
   191          7
   193          1
   203          3
   217          2
   224          3
   256          7
   258          3