##TITLE=Library Entry 58
##JCAMP-DX=Revision 4.10 
##DATA TYPE=MASS SPECTRUM
##SAMPLE DESCRIPTION=Exported from NIST MS Search
##NAMES=HP
##CAS NAME=2-Pentenedinitrile
##MOLFORM=C5H4N2
##CAS REGISTRY NO=7717-24-0
##MP= -300
##BP= -300
##MW= 92
##$RETENTION INDEX=0
##$CONDENSED SPECTRUM=NO
##NPOINTS= 49
##XYDATA=(XY..XY) 1 
    12         35
    13         26
    14         53
    15         29
    16          8
    24         26
    25         89
    26        483
    27        999
    28        317
    29         69
    30          5
    31          1
    36         25
    37         84
    38        113
    39         56
    40         42
    41        303
    42         41
    43         14
    44          3
    45          5
    46          1
    48          2
    49          4
    50         14
    51         56
    52        138
    53         12
    62         20
    63         44
    64         54
    65         45
    66         75
    69          1
    70          1
    73          2
    74          4
    75          2
    76          5
    77         20
    78          5
    88          1
    89          4
    90          1
    91          3
    92         86
    93          7