##TITLE=Library Entry 31212
##JCAMP-DX=Revision 4.10 
##DATA TYPE=MASS SPECTRUM
##SAMPLE DESCRIPTION=R. SELF, AGRIC. RES. COUNC., FOOD RES. INST., NORWICH,
 U
##NAMES=HP
##CAS NAME=.beta.-D-Glucopyranose, 1-thio-,1-[N-hydroxy-5-(methylthio)pentan
imidate]
##MOLFORM=C12H23NO6S2
##CAS REGISTRY NO=77171-29-0
##MP= -300
##BP= -300
##MW= 341
##$RETENTION INDEX=0
##$CONDENSED SPECTRUM=NO
##NPOINTS= 112
##XYDATA=(XY..XY) 1 
    51         36
    52         45
    53        118
    54        277
    55        641
    56        122
    57        172
    58         81
    59        106
    60        404
    61        999
    62        119
    63        105
    64         48
    65         13
    66         19
    67         45
    68         43
    69         54
    70         31
    71         77
    72        115
    73        207
    74         94
    75        106
    76         54
    77         16
    78         14
    79         11
    80         48
    81         62
    82        554
    83        142
    84         39
    85         88
    86         46
    87        224
    88         32
    89         45
    90          8
    91         22
    92          2
    93          2
    94          3
    95          5
    96         19
    97         30
    98         32
    99         45
   100        139
   101         42
   102         36
   103         49
   104          7
   105          6
   106          2
   107          1
   108          1
   109          4
   110          3
   111          3
   112          8
   113         23
   114         84
   115         75
   116         24
   117          7
   118          3
   119         11
   120          2
   121          1
   123          1
   124          2
   125          2
   126          7
   127         17
   128         42
   129        585
   130         75
   131         59
   132         13
   133          6
   134          2
   135          1
   136          1
   142          2
   143          2
   144         11
   145         57
   146         52
   147         15
   148         15
   149          6
   150          1
   151          1
   156          1
   157          1
   158          1
   159          7
   161         15
   162          9
   163         12
   164          2
   165          1
   167          1
   192          6
   193          1
   219          1
   250          1
   252          2
   256          2
   258          2