##TITLE=Library Entry 43917
##JCAMP-DX=Revision 4.10 
##DATA TYPE=MASS SPECTRUM
##SAMPLE DESCRIPTION=James Shoemaker, St. Louis Online Library of Metabolic
 Mass Spectra
##NAMES=HP
##CAS NAME=11-Nor .delta.-8 tetrahydrocannabinol 9-carboxylic acid di-TMS
##MOLFORM=C27H44O4Si2
##CAS REGISTRY NO=77183-82-5
##MP= -300
##BP= -300
##MW= 488
##$RETENTION INDEX=0
##$CONDENSED SPECTRUM=NO
##NPOINTS= 127
##XYDATA=(XY..XY) 1 
    53         36
    73        999
    74         82
    75        151
    81         36
    91         30
   105         23
   117         16
   118         19
   119         44
   129         12
   133         19
   145         11
   146         29
   147         76
   149         13
   155         44
   165         17
   167          9
   177         18
   179         19
   181         20
   191         11
   193         24
   195         24
   196         78
   197         18
   205          9
   207         16
   209        247
   210         45
   211         11
   216         40
   217         11
   219         17
   220         13
   221         27
   222         21
   223         14
   224          7
   229          9
   231         16
   232          9
   233         19
   235         10
   237         20
   243          9
   245         17
   246         60
   247         36
   248          9
   249         17
   250          9
   251          7
   252         11
   253         21
   255          8
   257          9
   258          6
   259         20
   260         11
   261         25
   262         12
   263         16
   265        154
   266         31
   267         14
   269          8
   271         15
   272          9
   273         12
   276          7
   279          7
   281          8
   283         15
   285         12
   286          9
   287          7
   289         17
   297         11
   299         30
   300          8
   301         18
   303        677
   304        164
   306         45
   307          6
   313         19
   314         35
   315         27
   317         37
   319         79
   325          6
   327         18
   329         21
   331         15
   339         12
   342         35
   344         39
   353          5
   355        103
   357         30
   358          9
   369          7
   371          8
   372         22
   373          4
   383         37
   385          9
   386          7
   399         10
   429          5
   432        318
   433        111
   434         39
   435          7
   445         15
   447         81
   448         28
   449          8
   473        110
   474         39
   476         13
   489        332
   490        129
   491         43
   492          8