##TITLE=Library Entry 32252
##JCAMP-DX=Revision 4.10 
##DATA TYPE=MASS SPECTRUM
##SAMPLE DESCRIPTION=V.A.KOPTYUG, ATLAS OF MASS SPECTRA OF ORGANIC COMPOUNDS
##NAMES=HP
##CAS NAME=Bicyclo[3.2.1]oct-6-ene, 1-methyl-2,2,4,4,8,8-hexachloro-2,4,8-tr
isila-3-oxa-
##MOLFORM=C5H6Cl6OSi3
##CAS REGISTRY NO=77181-40-9
##MP= -300
##BP= -300
##MW= 376
##$RETENTION INDEX=0
##$CONDENSED SPECTRUM=NO
##NPOINTS= 39
##XYDATA=(XY..XY) 1 
    63         70
    65         50
    66        999
    67         60
   128        180
   129        420
   130        130
   131        160
   132         30
   133         40
   135         30
   137         10
   177        120
   178         10
   179        130
   180         10
   181         40
   243        330
   244         50
   245        340
   246         50
   247        120
   248         20
   249         10
   278         90
   279         10
   280        120
   281         20
   282         60
   283         10
   376        130
   377         30
   378        260
   379         60
   380        210
   381         50
   382        100
   383         20
   384         20