##TITLE=Library Entry 81541
##JCAMP-DX=Revision 4.10 
##DATA TYPE=MASS SPECTRUM
##SAMPLE DESCRIPTION=Chemical Concepts
##NAMES=HP
##CAS NAME=N-(2,2-Diphenylethyl)benzamide
##MOLFORM=C21H19NO
##CAS REGISTRY NO=77198-90-4
##MP= -300
##BP= -300
##MW= 301
##$RETENTION INDEX=0
##$CONDENSED SPECTRUM=NO
##NPOINTS= 155
##XYDATA=(XY..XY) 1 
    26          0
    27          7
    28         31
    29          6
    30         67
    31          1
    32          9
    38          0
    39         16
    40          1
    41         18
    42          3
    43         16
    44          6
    45          1
    49          2
    50          8
    51         52
    52          5
    53          3
    54          1
    55         15
    56          4
    57         16
    58          2
    59          1
    60          1
    62          1
    63          8
    64          2
    65         18
    66          2
    67          6
    68          2
    69         18
    70          4
    71          8
    72          3
    73          2
    74          1
    75          3
    76         12
    77        300
    78         28
    79          4
    80          2
    81          9
    82          5
    83          7
    84          1
    85          4
    86          0
    87          1
    88          1
    89          8
    90          4
    91        133
    92         11
    93          3
    94          1
    95          5
    96          2
    97          6
    98          1
    99          1
   101          2
   102          7
   103         11
   104         11
   105        999
   106         77
   107          7
   108          9
   109          4
   110          1
   111          3
   112          1
   113          2
   114          1
   115         15
   116          3
   117          3
   118          5
   119          2
   120          3
   121          1
   122          2
   123          2
   124          0
   125          1
   126          2
   127          3
   128         11
   129          1
   131          0
   132          0
   133          1
   134        112
   135         12
   136          1
   137          2
   138          4
   139         12
   140          2
   141          6
   142          0
   143          0
   145          0
   146          0
   147          0
   149          4
   150          4
   151         11
   152         73
   153         11
   154          2
   155          0
   162          1
   163          9
   164         14
   165        192
   166         69
   167        278
   168         43
   169          3
   175          0
   176          2
   177          5
   178         26
   179         42
   180        428
   181         68
   182          5
   183          0
   186          1
   191          0
   192          0
   193          1
   194         43
   195          7
   196          1
   197          1
   199          0
   206          0
   210          0
   222          1
   239          1
   257          1
   281          0
   282          0
   284          0
   299          0
   301         91
   302         20
   303          2