##TITLE=Library Entry 86851
##JCAMP-DX=Revision 4.10 
##DATA TYPE=MASS SPECTRUM
##SAMPLE DESCRIPTION=A.A.Kutin, Moscow, Russia
##NAMES=HP
##CAS NAME=Naphthalene-1,3,3-tricarbonitrile, 3,4,4a,5,6,7-hexahydro-2-amino
-4-(4-fluorophenyl)-
##MOLFORM=C19H15FN4
##CAS REGISTRY NO=77198-44-8
##MP= -300
##BP= -300
##MW= 318
##$RETENTION INDEX=0
##$CONDENSED SPECTRUM=NO
##NPOINTS= 230
##XYDATA=(XY..XY) 1 
    38          8
    39         70
    40         22
    41         56
    42         13
    43         10
    44          3
    50         17
    51         37
    52         28
    53         22
    54         12
    55         11
    57         21
    59          5
    62          9
    63         31
    64         22
    65         35
    66         32
    67         31
    68          7
    69          9
    70         10
    74          9
    75         49
    76         29
    77         44
    78         26
    79         20
    80          7
    81         17
    82          5
    83         46
    84          4
    86          4
    87          9
    88         14
    89         27
    90         19
    91         32
    92         18
    93          9
    94         16
    95         33
    96         37
    97         10
    98          6
    99         14
   100         13
   101         32
   102         21
   103         21
   104         18
   105         17
   106          9
   107         33
   109        999
   110         72
   111         11
   112          6
   113          9
   114         16
   115         55
   116         30
   117         21
   118         28
   119         16
   120         32
   121         34
   122         28
   123         10
   124         13
   125         16
   126         24
   127         23
   128         27
   129         21
   130         21
   131         23
   132         15
   133         99
   134         31
   135        110
   136         13
   137          7
   138         11
   139         13
   140         27
   141         19
   142         21
   143         24
   144         26
   145         46
   146         67
   147         40
   148         18
   149          8
   150          8
   151         12
   152         13
   153         12
   154         11
   155         43
   156         31
   157         33
   158         28
   159         29
   160          8
   161          5
   163          3
   164          5
   165         25
   166          9
   167         17
   168         25
   169         38
   170         36
   171         29
   172         28
   173         23
   174          8
   175          5
   176          7
   177          6
   178          7
   179          7
   180         20
   181         23
   182         57
   183         70
   184         46
   185         16
   186          7
   187          4
   188          4
   189          4
   190          6
   191          3
   192         11
   193         18
   194         30
   195         53
   196         51
   197         18
   198         21
   199          9
   200          6
   201          4
   202          3
   203          3
   204          5
   205          6
   206         13
   207         18
   208         67
   209        339
   210         60
   211         12
   212          7
   213          8
   214         11
   215          6
   216          3
   218          3
   219          8
   220         11
   221         38
   222         55
   223        100
   224         27
   225         12
   226          8
   227          4
   230          4
   231          3
   232          7
   233         16
   234         14
   235         14
   236         15
   237         14
   238          7
   239          6
   244          4
   245          9
   246         10
   247         11
   248         22
   249         16
   250         35
   251         23
   252         16
   253         22
   254          4
   258          4
   259          5
   260          7
   261         11
   262         25
   263         27
   264         63
   265         21
   266          3
   272          5
   273         12
   274         11
   275         15
   276         19
   277         11
   278         17
   279          3
   286          3
   287          4
   288          5
   289         30
   290         47
   291         40
   292         21
   293         17
   300         11
   301         14
   302         16
   303         32
   304          6
   316          3
   317        101
   318        453
   319         97
   320         10