##TITLE=Library Entry 77754
##JCAMP-DX=Revision 4.10 
##DATA TYPE=MASS SPECTRUM
##SAMPLE DESCRIPTION=Institute of Organic Chemistry, Novosibirsk, USSR 1988
##NAMES=HP
##CAS NAME=Silane, dichloroethenylphenyl-
##MOLFORM=C8H8Cl2Si
##CAS REGISTRY NO=7719-02-0
##MP= -300
##BP= -300
##MW= 202
##$RETENTION INDEX=0
##$CONDENSED SPECTRUM=NO
##NPOINTS= 35
##XYDATA=(XY..XY) 1 
    28         18
    29          9
    39          9
    51         70
    52         11
    63         90
    65         30
    76         19
    77        150
    78         61
    97         30
   101         10
   102         19
   103         31
   104        999
   105        103
   125         32
   127         11
   139         11
   140          9
   141         21
   165         12
   166         40
   167         18
   175        171
   176         30
   177        151
   178         20
   179         29
   201         22
   202        122
   203         20
   204         72
   205          9
   206         20