##TITLE=Library Entry 81422
##JCAMP-DX=Revision 4.10 
##DATA TYPE=MASS SPECTRUM
##SAMPLE DESCRIPTION=R.T.HOLMAN,UNIVERSITY OF MINNESOTA
##NAMES=HP
##CAS NAME=1,3-Dioxane, 2-phenyl-
##MOLFORM=C10H12O2
##CAS REGISTRY NO=772-01-0
##MP= -300
##BP= -300
##MW= 164
##$RETENTION INDEX=1344
##$CONDENSED SPECTRUM=NO
##NPOINTS= 108
##XYDATA=(XY..XY) 1 
    25          2
    26         22
    27         94
    28         50
    29        116
    30         10
    31        100
    32          3
    33          2
    35          2
    36          2
    37          6
    38         17
    39         75
    40         17
    41         88
    42        138
    43         14
    44          3
    45          5
    47          2
    48          1
    49          5
    50        100
    51        255
    52         63
    53         17
    54          2
    55          7
    56          5
    57         26
    58         13
    59         58
    60          4
    61          5
    62         15
    63         38
    64         13
    65         21
    66          4
    67          3
    68          3
    69          2
    70          2
    71          2
    72          1
    73         10
    74         23
    75         22
    76         37
    77        500
    78        177
    79        166
    80         11
    81          2
    82          2
    83          2
    84          2
    85          2
    86         21
    87        233
    88         14
    89         43
    90         25
    91         75
    92         16
    93          2
    94          2
    95          2
    96          1
    97          2
    98          1
    99          1
   101          2
   102          2
   103          3
   104         21
   105        999
   106        311
   107        105
   108         15
   109          2
   110          1
   111          1
   112          1
   115          2
   116          2
   117          2
   118          2
   119          3
   120          4
   121          2
   122          5
   123          3
   131          2
   132          2
   133          6
   134         17
   135          3
   136          2
   149          2
   150          1
   162         21
   163        750
   164        372
   165         40
   166          4
   167          1