##TITLE=Library Entry 61023
##JCAMP-DX=Revision 4.10 
##DATA TYPE=MASS SPECTRUM
##SAMPLE DESCRIPTION=Chemical Concepts
##NAMES=HP
##CAS NAME=Silane, dichloromethyl(2-phenylethyl)-
##MOLFORM=C9H12Cl2Si
##CAS REGISTRY NO=772-65-6
##MP= -300
##BP= -300
##MW= 218
##$RETENTION INDEX=0
##$CONDENSED SPECTRUM=NO
##NPOINTS= 71
##XYDATA=(XY..XY) 1 
    27         13
    28          3
    38          3
    39         29
    41          8
    43          5
    50         15
    51         47
    52         13
    53          7
    57          3
    62          5
    63         45
    64          4
    65         57
    66          5
    74          6
    75          6
    76          9
    77         86
    78        112
    79         50
    80          3
    81          5
    89         15
    90          5
    91        999
    92         85
    93          4
    99          6
   101          5
   102         12
   103         57
   104         81
   105        357
   106         32
   112          5
   113         96
   114          8
   115         69
   116          4
   117         13
   131         12
   141          5
   145          9
   146         26
   147          7
   155         13
   157          5
   165          7
   167         57
   168          8
   169         21
   175         34
   176          4
   177         23
   179          6
   181          3
   182         25
   183         11
   184         10
   185          4
   190          4
   203          7
   205          5
   217          4
   218        175
   219         29
   220        120
   221         17
   222         23