##TITLE=Library Entry 71948
##JCAMP-DX=Revision 4.10 
##DATA TYPE=MASS SPECTRUM
##SAMPLE DESCRIPTION=NIST Mass Spectrometry Data Center
##NAMES=HP
##CAS NAME=4-Chlorophenyl dichlorophosphate
##MOLFORM=C6H4Cl3O2P
##CAS REGISTRY NO=772-79-2
##MP= -300
##BP= -300
##MW= 244
##$RETENTION INDEX=0
##$CONDENSED SPECTRUM=NO
##NPOINTS= 137
##XYDATA=(XY..XY) 1 
    12          3
    13          4
    14          4
    15          3
    16          3
    25         15
    26         67
    27         22
    28         15
    29         13
    30          4
    31         54
    32         13
    33          1
    35        103
    36         46
    37        236
    38        387
    39        227
    40          9
    41         11
    42          5
    43          1
    44          4
    47        797
    48         24
    49        135
    50        286
    51        104
    52         16
    53         44
    54          5
    55          6
    56          5
    57          4
    60         42
    61        172
    62        343
    63        696
    64        173
    65         15
    66         58
    67          5
    68         20
    69          3
    73        581
    74        227
    75        515
    76         59
    77          5
    79         13
    80          6
    82         73
    83         20
    84         45
    85         34
    86          9
    87         18
    88          3
    89          6
    90          4
    91          2
    92         25
    93          4
    94          1
    95          3
    96          7
    99        999
   100         82
   101        347
   102         20
   103         10
   104          3
   105          4
   107          6
   108          3
   110         84
   111         89
   112         31
   113         28
   114          4
   115         17
   117        202
   119        128
   121         22
   127        735
   128         68
   129        230
   130         15
   131          1
   133          6
   134          4
   135          6
   136          2
   137          2
   139         18
   143          4
   146         29
   147          4
   148         21
   149          1
   150          3
   152          2
   153          1
   154          1
   161          4
   162          3
   163          3
   164          3
   165          1
   173         94
   174         34
   175         33
   176          9
   177          1
   180          3
   181          6
   182          3
   183          3
   193          1
   205          2
   208        478
   209        117
   210        310
   211         60
   212         51
   213         12
   216          3
   218          3
   240          1
   244        702
   246        683
   247         70
   248        223
   249         17
   250         29
   251          2