##TITLE=Library Entry 80838
##JCAMP-DX=Revision 4.10 
##DATA TYPE=MASS SPECTRUM
##SAMPLE DESCRIPTION=Japan AIST/NIMC Database- Spectrum MS-NW-3766
##NAMES=HP
##CAS NAME=1,3-Dioxane, 4-phenyl-
##MOLFORM=C10H12O2
##CAS REGISTRY NO=772-00-9
##MP= -300
##BP= -300
##MW= 164
##$RETENTION INDEX=0
##$CONDENSED SPECTRUM=NO
##NPOINTS= 93
##XYDATA=(XY..XY) 1 
    14          1
    15          5
    18          1
    26          9
    27         54
    28        125
    29         47
    30         45
    31         77
    32          2
    37          3
    38          9
    39         55
    40          4
    41          8
    42          1
    43          8
    44          8
    45         43
    46          1
    49          3
    50         47
    51        129
    52         34
    53          9
    54          1
    55         11
    56         20
    57         48
    58        108
    59          6
    60          2
    61          4
    62          9
    63         28
    64          7
    65         21
    66          2
    67          2
    73          3
    74         14
    75         14
    76         19
    77        271
    78        196
    79        111
    80          8
    81          9
    82          1
    85          1
    86          4
    87          4
    88          1
    89         19
    90         10
    91         87
    92         44
    93          4
    94          1
    98          1
   101          2
   102         12
   103         77
   104        164
   105        999
   106        722
   107        177
   108         12
   109          1
   115         32
   116          9
   117        160
   118        731
   119         76
   120          6
   121         75
   122          9
   125          1
   130          1
   131          3
   132          3
   133         37
   134        197
   135         21
   136         11
   137          1
   147          2
   148          2
   149          1
   163          6
   164         66
   165         14
   166          4