##TITLE=Library Entry 9626
##JCAMP-DX=Revision 4.10 
##DATA TYPE=MASS SPECTRUM
##SAMPLE DESCRIPTION=Chemical Concepts
##NAMES=HP
##CAS NAME=Cyclooctanol, acetate
##MOLFORM=C10H18O2
##CAS REGISTRY NO=772-60-1
##MP= -300
##BP= -300
##MW= 170
##$RETENTION INDEX=1279
##$CONDENSED SPECTRUM=NO
##NPOINTS= 92
##XYDATA=(XY..XY) 1 
    26          3
    27         77
    28         27
    29         96
    30          3
    31          7
    38          1
    39         93
    40         18
    41        226
    42         62
    43        999
    44         42
    45         11
    50          1
    51          6
    52          4
    53         35
    54        103
    55        131
    56         27
    57         58
    58        200
    59         84
    60          4
    61         21
    62          0
    63          1
    65          9
    66         34
    67        230
    68         99
    69        105
    70         18
    71         63
    72         11
    73          0
    77          7
    78          2
    79         21
    80         12
    81        134
    82        299
    83         37
    84         17
    85         13
    86          8
    87          0
    91          3
    92          2
    93          4
    94        112
    95         99
    96         12
    97         19
    98         12
    99          8
   100          7
   101          0
   102          7
   103          0
   105          0
   106          0
   107          1
   108          9
   109         66
   110        237
   111         49
   112         14
   113          7
   114          5
   115          0
   119          3
   123          9
   124         10
   125          1
   126          0
   127         39
   128         13
   129          0
   134          8
   135          1
   137          7
   138          0
   140          1
   142          5
   143          0
   151          2
   152         38
   153          4
   155          7
   156          0