##TITLE=Library Entry 62392
##JCAMP-DX=Revision 4.10 
##DATA TYPE=MASS SPECTRUM
##SAMPLE DESCRIPTION=Japan AIST/NIMC Database- Spectrum MS-NW-5156
##NAMES=HP
##CAS NAME=N,N-Diethylbenzylamine
##MOLFORM=C11H17N
##CAS REGISTRY NO=772-54-3
##MP= -300
##BP= -300
##MW= 163
##$RETENTION INDEX=1178
##$CONDENSED SPECTRUM=NO
##NPOINTS= 77
##XYDATA=(XY..XY) 1 
    15          7
    26          3
    27         27
    28         38
    29         39
    30         37
    38          3
    39         32
    40          3
    41         14
    42         34
    43          3
    44          9
    45          1
    50          9
    51         22
    52          5
    53          2
    54          4
    55          2
    56         30
    57          5
    58         21
    59          1
    61          1
    62          3
    63         16
    64          5
    65         79
    66          5
    70          9
    71          1
    72         11
    73          1
    74          7
    75          2
    76          3
    77         18
    78          5
    79         13
    80          1
    81          3
    84          1
    86         95
    87          6
    89         15
    90         10
    91        999
    92         83
    93          3
   103          2
   104          7
   105          7
   106          4
   107          2
   108          2
   115          1
   117          3
   118          6
   119          1
   120          2
   130          1
   132          6
   133          2
   134          5
   135          1
   146          6
   147          2
   148        421
   149         49
   150          3
   160          4
   161          3
   162         17
   163         92
   164         12
   165          1