##TITLE=Library Entry 52574
##JCAMP-DX=Revision 4.10 
##DATA TYPE=MASS SPECTRUM
##SAMPLE DESCRIPTION=L. Cohen, LC, NIDDK, NIH, Bethesda, MD 20892
##NAMES=HP
##CAS NAME=1H-Imidazol-2-amine
##MOLFORM=C3H5N3
##CAS REGISTRY NO=7720-39-0
##MP= -300
##BP= -300
##MW= 83
##$RETENTION INDEX=0
##$CONDENSED SPECTRUM=NO
##NPOINTS= 19
##XYDATA=(XY..XY) 1 
    41         46
    42         28
    43         73
    44          9
    45          6
    52          3
    53         34
    54         22
    55        118
    56        176
    57          7
    58          3
    60          2
    66          2
    78          2
    81          3
    82         13
    83        999
    84         55