##TITLE=Library Entry 46185
##JCAMP-DX=Revision 4.10 
##DATA TYPE=MASS SPECTRUM
##SAMPLE DESCRIPTION=NIST Mass Spectrometry Data Center, 2009
##NAMES=HP
##CAS NAME=Benzoic acid, 5-[2-chloro-4-(trifluoromethyl)phenoxy]-2-nitro-, e
thyl ester
##MOLFORM=C16H11ClF3NO5
##CAS REGISTRY NO=77207-01-3
##MP= -300
##BP= -300
##MW= 389
##$RETENTION INDEX=2281
##$CONDENSED SPECTRUM=NO
##NPOINTS= 314
##XYDATA=(XY..XY) 1 
    15          4
    26         10
    27         71
    28         30
    29        218
    30         82
    36          3
    37          6
    38         16
    39         40
    43         27
    44         11
    46          6
    49          4
    50         60
    51         61
    52         40
    53         64
    54         10
    55         18
    57          9
    61         16
    62         99
    63        353
    64         75
    65         19
    66          9
    67         16
    68          7
    69         88
    70          3
    72          2
    73         19
    74        262
    75        999
    76        269
    77         83
    78         42
    79        100
    80         46
    81         19
    82         10
    83          3
    84          6
    85          7
    86         12
    87         22
    88         16
    89          9
    90         13
    91         53
    92         92
    93         48
    94         20
    95         23
    96          6
    97         13
    98          9
    99         26
   101          8
   102          8
   103         24
   104        138
   105         25
   106         21
   107         29
   108         56
   109         24
   110         12
   111         22
   112         15
   113         29
   114          5
   115          6
   116          2
   117         20
   118          7
   119         23
   120         34
   121          6
   122         11
   123         14
   124          6
   125         62
   126         19
   127         12
   128          4
   129         31
   130          6
   131         25
   132        108
   133         22
   134          7
   135         10
   136          9
   137         45
   138         40
   139         43
   140         29
   141         20
   142          3
   143         51
   144         86
   145         24
   146         25
   147         26
   148         33
   149         18
   150         12
   151          9
   152          5
   153          4
   154          6
   155         38
   156         33
   157         89
   158         20
   159         20
   160         28
   161         25
   162         84
   163         15
   164         30
   165          8
   166         16
   167         61
   168         18
   169         41
   170         16
   171          7
   172         62
   173         83
   174         13
   175         48
   176         18
   177         31
   179        365
   180         44
   181        132
   182         30
   183         22
   184          7
   185         18
   186         45
   187         46
   188         73
   189         36
   190          9
   191         15
   192          9
   193         23
   194         20
   195        142
   196        143
   197         22
   198          8
   199          7
   200          5
   201          7
   202         34
   203         53
   204         33
   205         39
   206        124
   207        632
   208        102
   209         30
   210         11
   211         66
   212         16
   213         23
   214          4
   215         11
   216         18
   217         66
   218         51
   219         22
   220         42
   221         11
   222         23
   223        560
   224        110
   225        145
   226         15
   227          3
   229          9
   230          9
   231         12
   232         11
   233         20
   234         40
   235         61
   236        170
   237         63
   238         48
   239         14
   240          8
   241         31
   242          6
   243         30
   244          7
   245         12
   246          7
   247          4
   248          4
   249         10
   250         16
   251         91
   252        295
   253         57
   254         24
   255          4
   256          3
   257         17
   258          7
   259         24
   260          5
   261          7
   262          4
   263         15
   264         12
   265         20
   266          5
   267         12
   268         14
   269         28
   270        110
   271         38
   272         45
   273         25
   274          7
   275         18
   276          3
   277          4
   278          6
   279          7
   280         27
   281          7
   282         14
   283          4
   284          7
   285         29
   286         12
   287        159
   288         24
   289         49
   290          7
   292          1
   293          2
   294          1
   295          4
   296          3
   297          5
   298         23
   299         22
   300         62
   301         37
   302         22
   303         32
   304          4
   305          8
   306          1
   308         18
   309          4
   310          1
   313         30
   314         12
   315        326
   316         54
   317        144
   318         22
   319         12
   320          2
   323          1
   325          9
   326          4
   327          2
   328         18
   329         11
   330          8
   331        126
   332         20
   333         39
   334          7
   335          1
   340          2
   341          1
   342         10
   344        960
   345        329
   346        348
   347        108
   348         16
   349          2
   353          1
   359         50
   361        538
   362         82
   363        175
   364         26
   365          4
   370        207
   371         39
   372         68
   373         20
   374          3
   375          3
   376          1
   389        961
   390        189
   391        369
   392         63
   393          8
   394          1