##TITLE=Library Entry 48511
##JCAMP-DX=Revision 4.10 
##DATA TYPE=MASS SPECTRUM
##SAMPLE DESCRIPTION=T. KAJIWARA,DEP. AGRIC. CHEM.,FAC. AGRIC.,YAMAGUCHI UNI
V.,JP
##NAMES=HP
##CAS NAME=Cyclopropane, (R,R)-1-((Z)-hex-1'-enyl)-2-ethenyl-
##MOLFORM=C11H18
##CAS REGISTRY NO=77210-40-3
##MP= -300
##BP= -300
##MW= 150
##$RETENTION INDEX=0
##$CONDENSED SPECTRUM=NO
##NPOINTS= 19
##XYDATA=(XY..XY) 1 
    27        440
    29        360
    39        540
    41        740
    55        350
    66        450
    67        540
    77        440
    78        380
    79        999
    80        580
    91        430
    93        460
    94        210
   107        160
   109        100
   121         70
   135         10
   150        130