##TITLE=Library Entry 13226
##JCAMP-DX=Revision 4.10 
##DATA TYPE=MASS SPECTRUM
##SAMPLE DESCRIPTION=S. HANESSIAN PARKE, DAVIS AND CO., RES. LABS, ANN ARBOR
, USA
##NAMES=HP
##CAS NAME=Xylopyranose, 5-acetamido-5-deoxy-, 1,2,3,4-tetraacetate, D-
##MOLFORM=C15H21NO9
##CAS REGISTRY NO=7721-32-6
##MP= -300
##BP= -300
##MW= 359
##$RETENTION INDEX=0
##$CONDENSED SPECTRUM=NO
##NPOINTS= 95
##XYDATA=(XY..XY) 1 
    39          6
    41         12
    42         18
    43        999
    44         24
    45          6
    46         12
    52          2
    55         12
    56          6
    57         12
    58         13
    59         24
    60         23
    61          4
    67          6
    68         34
    69         11
    70         13
    71          9
    72         35
    73         61
    74          2
    79          4
    80          6
    83          7
    84         42
    85         13
    86         38
    88         36
    91         22
    92         18
    95         47
    96        199
    97         16
   100         17
   101         63
   102         24
   103         38
   109          4
   110          3
   111          2
   112         40
   113         77
   114         52
   115        393
   116         21
   126         12
   127          7
   128        127
   129         10
   130         42
   131          5
   137          4
   138        270
   139         24
   142          2
   143         18
   144          9
   145          8
   154         18
   155         50
   156         42
   157        236
   158         18
   170        148
   171         12
   172         54
   173          8
   180        473
   181         50
   182          4
   190          4
   196          2
   197         36
   198         33
   199          2
   214         63
   215          8
   216          2
   232          8
   239          8
   240         61
   241          7
   256          1
   257         27
   258          5
   259          0
   274          2
   299         20
   300          7
   301          0
   316          1
   317          0
   359          0