##TITLE=Library Entry 48951
##JCAMP-DX=Revision 4.10 
##DATA TYPE=MASS SPECTRUM
##SAMPLE DESCRIPTION=T. KAJIWARA,DEP. AGRIC. CHEM.,FAC. AGRIC.,YAMAGUCHI UNI
V.,JP
##NAMES=HP
##CAS NAME=Cyclopropane, (R,R)-1-((Z),(Z)-hexa-1',3'-dienyl)-2-ethenyl-
##MOLFORM=C11H16
##CAS REGISTRY NO=77210-41-4
##MP= -300
##BP= -300
##MW= 148
##$RETENTION INDEX=0
##$CONDENSED SPECTRUM=NO
##NPOINTS= 16
##XYDATA=(XY..XY) 1 
    27        240
    29        140
    41        620
    55         60
    65        140
    66        420
    67        280
    77        320
    79        999
    91        900
   105        360
   115         50
   117         70
   119        290
   133         50
   148        180