##TITLE=Library Entry 5101
##JCAMP-DX=Revision 4.10 
##DATA TYPE=MASS SPECTRUM
##SAMPLE DESCRIPTION=Leung Pu, NIH, Bethesda, Maryland, U.S.
##NAMES=HP
##CAS NAME=4-(2-Hydroxyethyl)-3-methyl-2-pyrazolin-5-one
##MOLFORM=C6H10N2O2
##CAS REGISTRY NO=7721-54-2
##MP= -300
##BP= -300
##MW= 142
##$RETENTION INDEX=0
##$CONDENSED SPECTRUM=NO
##NPOINTS= 72
##XYDATA=(XY..XY) 1 
    41        639
    42        999
    43        335
    44        300
    45         64
    46          4
    47          9
    48          5
    49         50
    50        103
    51        186
    52        301
    53        443
    54        356
    55        344
    56        185
    57        446
    58         47
    59          4
    60          3
    61          8
    62         16
    63         30
    64         15
    65         76
    66         89
    67        178
    68        222
    69         56
    70         45
    71         50
    72          2
    73          1
    74          1
    75          2
    76          1
    77          6
    78         11
    79         11
    80         17
    81         25
    82        103
    83         51
    84         22
    85          4
    86          6
    88          1
    91          0
    93          3
    94          2
    95         23
    96          6
    97         41
    98         48
    99          6
   100          1
   105          0
   106          2
   107          1
   108          1
   109         87
   110         34
   111        965
   112         84
   113          4
   123         10
   124         74
   125         21
   126          1
   141          8
   142        261
   143         19