##TITLE=Library Entry 42616
##JCAMP-DX=Revision 4.10 
##DATA TYPE=MASS SPECTRUM
##SAMPLE DESCRIPTION=NIST Mass Spectrometry Data Center
##NAMES=HP
##CAS NAME=Methylmaleic acid, 2TMS derivative
##MOLFORM=C11H22O4Si2
##CAS REGISTRY NO=77220-12-3
##MP= -300
##BP= -300
##MW= 274
##$RETENTION INDEX=1386
##$CONDENSED SPECTRUM=NO
##NPOINTS= 145
##XYDATA=(XY..XY) 1 
    15          1
    27          2
    28          2
    29          6
    31          2
    38          2
    39         27
    40         17
    41          4
    42          4
    43         41
    44         21
    45        146
    46         11
    47         49
    48          3
    49          2
    51          5
    52          6
    53         10
    54          5
    55         13
    56          3
    57         13
    58         26
    59         43
    60         11
    61         34
    62          2
    63          2
    65          2
    66         22
    67        117
    68         29
    69         15
    70          6
    71          9
    72         27
    73        999
    74         98
    75        290
    76         20
    77         12
    78          1
    79          1
    81          5
    82         10
    83         35
    84          6
    85          9
    86          1
    87          4
    88          1
    89          5
    90          1
    91          1
    93          1
    94          1
    95          7
    96          8
    97        116
    98         35
    99         29
   100          4
   101          4
   102          2
   103          7
   104          1
   105          3
   107          1
   109          1
   111          4
   112         29
   113         13
   114          3
   115         11
   116          2
   117         19
   118          3
   119          6
   120          1
   122         58
   125          5
   126          1
   127         13
   128          2
   129          2
   131         15
   132          5
   133         70
   134         10
   135          7
   136          1
   139          1
   140         11
   141         53
   142         14
   143          8
   144          1
   145          3
   147        762
   148        121
   149         92
   150         11
   151          5
   155          5
   156         19
   157         44
   158          7
   159          4
   161          1
   163          7
   164          1
   165          1
   169         27
   170          5
   171         12
   172          2
   173          3
   184        518
   185         85
   186         26
   187          4
   199          4
   200          1
   201          1
   213          1
   215          5
   216          1
   217          1
   229          4
   230          1
   231         20
   232          4
   233          2
   256          1
   257          1
   259        412
   260         90
   261         41
   262          6
   263          1
   273          1
   274          5
   275          1