##TITLE=Library Entry 55704
##JCAMP-DX=Revision 4.10 
##DATA TYPE=MASS SPECTRUM
##SAMPLE DESCRIPTION=NIST Mass Spectrometry Data Center, 2010
##NAMES=HP
##CAS NAME=Carteolol, acetate ester
##MOLFORM=C18H26N2O4
##CAS REGISTRY NO=772280-18-9
##MP= -300
##BP= -300
##MW= 334
##$RETENTION INDEX=0
##$CONDENSED SPECTRUM=NO
##NPOINTS= 153
##XYDATA=(XY..XY) 1 
    15          3
    26          1
    27          8
    28         14
    29         48
    30        551
    31         10
    38          2
    39         30
    40          4
    41        155
    42         52
    43        198
    44         14
    45          4
    50          3
    51         12
    52          8
    53          9
    54         10
    55         54
    56        229
    57        226
    58         55
    59          4
    60          7
    61          1
    62          2
    63          7
    64          5
    65         19
    66          7
    67          4
    68          6
    69          5
    70        146
    71         54
    72         32
    73          3
    74          6
    75          2
    76          4
    77         31
    78         15
    79         18
    80          6
    81          6
    82         15
    83          4
    84         17
    86        999
    87         60
    89         12
    90          9
    91         25
    92         10
    93         13
    94          7
    96         96
    97         12
    98         83
    99         10
   100         20
   101          2
   102          5
   103          6
   104         33
   105         15
   106         34
   107          9
   108          5
   109          2
   110          5
   111         15
   112        197
   113         18
   114         57
   115         10
   116         42
   117         25
   118         35
   119          7
   120          6
   121         11
   122          8
   123          1
   124          6
   128         12
   129          3
   130          6
   131          3
   132         10
   133         41
   134         37
   135         30
   136          4
   138          1
   142          1
   143          3
   144         11
   145         14
   146         31
   147         10
   148         16
   149          3
   156         24
   157          3
   158         13
   160         31
   161         29
   162         46
   163         42
   164         15
   165          1
   172          8
   173          3
   174         29
   175          5
   176         16
   177          4
   186          3
   187          3
   188          7
   189          3
   190          3
   200         11
   201          5
   202        194
   203         27
   204          4
   205          2
   206          6
   217         13
   218          4
   219          2
   220         11
   221          2
   235          3
   247          1
   248          3
   259         10
   260          3
   275          7
   277         25
   278          5
   291          1
   319        360
   320         69
   321         10
   322          1
   334        153
   335         31
   336          4