##TITLE=Library Entry 90297
##JCAMP-DX=Revision 4.10 
##DATA TYPE=MASS SPECTRUM
##SAMPLE DESCRIPTION=T. NAKANO, INST. VENEZUELA OF INVEST. SCI., CARACAS, VE
NEZUE
##NAMES=HP
##CAS NAME=1,3-Dimethyl-7,7-diphenyl-6-oxa-4-thia-2-azabicyclo[3.2.0]hept-2-
ene
##MOLFORM=C18H17NOS
##CAS REGISTRY NO=77233-59-1
##MP= -300
##BP= -300
##MW= 295
##$RETENTION INDEX=0
##$CONDENSED SPECTRUM=NO
##NPOINTS= 15
##XYDATA=(XY..XY) 1 
    51         23
    77        107
    91         21
   105        171
   106         11
   113        999
   114         70
   115        102
   152         11
   165         31
   178         11
   182         34
   183         28
   190         10
   193         14