##TITLE=Library Entry 67379
##JCAMP-DX=Revision 4.10 
##DATA TYPE=MASS SPECTRUM
##SAMPLE DESCRIPTION=A.Mazepa, Phys.-Chem.Institute, Odessa, Ukraine
##NAMES=HP
##CAS NAME=3,3-Dimethyl-7-ethoxycarbonyl-1,3-dihydroimidazo-[1,5-c]-oxazole-
1-one
##MOLFORM=C10H12N2O4
##CAS REGISTRY NO=77253-99-7
##MP= -300
##BP= -300
##MW= 224
##$RETENTION INDEX=0
##$CONDENSED SPECTRUM=NO
##NPOINTS= 61
##XYDATA=(XY..XY) 1 
    51          4
    52         13
    53         17
    54         10
    55          6
    56         13
    57          9
    58         17
    59         46
    64          3
    65        108
    66         44
    67        265
    68        126
    69         11
    80          8
    81         14
    82          5
    83          2
    84         12
    85          3
    91          5
    92          3
    93         27
    94        999
    95        111
    96         30
    97          2
   106          4
   108         13
   109          3
   110          7
   111         12
   112        103
   113          6
   121        490
   122        451
   123         36
   124          5
   125          3
   126          2
   137         73
   138         95
   139        284
   140         41
   141         11
   151          3
   152         35
   153         51
   165          1
   166        441
   167        103
   168         28
   179        112
   180         99
   181         27
   184         39
   185          3
   196         14
   224         76
   225         10