##TITLE=Library Entry 55806
##JCAMP-DX=Revision 4.10 
##DATA TYPE=MASS SPECTRUM
##SAMPLE DESCRIPTION=Chemical Concepts
##NAMES=HP
##CAS NAME=d-Mannitol, 1,4-anhydro-
##MOLFORM=C6H12O5
##CAS REGISTRY NO=7726-97-8
##MP= -300
##BP= -300
##MW= 164
##$RETENTION INDEX=0
##$CONDENSED SPECTRUM=NO
##NPOINTS= 75
##XYDATA=(XY..XY) 1 
    26         28
    27        240
    28         72
    29        354
    30         43
    31        513
    33          4
    37          1
    38          5
    39         69
    40         70
    41        156
    42         89
    43        664
    44        419
    45        551
    46         18
    47         27
    49          4
    50          0
    51          4
    52          1
    53         11
    54         13
    55        178
    56        186
    57        401
    58        367
    59         72
    60        182
    61        419
    62         12
    63          2
    67          3
    68         15
    69        256
    70         20
    71         66
    72         12
    73        657
    74        103
    75         36
    76          0
    77          3
    81          5
    82          6
    83          4
    84         15
    85        181
    86        999
    87         83
    88          8
    89          5
    91          9
    97         11
    98          9
    99         17
   100          4
   101          2
   102          8
   103        410
   104         27
   105          7
   110          1
   111          9
   115         58
   116          6
   117          2
   128          5
   129          3
   133         34
   134          1
   146         27
   147          7
   165          6