##TITLE=Library Entry 55273
##JCAMP-DX=Revision 4.10 
##DATA TYPE=MASS SPECTRUM
##SAMPLE DESCRIPTION=D. LUKE UNILEVER RESEARCH LAB., PORT SUNLIGHT
##NAMES=HP
##CAS NAME=Decanamide, N-(2-hydroxyethyl)-
##MOLFORM=C12H25NO2
##CAS REGISTRY NO=7726-08-1
##MP= -300
##BP= -300
##MW= 215
##$RETENTION INDEX=0
##$CONDENSED SPECTRUM=NO
##NPOINTS= 87
##XYDATA=(XY..XY) 1 
    14          1
    15         14
    16          2
    17         28
    18        126
    19          1
    26          5
    27         63
    28         65
    29         77
    30         10
    31          1
    32          2
    36          4
    38          2
    39         36
    40          8
    41        165
    42         49
    43         84
    44        117
    45         16
    51          2
    52          2
    53         14
    54         34
    55        133
    56         27
    57         42
    58          3
    59          1
    60          3
    65          2
    66          2
    67         24
    68         20
    69         38
    70         10
    71          7
    72          3
    73          3
    77          1
    79          3
    80          2
    81          9
    82         10
    83         18
    84          7
    85        999
    86         57
    87          6
    93          1
    94          1
    95          4
    96         11
    97          9
    98        414
    99         87
   100          5
   108          1
   109          1
   110          7
   111          5
   112         76
   113          7
   114          2
   124          8
   125          2
   126         20
   127          3
   128          1
   129          5
   138          7
   139          1
   140         78
   141          7
   142          2
   152          1
   154         38
   155          5
   166          1
   168         27
   169          3
   182          6
   196         11
   197          2
   198          4