##TITLE=Library Entry 55277
##JCAMP-DX=Revision 4.10 
##DATA TYPE=MASS SPECTRUM
##SAMPLE DESCRIPTION=D. LUKE UNILEVER RESEARCH LAB., PORT SUNLIGHT
##NAMES=HP
##CAS NAME=Hexanamide, N-(2-hydroxyethyl)-
##MOLFORM=C8H17NO2
##CAS REGISTRY NO=7726-06-9
##MP= -300
##BP= -300
##MW= 159
##$RETENTION INDEX=0
##$CONDENSED SPECTRUM=NO
##NPOINTS= 95
##XYDATA=(XY..XY) 1 
    14          4
    15         38
    16          3
    17         40
    18        180
    19          3
    26         15
    27        132
    28        130
    29         98
    30         27
    31          3
    32          1
    35          1
    36          7
    37          1
    38          7
    39         71
    40         17
    41        221
    42         97
    43        140
    44        195
    45         47
    46          1
    50          2
    51          5
    52          7
    53         19
    54         72
    55        207
    56         49
    57         73
    58          6
    59          1
    60         16
    61          1
    62          2
    63          1
    64          1
    65          3
    66          3
    67         20
    68         34
    69         44
    70         25
    71         21
    72          5
    73          8
    74          1
    77          1
    79          2
    80          3
    81          7
    82         17
    83         32
    84         10
    85        999
    86         64
    87         13
    88          3
    94          1
    95          2
    96         16
    97         10
    98        418
    99        109
   100          8
   101          1
   103          6
   104          3
   105          1
   110          5
   111          4
   112        138
   113         17
   114         23
   115          1
   116          6
   124          2
   125          1
   126         10
   127          4
   128         20
   129         43
   130          4
   131          1
   140         18
   141          5
   142         20
   143          3
   145          3
   155          1
   156          3
   158          1