##TITLE=Library Entry 122
##JCAMP-DX=Revision 4.10 
##DATA TYPE=MASS SPECTRUM
##SAMPLE DESCRIPTION=D.HENNEBERG, MAX-PLANCK INSTITUTE, MULHEIM, WEST GERMAN
Y
##NAMES=HP
##CAS NAME=Nitrogen
##MOLFORM=N2
##CAS REGISTRY NO=7727-37-9
##MP= -300
##BP= -300
##MW= 28
##$RETENTION INDEX=0
##$CONDENSED SPECTRUM=NO
##NPOINTS= 3
##XYDATA=(XY..XY) 1 
    14        137
    28        999
    29          7