##TITLE=Library Entry 72217
##JCAMP-DX=Revision 4.10 
##DATA TYPE=MASS SPECTRUM
##SAMPLE DESCRIPTION=V.A.Korolev, Moscow, Russia
##NAMES=HP
##CAS NAME=2-(1,3-Thiazol-4-yl)ethanamine
##MOLFORM=C5H8N2S
##CAS REGISTRY NO=7728-74-7
##MP= -300
##BP= -300
##MW= 128
##$RETENTION INDEX=0
##$CONDENSED SPECTRUM=NO
##NPOINTS= 41
##XYDATA=(XY..XY) 1 
    30         71
    37         21
    38         15
    39         39
    40         65
    41         19
    42         18
    43         15
    44         36
    45        115
    46          6
    47          5
    51          6
    52          7
    54          9
    55          7
    56          9
    57         13
    58         13
    59          6
    67         16
    68          4
    69         24
    70          7
    71         89
    72        170
    73         24
    74          7
    81          5
    82          4
    83          4
    84         10
    85          8
    98         17
    99        999
   100         77
   101         43
   111         11
   112          4
   127          3
   128          6