##TITLE=Library Entry 28983
##JCAMP-DX=Revision 4.10 
##DATA TYPE=MASS SPECTRUM
##SAMPLE DESCRIPTION=Patti Price, Georgia Bureau of Investigation, Decatur,
 Georgia
##NAMES=HP
##CAS NAME=Acetamide, N-(2,6-dimethylphenyl)-2-(ethylamino)-
##MOLFORM=C12H18N2O
##CAS REGISTRY NO=7728-40-7
##MP= -300
##BP= -300
##MW= 206
##$RETENTION INDEX=1784
##$CONDENSED SPECTRUM=NO
##NPOINTS= 49
##XYDATA=(XY..XY) 1 
    41          7
    42         18
    43          8
    44         52
    45          6
    51         15
    52          9
    54          4
    55          1
    56         30
    58        999
    59         36
    60          4
    63          6
    65         10
    67          1
    69          1
    71          8
    76          2
    77         26
    78          9
    79          9
    80          2
    89          3
    91         27
    92          6
    93          5
   100          1
   103         12
   105         16
   106         29
   107          3
   111          4
   116          2
   118          5
   119          4
   120         60
   121         87
   122         11
   134          3
   146          3
   148          9
   149          1
   163         83
   164          9
   204          1
   205          1
   206         16
   207          2