##TITLE=Library Entry 17580
##JCAMP-DX=Revision 4.10 
##DATA TYPE=MASS SPECTRUM
##SAMPLE DESCRIPTION=NIST Mass Spectrometry Data Center
##NAMES=HP
##CAS NAME=2-(Phenylthio)ethyl methyl ether
##MOLFORM=C9H12OS
##CAS REGISTRY NO=77298-24-9
##MP= -300
##BP= -300
##MW= 168
##$RETENTION INDEX=0
##$CONDENSED SPECTRUM=NO
##NPOINTS= 86
##XYDATA=(XY..XY) 1 
    12          2
    13          1
    14          5
    15        138
    17          4
    18         10
    26         18
    27         70
    28         38
    29        159
    30         14
    31         68
    33          4
    35          1
    37          4
    38         19
    39        124
    40          6
    41          8
    42         10
    43         57
    45        999
    46         28
    47         32
    50         71
    51        195
    52         17
    53          5
    57         17
    58         43
    59        149
    60         12
    61          8
    62         13
    63         32
    64          9
    65        160
    66         45
    67          3
    69         82
    70          8
    71         10
    73          4
    74         18
    75         13
    76         13
    77        149
    78         30
    79         68
    80          5
    81         11
    82         20
    83         13
    84          7
    85          2
    89          7
    90          7
    91         48
    92          4
    93          4
    95          2
    97          8
   103          5
   104          4
   105          2
   106          2
   107          4
   108         35
   109        171
   110        462
   111         40
   112         21
   121         20
   123        735
   124         61
   125         40
   126          2
   134          5
   135         41
   136         14
   137         20
   138          2
   166          2
   168         61
   169         31
   170          3