##TITLE=Library Entry 99040
##JCAMP-DX=Revision 4.10 
##DATA TYPE=MASS SPECTRUM
##SAMPLE DESCRIPTION=MASS SPECTROMETRY CENTER, UNIV. OF UTAH; ALDRICH M00770
-7
##NAMES=HP
##CAS NAME=Benzenesulfonyl chloride, 2,4,6-trimethyl-
##MOLFORM=C9H11ClO2S
##CAS REGISTRY NO=773-64-8
##MP= -300
##BP= -300
##MW= 218
##$RETENTION INDEX=0
##$CONDENSED SPECTRUM=NO
##NPOINTS= 120
##XYDATA=(XY..XY) 1 
    14         14
    15        112
    16          8
    26         80
    27        237
    28         73
    29         69
    31          6
    32         26
    34          7
    35         57
    36         36
    37         51
    38        118
    39        635
    40         83
    41        304
    42         17
    43         27
    44         12
    45        188
    46         15
    47         20
    48        202
    49         68
    50        158
    51        424
    52        127
    53        161
    54         17
    55         20
    57         14
    58         76
    59         55
    61         50
    62         95
    63        271
    64        107
    65        604
    66         57
    67         48
    69         67
    70         22
    71         19
    73         20
    74         95
    75         63
    76         43
    77        433
    78        218
    79        135
    80         18
    81          8
    82         17
    83         42
    84          8
    85         37
    86         28
    87         33
    88         11
    89         73
    90         34
    91        800
    92         97
    93        104
    95          8
    97         50
    98         17
    99         24
   100          8
   101         30
   102         67
   103        319
   104        149
   105         98
   106         45
   107         15
   109         10
   111          5
   113          5
   114          6
   115        224
   116         94
   117        319
   118        322
   119        999
   120        168
   121         35
   122         14
   125          5
   127          3
   134        156
   135         46
   136         15
   137         31
   138          5
   139         28
   141          6
   149         14
   150          4
   151          6
   152          7
   153         54
   154         44
   155         20
   156         14
   164          9
   165         71
   166          9
   167          7
   182          8
   183        304
   184         38
   185         19
   217         10
   218        285
   219         40
   220        113
   221         16
   222          5