##TITLE=Library Entry 65176
##JCAMP-DX=Revision 4.10 
##DATA TYPE=MASS SPECTRUM
##SAMPLE DESCRIPTION=F. TURECEK,HEYROVSKY INST PHYS CHEM & ELECTROCHEM,PRAGU
E,CZECH
##NAMES=HP
##CAS NAME=Pentacyclo[7.5.0.0(2,8).0(5,14).0(7,11)]tetradeca-3,12-diene
##MOLFORM=C14H16
##CAS REGISTRY NO=77300-31-3
##MP= -300
##BP= -300
##MW= 184
##$RETENTION INDEX=0
##$CONDENSED SPECTRUM=NO
##NPOINTS= 73
##XYDATA=(XY..XY) 1 
    27         27
    29          5
    38          3
    39         75
    40         12
    41         34
    50         14
    51         53
    52         17
    53         22
    55         10
    62          6
    63         30
    64         15
    65         80
    66         17
    67         16
    69          6
    71          5
    74          6
    75          9
    76         18
    77        100
    78         81
    79         78
    80         47
    81          8
    82          8
    83         10
    89         22
    90         12
    91        780
    92        999
    93        240
    94         16
   102         10
   103         26
   104         39
   105         59
   106         92
   107         12
   115         78
   116         45
   117        120
   118         47
   119         12
   127         18
   128         67
   129         86
   130         78
   131         11
   139          5
   141         65
   142         86
   143         47
   144          7
   151          4
   152         11
   153         16
   154         11
   155         41
   156         29
   157          6
   165         13
   166          4
   167          8
   168          6
   169         51
   170          8
   183          8
   184         92
   185         15
   186          8