##TITLE=Library Entry 65175
##JCAMP-DX=Revision 4.10 
##DATA TYPE=MASS SPECTRUM
##SAMPLE DESCRIPTION=F. TURECEK,HEYROVSKY INST PHYS CHEM & ELECTROCHEM,PRAGU
E,CZECH
##NAMES=HP
##CAS NAME=Pentacyclo[8.4.0.0(3,7).0(4,14).0(6,11)]tetradeca-8,12-diene
##MOLFORM=C14H16
##CAS REGISTRY NO=77300-30-2
##MP= -300
##BP= -300
##MW= 184
##$RETENTION INDEX=0
##$CONDENSED SPECTRUM=NO
##NPOINTS= 77
##XYDATA=(XY..XY) 1 
    26         10
    27         56
    29         14
    38          8
    39        120
    40         14
    41         65
    42          5
    50         21
    51         71
    52         25
    53         28
    54          5
    55         22
    62          9
    63         42
    64         20
    65         89
    66         26
    67         27
    69         14
    71         11
    74          7
    75         10
    76         31
    77        150
    78        110
    79        100
    80         74
    81         16
    82         12
    83         18
    89         30
    90         14
    91        760
    92        999
    93        320
    94         26
    95         11
   102         15
   103         27
   104         53
   105         74
   106        140
   107         14
   115        100
   116         57
   117        140
   118         65
   119         15
   127         27
   128         82
   129        110
   130         99
   131         13
   139          7
   141         77
   142        120
   143         62
   144          7
   151          5
   152         20
   153         21
   154         12
   155         42
   156         34
   157          6
   165         17
   166          6
   167          8
   168          4
   169         62
   170          9
   183          9
   184        290
   185         46
   186         12