##TITLE=Library Entry 62331
##JCAMP-DX=Revision 4.10 
##DATA TYPE=MASS SPECTRUM
##SAMPLE DESCRIPTION=James Little,Eastman Chem.Co.,Kingsport,TN
##NAMES=HP
##CAS NAME=1-Benzylazetidine
##MOLFORM=C10H13N
##CAS REGISTRY NO=7730-39-4
##MP= -300
##BP= -300
##MW= 147
##$RETENTION INDEX=0
##$CONDENSED SPECTRUM=NO
##NPOINTS= 37
##XYDATA=(XY..XY) 1 
    39         59
    41         59
    42         76
    50         21
    51         49
    55         34
    56         34
    62         14
    63         49
    64         14
    65        153
    70         86
    75          6
    76          8
    77         28
    78         14
    89         52
    90         29
    91        999
    92        114
    93          6
   103          6
   104         67
   105         25
   106          6
   116          5
   117         26
   118         55
   119         23
   130          7
   131          5
   132         20
   144          5
   145          6
   146        420
   147        219
   148         25