##TITLE=Library Entry 24979
##JCAMP-DX=Revision 4.10 
##DATA TYPE=MASS SPECTRUM
##SAMPLE DESCRIPTION=Japan AIST/NIMC Database- Spectrum MS-NW-2217
##NAMES=HP
##CAS NAME=Cyclohexanol, 4-methyl-, cis-
##MOLFORM=C7H14O
##CAS REGISTRY NO=7731-28-4
##MP= -300
##BP= -300
##MW= 114
##$RETENTION INDEX=1453
##$CONDENSED SPECTRUM=NO
##NPOINTS= 72
##XYDATA=(XY..XY) 1 
    14          1
    15         15
    17          5
    18         20
    19          1
    26         12
    27        139
    28         35
    29        196
    30         17
    31         54
    32          3
    37          2
    38          9
    39        143
    40         25
    41        360
    42         94
    43         82
    44        161
    45         32
    46          1
    47          1
    49          1
    50          9
    51         18
    52          8
    53         63
    54        105
    55        326
    56        123
    57        999
    58        559
    59         30
    60          2
    61          1
    62          2
    63          3
    65         11
    66          9
    67        113
    68        122
    69         30
    70        368
    71        138
    72          9
    73         22
    74          1
    77         13
    78          4
    79         27
    80          7
    81        415
    82         30
    83         21
    84          6
    85         46
    86         40
    87          2
    91          4
    92          1
    93          4
    94          2
    95         53
    96        283
    97         26
    98          1
    99          2
   112          5
   113         15
   114         76
   115          5