##TITLE=Library Entry 30014
##JCAMP-DX=Revision 4.10 
##DATA TYPE=MASS SPECTRUM
##SAMPLE DESCRIPTION=Y. Murata, LBC, NIDDK, NIH, Bethesda, MD 20892
##NAMES=HP
##CAS NAME=2-Tetratriacontanone
##MOLFORM=C34H68O
##CAS REGISTRY NO=77327-16-3
##MP= -300
##BP= -300
##MW= 492
##$RETENTION INDEX=0
##$CONDENSED SPECTRUM=NO
##NPOINTS= 107
##XYDATA=(XY..XY) 1 
    52         13
    55        102
    56         39
    57        361
    58        555
    59        999
    60         28
    61          8
    63         16
    64          9
    67         35
    69        138
    70         45
    71        468
    72         26
    75         22
    81         40
    82        141
    83        147
    84         18
    85        216
    86         15
    87          7
    95         35
    96        204
    97         55
    99         18
   100         37
   104         15
   106          7
   114         17
   127         47
   140          8
   142          7
   143          7
   146          7
   148          6
   155          8
   156          8
   157          7
   159          7
   162          9
   167          9
   170         10
   171          7
   173         16
   181         17
   187          7
   188          7
   195         24
   200          8
   203          9
   206          6
   220         10
   223         10
   224          8
   226          7
   230          9
   231          6
   237          7
   238          9
   243          7
   247          7
   251         10
   252         10
   254          7
   268          8
   277          7
   279          7
   287          6
   299          7
   311          8
   321          7
   323          7
   325          6
   327         19
   334         10
   342          8
   348         16
   368          9
   369          7
   370          9
   371          6
   374          7
   377         10
   393          8
   394          8
   402          8
   404          7
   408          8
   416          7
   430          9
   432         15
   433         28
   434          9
   435          6
   453          7
   464          7
   474         88
   475         42
   477         60
   479         13
   486          6
   489          7
   492        207
   493         88
   494         17