##TITLE=Library Entry 29466
##JCAMP-DX=Revision 4.10 
##DATA TYPE=MASS SPECTRUM
##SAMPLE DESCRIPTION=J. Klune, Insect Chem. Ecol. Lab., USDA, Beltsville, MD
 20705
##NAMES=HP
##CAS NAME=2-Docosanone
##MOLFORM=C22H44O
##CAS REGISTRY NO=77327-11-8
##MP= -300
##BP= -300
##MW= 324
##$RETENTION INDEX=2410
##$CONDENSED SPECTRUM=NO
##NPOINTS= 150
##XYDATA=(XY..XY) 1 
    41        239
    42         76
    43        839
    44         22
    45         12
    53         18
    54         35
    55        280
    56        102
    57        386
    58        999
    59         74
    60         45
    61          4
    65          6
    66          3
    67         65
    68         64
    69        198
    70         96
    71        557
    72         44
    73          9
    77          3
    79         16
    80         10
    81         77
    82        212
    83        182
    84         64
    85        298
    86         29
    87          4
    93          8
    94          9
    95         92
    96        309
    97        216
    98         46
    99         61
   100         66
   101          6
   107          3
   108          5
   109         57
   110        103
   111        109
   112         31
   113         59
   114         41
   115          5
   121          3
   122          6
   123         31
   124         59
   125         55
   126         26
   127         75
   128          9
   129          1
   135          5
   136          5
   137         18
   138         40
   139         25
   140         21
   141         19
   142          4
   149          8
   151         10
   152         32
   153         16
   154         19
   155         15
   156          8
   165          6
   166         28
   167         13
   168         17
   169         14
   170          5
   179          1
   180         27
   181         13
   182         14
   183         11
   193          3
   194         35
   195         18
   196         12
   197          7
   207          4
   208         48
   209         25
   210         12
   211          8
   221          6
   222         66
   223         34
   224         15
   225         11
   226          7
   235          7
   236         50
   237         28
   238         19
   239         10
   240          6
   248          1
   249          5
   250         61
   251         27
   252         10
   253          9
   254          6
   261          2
   262          6
   263          6
   264        193
   265         50
   266        144
   267         41
   268         20
   269          5
   276          1
   277          8
   278         36
   279         12
   280         16
   281         34
   282         29
   283          7
   292          7
   294          6
   295         34
   296         17
   297          6
   306        177
   307         74
   308         18
   309        204
   310         57
   311          8
   312          6
   322         35
   323         25
   324        891
   325        215
   326         25
   327          2