##TITLE=Library Entry 37513
##JCAMP-DX=Revision 4.10 
##DATA TYPE=MASS SPECTRUM
##SAMPLE DESCRIPTION=OGDEN BioServices Corp., NCI, Rockville, MD 20852
##NAMES=HP
##CAS NAME=Didemnin B
##MOLFORM=C57H89N7O15
##CAS REGISTRY NO=77327-05-0
##MP= -300
##BP= -300
##MW= 1111
##$RETENTION INDEX=0
##$CONDENSED SPECTRUM=NO
##NPOINTS= 232
##XYDATA=(XY..XY) 1 
    41        569
    42        387
    43        486
    44        268
    45        113
    46          6
    47          7
    49         18
    50         17
    51         46
    52         30
    53         61
    54         87
    55        340
    56        219
    57        163
    58         72
    59         13
    60         19
    61          4
    62          4
    63         19
    64         11
    65         47
    66         20
    67         64
    68        298
    69        593
    70        999
    71         40
    72         22
    73         14
    74          5
    75         18
    76          5
    77         70
    78         48
    79         31
    80         17
    81         40
    82         63
    83        110
    84         65
    85         43
    86        236
    87          5
    88        121
    89         18
    90         10
    91         55
    92         10
    93         14
    94         28
    95         41
    96         85
    97        462
    98         74
    99         11
   100        300
   101         24
   102          4
   103          7
   104          4
   105         19
   106         12
   107         33
   108         17
   109         21
   110         32
   111         27
   112         26
   113         24
   114         37
   115         12
   116          6
   117         17
   118         11
   119         18
   121        583
   122        243
   123         31
   124         82
   125        354
   126         83
   127         17
   128         19
   129         29
   130          5
   131          8
   132          7
   133         18
   134        122
   135         38
   136          9
   137         25
   138         17
   139         72
   140         44
   141         15
   142        128
   143         15
   144          9
   145         13
   146          9
   147         18
   148         20
   149         23
   150         17
   151          9
   152         21
   153         30
   154        534
   155         36
   156         32
   157         15
   158         23
   159          7
   160          6
   161         26
   162         23
   163         29
   164         76
   165         17
   166         14
   167         37
   168         42
   169        132
   170        211
   171         20
   172          3
   173          3
   174          7
   175          5
   176         31
   177         18
   178         31
   179         10
   180          5
   181          9
   182         10
   183         13
   184          4
   185          8
   190          4
   191         10
   192          8
   193          6
   194          5
   195         17
   196          6
   197          7
   198          3
   199          3
   201          3
   205          6
   206          9
   207          3
   208          5
   209         13
   210         84
   211         52
   212          6
   213          5
   215          4
   216          3
   217          3
   218          5
   219         11
   220          5
   221          5
   223          9
   224         21
   225         12
   226          8
   227          5
   229          3
   233          7
   234          8
   235          3
   236          3
   237          4
   239          3
   241          3
   242          4
   243          5
   244          5
   249          3
   251          5
   252          6
   253          5
   254          3
   255          4
   256          3
   257          3
   261          4
   262         83
   263         19
   264          4
   265          4
   266          4
   267          4
   269          6
   270          5
   271          4
   273          3
   288         16
   289          9
   295          7
   296         14
   297         85
   298         18
   299          4
   305          3
   307         37
   308          7
   312          3
   313         24
   314          7
   316          4
   328          3
   340          3
   354          4
   356          4
   368          4
   380          5
   381          3
   383         26
   384         14
   385          3
   386          5
   425          5
   495          3