##TITLE=Library Entry 1850
##JCAMP-DX=Revision 4.10 
##DATA TYPE=MASS SPECTRUM
##SAMPLE DESCRIPTION=D.K. KLIPA, DOW CHEM. CO., MICH. DIV., MIDLAND, MICH.,
 USA
##NAMES=HP
##CAS NAME=Ethyl 1-(2-propynyl)-2-oxocyclopentanecarboxylate
##MOLFORM=C11H14O3
##CAS REGISTRY NO=77320-46-8
##MP= -300
##BP= -300
##MW= 194
##$RETENTION INDEX=0
##$CONDENSED SPECTRUM=NO
##NPOINTS= 23
##XYDATA=(XY..XY) 1 
    39        999
    41        370
    43        270
    51        220
    53        320
    64        230
    65        840
    67        400
    77        950
    78        300
    79        740
    91        960
    92        440
    93        920
   109        370
   110        310
   111        540
   120        280
   121        790
   138        530
   149        260
   166        380
   194         50