##TITLE=Library Entry 87773
##JCAMP-DX=Revision 4.10 
##DATA TYPE=MASS SPECTRUM
##SAMPLE DESCRIPTION=A.A.Kutin, Moscow, Russia
##NAMES=HP
##CAS NAME=Furoxan, 3,4-bis(2-thienylcarbonyl)-
##MOLFORM=C12H6N2O4S2
##CAS REGISTRY NO=7733-96-2
##MP= -300
##BP= -300
##MW= 306
##$RETENTION INDEX=0
##$CONDENSED SPECTRUM=NO
##NPOINTS= 168
##XYDATA=(XY..XY) 1 
    33         12
    34          9
    36          3
    37         34
    38         59
    39        386
    40         83
    41         19
    42         10
    43         16
    44         39
    45         89
    46          5
    47          3
    48          4
    49         12
    50         25
    51         17
    52         11
    53         23
    54         12
    55         14
    56         16
    57         81
    58         24
    59          6
    60          4
    61          6
    62          7
    63         16
    64         12
    65         11
    66          3
    67          4
    68          7
    69         29
    70         16
    71          8
    72          3
    73          2
    74          3
    75          5
    76          6
    77         16
    78          4
    79          4
    81         35
    82         39
    83        104
    84         12
    85          6
    86          2
    87          2
    88          2
    89          2
    91         31
    92          5
    93          5
    94          4
    95          5
    96          3
    97          4
    98          2
    99          3
   100          2
   101          2
   102          2
   103          1
   104          2
   105          2
   106          2
   107          3
   108          3
   111        999
   112         61
   113         46
   114          3
   115          2
   116          1
   117          2
   118          4
   119          2
   120          3
   121          4
   122          2
   123          6
   124          2
   125         14
   126          2
   127          5
   128         40
   129          4
   130          2
   131          1
   132          1
   133          1
   134          3
   135         11
   137         48
   138          4
   139          3
   140          0
   141          1
   142          2
   143          2
   144          2
   145          2
   146          1
   147          0
   148          0
   149          1
   150          0
   151          1
   153          9
   154          0
   155          0
   157          1
   158          1
   159          0
   161          0
   162          0
   163          1
   164          2
   165          1
   166          0
   167          2
   168          0
   171          3
   173          1
   175          0
   177          0
   178          0
   180          0
   181          0
   182          0
   187          0
   189          1
   190          9
   191          1
   192          1
   193          1
   194          0
   195          0
   200          0
   201          0
   204          3
   205          1
   206          0
   207          1
   209          0
   213          0
   214          0
   216          1
   218          1
   224          0
   225          0
   229          0
   238          0
   246          0
   268          2
   269          1
   283          0
   287          1
   288          0
   289          1
   290         31
   291          4
   292          3