##TITLE=Library Entry 13992
##JCAMP-DX=Revision 4.10 
##DATA TYPE=MASS SPECTRUM
##SAMPLE DESCRIPTION=Chemical Concepts
##NAMES=HP
##CAS NAME=.alpha.-D-Xylofuranose, 1,2-O-isopropylidene-3,5-O-chlorophosphin
ediyl-
##MOLFORM=C8H12ClO5P
##CAS REGISTRY NO=77338-26-2
##MP= -300
##BP= -300
##MW= 254
##$RETENTION INDEX=0
##$CONDENSED SPECTRUM=NO
##NPOINTS= 167
##XYDATA=(XY..XY) 1 
    26         14
    27         84
    29         75
    30          8
    31         67
    35          9
    36         74
    37          2
    38         24
    39         76
    40         28
    41        159
    42         28
    43        999
    44         33
    45          7
    47        109
    48          6
    49         18
    50          5
    51         11
    52         56
    53         22
    54         10
    55        179
    56         24
    57         52
    58         41
    59        170
    60         14
    61          7
    62          2
    63          0
    65         24
    66          7
    67          7
    68         48
    69        243
    70         29
    71         38
    72          2
    73         16
    74          0
    75          6
    77         14
    78          6
    79         31
    80         24
    81        125
    82         16
    83         21
    84        109
    85        160
    86         71
    87          7
    88         12
    89        146
    90          7
    91         14
    92          4
    93         17
    94          0
    95         26
    96         19
    97        296
    98         28
    99         11
   100         11
   101          3
   102         78
   103        124
   104          5
   105         11
   106          0
   107          8
   108          5
   109          4
   110         37
   111          1
   112         11
   113         79
   114          7
   115         71
   116          3
   117         19
   119         58
   120          5
   121          7
   122          1
   123          1
   124          9
   125         46
   126          5
   127         76
   128          6
   129         16
   130          1
   131         76
   132          7
   133         47
   134          2
   135          1
   137         22
   138         59
   139        105
   140         27
   141         14
   142          4
   143         49
   144          1
   145         10
   147          5
   149          7
   150          7
   151         17
   152          2
   153         54
   154          4
   155         21
   156          5
   157          6
   158          0
   159          7
   160          5
   161        392
   162         24
   163          4
   167         24
   168         11
   169         36
   170          5
   171         10
   175          1
   177          1
   179         16
   180          0
   181          7
   183         46
   184          3
   185         14
   189          0
   196          7
   197        192
   198         18
   199         68
   200          5
   201          7
   209          6
   211          8
   213          1
   219        422
   220         41
   221         23
   222          1
   223          2
   225         44
   226          4
   227         14
   237          0
   239        712
   240         58
   241        239
   242         20
   243          1
   254         11
   255          1
   256          3