##TITLE=Library Entry 20985
##JCAMP-DX=Revision 4.10 
##DATA TYPE=MASS SPECTRUM
##SAMPLE DESCRIPTION=Chemical Concepts
##NAMES=HP
##CAS NAME=Hexadecane, 1,16-dichloro-
##MOLFORM=C16H32Cl2
##CAS REGISTRY NO=7735-39-9
##MP= -300
##BP= -300
##MW= 294
##$RETENTION INDEX=0
##$CONDENSED SPECTRUM=NO
##NPOINTS= 170
##XYDATA=(XY..XY) 1 
    26          5
    27        161
    29        257
    30          6
    31          1
    35          1
    36          3
    38          1
    39         99
    41        622
    42        153
    43        664
    44         18
    45          0
    49         15
    50          1
    51          4
    52          2
    53         44
    54         64
    55        999
    56        172
    57        603
    58         27
    60          1
    61          1
    62          2
    63         36
    64          2
    65         16
    66          6
    67         91
    68         89
    69        900
    70        115
    71        321
    72         16
    73          1
    75          7
    76          4
    77         31
    78          2
    79         17
    80          3
    81         68
    82        110
    83        433
    84         72
    85        172
    86         11
    89          5
    90          8
    91        957
    92         46
    93        322
    94         17
    95         39
    96         67
    97        395
    98         46
    99         21
   100          2
   103          2
   104         50
   105        261
   106         27
   107         98
   108          5
   109         23
   110         19
   111        116
   112         21
   113          8
   115          0
   116          1
   117          5
   118         17
   119         99
   120         15
   121         29
   122          3
   123         16
   124         10
   125         31
   126         10
   127          3
   130          2
   131          9
   132         10
   133         58
   134          6
   135         16
   136          2
   137         10
   138          5
   139         11
   140          5
   141          1
   143          1
   144          2
   145          9
   146         10
   147         36
   148          5
   149         17
   150          2
   151          4
   152          2
   153          7
   154          3
   155          1
   158          3
   159         10
   160          9
   161         18
   162          5
   163          6
   164          0
   165          2
   166          1
   167          4
   168          2
   169          0
   172          2
   173          6
   174          9
   175         10
   176          3
   177          4
   178          0
   179          1
   180          0
   181          3
   182          0
   186          2
   187          5
   188          6
   189          6
   190          2
   191          2
   193          0
   194          1
   195          1
   200          2
   201          3
   202          5
   203          5
   204          2
   205          1
   207          0
   214          1
   215          3
   216          3
   217          2
   218          0
   222          1
   228          1
   229          2
   230          9
   231          2
   232          3
   233          1
   258         37
   259          5
   260         10
   261          3
   294          6
   295          1
   296          4
   297          1