##TITLE=Library Entry 20583
##JCAMP-DX=Revision 4.10 
##DATA TYPE=MASS SPECTRUM
##SAMPLE DESCRIPTION=Chemical Concepts
##NAMES=HP
##CAS NAME=1,16-Hexadecanediol
##MOLFORM=C16H34O2
##CAS REGISTRY NO=7735-42-4
##MP= -300
##BP= -300
##MW= 258
##$RETENTION INDEX=2130
##$CONDENSED SPECTRUM=NO
##NPOINTS= 112
##XYDATA=(XY..XY) 1 
    27         28
    29        108
    31        251
    39         23
    41        372
    42        105
    43        335
    44         12
    49          2
    53         25
    54        165
    55        999
    56        220
    57        226
    58          1
    59          4
    66         54
    67        363
    68        400
    69        604
    70        156
    71         98
    72          7
    73         17
    79         22
    80         30
    81        401
    82        936
    83        603
    84         97
    85         63
    86         10
    87          8
    88          1
    93         11
    94         20
    95        379
    96        603
    97        346
    98         67
    99         18
   100          2
   101          3
   102          1
   106          1
   107          3
   108          9
   109        167
   110        163
   111        102
   112         39
   113          5
   114          2
   115          3
   116          1
   117          1
   120          1
   121          4
   122         11
   123         99
   124        134
   125         49
   126         22
   127          4
   128          1
   129          2
   133          1
   135          2
   136          5
   137         58
   138         63
   139         22
   140         12
   141          1
   142          1
   143          1
   145          1
   150          2
   151         14
   152         22
   153         12
   154         10
   155          0
   157          1
   164          1
   165         17
   166         31
   167          8
   168          3
   171          1
   179          5
   180         12
   181          4
   182         10
   183          2
   184          2
   186          1
   193          3
   194         21
   195          3
   196          1
   197          9
   198          2
   208          1
   209          1
   210         12
   211          2
   212          1
   213          2
   222         17
   223          3
   240          1