##TITLE=Library Entry 71505
##JCAMP-DX=Revision 4.10 
##DATA TYPE=MASS SPECTRUM
##SAMPLE DESCRIPTION=Institute of Organic Chemistry, Novosibirsk, USSR 1988
##NAMES=HP
##CAS NAME=1,3,4,6-Tetra-O-acetyl-2-O-formyl-D-glucopyranose
##MOLFORM=C15H20O11
##CAS REGISTRY NO=77350-25-5
##MP= -300
##BP= -300
##MW= 376
##$RETENTION INDEX=0
##$CONDENSED SPECTRUM=NO
##NPOINTS= 55
##XYDATA=(XY..XY) 1 
    69        103
    70         79
    71         83
    73        319
    80         49
    81        189
    84         39
    85        109
    86        129
    98        999
    99        329
   101        399
   102         63
   103        459
   109        289
   110         31
   112         78
   113         63
   114        109
   115        679
   116         99
   126        199
   127        189
   131         87
   139         67
   140        159
   141         48
   143        589
   144         99
   145        289
   154         53
   155        159
   157        239
   158        149
   168        129
   169        359
   170         38
   172         48
   185         87
   186        167
   187         48
   197         63
   200         73
   201         60
   211         97
   214        109
   215         38
   228        119
   229         36
   256         14
   257          4
   274         18
   275          4
   303          9
   317        108