##TITLE=Library Entry 53419
##JCAMP-DX=Revision 4.10 
##DATA TYPE=MASS SPECTRUM
##SAMPLE DESCRIPTION=R. SELF, AGRIC. RES. COUNC., FOOD RES. INST., NORWICH,
 U
##NAMES=HP
##CAS NAME=Bis(heptafluorobutyryl)-N(.eps.)-cyclohexyllysine propyl ester
##MOLFORM=C23H28F14N2O4
##CAS REGISTRY NO=77369-55-2
##MP= -300
##BP= -300
##MW= 662
##$RETENTION INDEX=0
##$CONDENSED SPECTRUM=NO
##NPOINTS= 225
##XYDATA=(XY..XY) 1 
    29         89
    30         32
    31         46
    38          3
    39         66
    40         13
    41        427
    42         73
    43        410
    44         86
    45         85
    50         14
    51         22
    52          5
    53         39
    55        836
    56        129
    57         78
    58         10
    59         12
    60          1
    65         17
    66         39
    67        489
    68         90
    69        245
    70         71
    71         21
    72          4
    73          5
    74          2
    77         14
    78         11
    79         57
    80         42
    81        267
    82        268
    83        999
    84        118
    85         96
    86         15
    87          6
    89          1
    91          9
    92          2
    93         14
    94         21
    95        132
    96         38
    97         22
    98         23
    99          6
   100         63
   101          2
   105          4
   106          2
   107          3
   108          9
   109         19
   110         40
   111         13
   112         24
   113         24
   119         47
   122          9
   123          4
   124         19
   125          6
   126         36
   127          3
   128         33
   129          1
   131          9
   135          1
   136          3
   138         14
   139          5
   140          8
   141          2
   147          1
   149          1
   150         33
   151          2
   152          8
   159          4
   160          2
   162          2
   164          3
   168          4
   169         87
   170          1
   178          3
   192          3
   196          2
   197          4
   203          1
   210          3
   214         26
   226        136
   227         14
   228          3
   230          2
   238          8
   239         20
   240         31
   241          3
   242          7
   250          1
   252         85
   253         32
   254         10
   255          2
   258          3
   259          2
   260          5
   261          2
   262          5
   264          4
   265          5
   266         39
   267          6
   268         43
   269          3
   270          5
   271         13
   276          1
   277          4
   278         72
   279         41
   280        916
   281         94
   282          7
   288          2
   290          5
   292         10
   293          5
   294         29
   295         30
   296          7
   297          6
   305          5
   306         45
   307         21
   308        100
   309         22
   310          1
   313         15
   320          1
   322          4
   323         15
   324         10
   325          3
   326         41
   327          3
   335          8
   336         11
   337          4
   348          2
   349          3
   350        111
   351         19
   360          2
   361          3
   363          1
   366         27
   367          5
   368         12
   375          2
   377         16
   378          3
   379          2
   383         20
   384          2
   405         37
   406          5
   407          2
   411          7
   421          4
   423         11
   451          8
   463         30
   464         13
   465        243
   466         53
   467          8
   473         14
   475          3
   477          5
   479          3
   491          7
   492          3
   493        189
   494         37
   495          5
   503          3
   518          3
   519         18
   520        295
   521         62
   522          7
   539          5
   555          4
   561         10
   562          3
   563         31
   564          4
   573          6
   575         32
   576          5
   577          1
   580         95
   581         55
   582          8
   601          3
   602          9
   603          4
   605         21
   606          3
   619         59
   620         11
   643          8
   660          1
   661         12
   662         59
   663         15