##TITLE=Library Entry 18924
##JCAMP-DX=Revision 4.10 
##DATA TYPE=MASS SPECTRUM
##SAMPLE DESCRIPTION=D.HENNEBERG, MAX-PLANCK INSTITUTE, MULHEIM, WEST GERMAN
Y
##NAMES=HP
##CAS NAME=1,5-Heptadiene, (E)-
##MOLFORM=C7H12
##CAS REGISTRY NO=7736-22-3
##MP= -300
##BP= -300
##MW= 96
##$RETENTION INDEX=680
##$CONDENSED SPECTRUM=NO
##NPOINTS= 55
##XYDATA=(XY..XY) 1 
    25          1
    26         11
    27        144
    28         21
    29        260
    30          5
    32          0
    35          0
    36          0
    37          5
    38         13
    39        212
    40         21
    41        110
    42          9
    43          1
    44          1
    45          0
    46          0
    47          0
    49          1
    50         11
    51         22
    52         10
    53         86
    54         97
    55        999
    56         41
    57          0
    61          1
    62          2
    63          5
    64          1
    65         11
    66         17
    67        121
    68         42
    69          3
    73          0
    74          0
    75          0
    76          0
    77         12
    78          2
    79         16
    80          3
    81        228
    82         13
    91          3
    92          0
    93          0
    94          0
    95          5
    96         17
    97          1