##TITLE=Library Entry 77624
##JCAMP-DX=Revision 4.10 
##DATA TYPE=MASS SPECTRUM
##SAMPLE DESCRIPTION=PYTCAS, 17(3)511(1978); M. A. DE ALVARENGA
##NAMES=HP
##CAS NAME=Isocoumarin, 3,4-dihydro-8-methoxy-3,5-dimethyl-, (R)-
##MOLFORM=C12H14O3
##CAS REGISTRY NO=7736-76-7
##MP= -300
##BP= -300
##MW= 206
##$RETENTION INDEX=0
##$CONDENSED SPECTRUM=NO
##NPOINTS= 9
##XYDATA=(XY..XY) 1 
   104        999
   132        350
   145        980
   160        980
   162        240
   163        200
   173        200
   177        160
   206        850