##TITLE=Library Entry 52895
##JCAMP-DX=Revision 4.10 
##DATA TYPE=MASS SPECTRUM
##SAMPLE DESCRIPTION=A.Pleshkova, Nesmeyanov Inst.Org.Elem.Cpds, Moscow
##NAMES=HP
##CAS NAME=N-Acrylonitryl-2,2,6,6-tetramethylpiperidine-4-one
##MOLFORM=C12H18N2O
##CAS REGISTRY NO=77376-90-0
##MP= -300
##BP= -300
##MW= 206
##$RETENTION INDEX=0
##$CONDENSED SPECTRUM=NO
##NPOINTS= 35
##XYDATA=(XY..XY) 1 
    39         71
    40         11
    41        173
    42        171
    43         24
    55        361
    56        473
    57         28
    66         61
    67          8
    82        165
    83        999
    84         83
    85          9
    91        153
    92         51
    93        723
    94         85
    95         91
    96         10
   108        683
   109        525
   110         83
   111          9
   135         93
   149         51
   150        103
   151         53
   152          4
   166         32
   191        165
   192         33
   206        385
   207         61
   208          5