##TITLE=Library Entry 26400
##JCAMP-DX=Revision 4.10 
##DATA TYPE=MASS SPECTRUM
##SAMPLE DESCRIPTION=A.Pleshkova, Nesmeyanov Inst.Org.Elem.Cpds, Moscow
##NAMES=HP
##CAS NAME=Ditert.-butylaminoacrylonitryl
##MOLFORM=C11H20N2
##CAS REGISTRY NO=77376-85-3
##MP= -300
##BP= -300
##MW= 180
##$RETENTION INDEX=0
##$CONDENSED SPECTRUM=NO
##NPOINTS= 22
##XYDATA=(XY..XY) 1 
    41        163
    42         63
    43          6
    56         91
    57        999
    58         91
    59          5
    68        171
    69        165
    70          9
    92         41
    93         62
    94          9
   109        551
   110         81
   111          6
   124        353
   125         43
   165         31
   180        303
   181         63
   182          2