##TITLE=Library Entry 22138
##JCAMP-DX=Revision 4.10 
##DATA TYPE=MASS SPECTRUM
##SAMPLE DESCRIPTION=A.Pleshkova, Nesmeyanov Inst.Org.Elem.Cpds, Moscow
##NAMES=HP
##CAS NAME=1-Acrylonitryl-3,3,-dimethyldiaziridine
##MOLFORM=C6H9N3
##CAS REGISTRY NO=77376-92-2
##MP= -300
##BP= -300
##MW= 123
##$RETENTION INDEX=0
##$CONDENSED SPECTRUM=NO
##NPOINTS= 36
##XYDATA=(XY..XY) 1 
    26        209
    27        385
    28        616
    29        220
    30         44
    38         77
    39        276
    40        374
    41        374
    42        759
    43        110
    44          9
    51         44
    52        110
    53         55
    54        176
    55        232
    56        999
    57        133
    66         44
    67        154
    68         66
    69         50
    70          7
    81        209
    82         61
    83        232
    84         44
    85          6
    97        110
    98        672
    99         77
   122         99
   123        165
   124         22
   125          6