##TITLE=Library Entry 11938
##JCAMP-DX=Revision 4.10 
##DATA TYPE=MASS SPECTRUM
##SAMPLE DESCRIPTION=A.Pleshkova, Nesmeyanov Inst.Org.Elem.Cpds, Moscow
##NAMES=HP
##CAS NAME=Diisopropylarsinacrylonitryl
##MOLFORM=C9H16AsN
##CAS REGISTRY NO=77376-96-6
##MP= -300
##BP= -300
##MW= 213
##$RETENTION INDEX=0
##$CONDENSED SPECTRUM=NO
##NPOINTS= 39
##XYDATA=(XY..XY) 1 
    39         93
    40         42
    41        413
    42        162
    43        999
    44        113
    45        131
    46         73
    47          7
    52         41
    53        133
    54        232
    55        101
    56          6
    67         91
    68        142
    69         52
    70        102
    71          9
    79         61
    80        121
    81         43
    93        172
    94         92
    95         94
    96         11
   111        163
   112         48
   129        531
   130         41
   156        121
   157         21
   171        393
   172         45
   173          8
   198         22
   213        153
   214         16
   215          1