##TITLE=Library Entry 57424
##JCAMP-DX=Revision 4.10 
##DATA TYPE=MASS SPECTRUM
##SAMPLE DESCRIPTION=A.Pleshkova, Nesmeyanov Inst.Org.Elem.Cpds, Moscow
##NAMES=HP
##CAS NAME=Dimethylphosphinacrylonitryl
##MOLFORM=C5H8NP
##CAS REGISTRY NO=77376-93-3
##MP= -300
##BP= -300
##MW= 113
##$RETENTION INDEX=0
##$CONDENSED SPECTRUM=NO
##NPOINTS= 37
##XYDATA=(XY..XY) 1 
    39        143
    40         31
    41        503
    42        123
    43          9
    44        101
    45        642
    46        343
    47        221
    48         27
    52        103
    53         61
    54        121
    55          9
    57        463
    58        121
    59        263
    60         91
    61        122
    62        183
    63         11
    67        143
    68        221
    69        121
    70        103
    71        663
    72        141
    73         21
    86        121
    87        999
    88         43
    98        999
    99         29
   112         21
   113        763
   114         51
   115          2