##TITLE=Library Entry 82748
##JCAMP-DX=Revision 4.10 
##DATA TYPE=MASS SPECTRUM
##SAMPLE DESCRIPTION=Chemical Concepts
##NAMES=HP
##CAS NAME=2-Phenyl-hex-5-en-3-ol
##MOLFORM=C12H16O
##CAS REGISTRY NO=77383-06-3
##MP= -300
##BP= -300
##MW= 176
##$RETENTION INDEX=0
##$CONDENSED SPECTRUM=NO
##NPOINTS= 51
##XYDATA=(XY..XY) 1 
    27         58
    29         15
    31          9
    39         56
    40          9
    41         64
    42         13
    43         99
    44          8
    50         16
    51         42
    52         14
    53         17
    55          6
    57         53
    58          4
    62          4
    63         18
    64          4
    65         32
    66          4
    69          6
    70         12
    71         38
    74          4
    75          6
    76          6
    77         94
    78         50
    79         59
    80          5
    88          9
    89          4
    91        648
    92         30
    93         18
   102         35
   103         22
   105        209
   106        999
   107         48
   115         22
   116          5
   117         50
   118          6
   120          8
   121         22
   128          4
   135         79
   136         14
   176          7