##TITLE=Library Entry 11073
##JCAMP-DX=Revision 4.10 
##DATA TYPE=MASS SPECTRUM
##SAMPLE DESCRIPTION=Chemical Concepts
##NAMES=HP
##CAS NAME=Cyclopentanepropanoic acid, 1-acetyl-2,2-dimethyl-, methyl ester
##MOLFORM=C13H22O3
##CAS REGISTRY NO=77384-07-7
##MP= -300
##BP= -300
##MW= 226
##$RETENTION INDEX=0
##$CONDENSED SPECTRUM=NO
##NPOINTS= 109
##XYDATA=(XY..XY) 1 
    27        110
    28         32
    29        115
    31         14
    33          4
    39        131
    40         32
    41        345
    42         60
    43        999
    44         32
    45         28
    50          5
    51         26
    52         17
    53        128
    54         34
    55        359
    56         32
    57         26
    59         95
    63          8
    65         41
    66         22
    67        261
    68         38
    69        176
    70         99
    71         43
    73         17
    74         79
    75         14
    77         73
    78         16
    79         97
    80         21
    81        274
    82         68
    83         55
    84         22
    85        102
    86          9
    87         28
    88         12
    91         62
    92         11
    93        124
    94         28
    95        293
    96         78
    97        482
    98         43
    99        207
   100         15
   101          7
   105         27
   107        215
   109        997
   110        150
   111         61
   112         54
   113         20
   115         12
   116         24
   117          9
   119         13
   121         16
   122         15
   123        302
   124         44
   125        964
   126         88
   127         25
   128          6
   129          7
   133        153
   134         19
   135         48
   136          9
   137         38
   138         92
   139         35
   140         18
   141          9
   142          5
   144         27
   149         10
   150          8
   151        718
   152        100
   153         37
   157        230
   158         22
   159          5
   164         15
   166          6
   167         98
   168         15
   169         14
   170         14
   177         11
   178         13
   182         99
   183        546
   184         77
   185          9
   195         65
   196          9
   226          5