##TITLE=Library Entry 11711
##JCAMP-DX=Revision 4.10 
##DATA TYPE=MASS SPECTRUM
##SAMPLE DESCRIPTION=Chemical Concepts
##NAMES=HP
##CAS NAME=2-Propenoic acid, 3-(5-acetyl-2,2-dimethylcyclopentyl)-, methyl e
ster, [1.alpha.(E),5.alpha.]-
##MOLFORM=C13H20O3
##CAS REGISTRY NO=77383-94-9
##MP= -300
##BP= -300
##MW= 224
##$RETENTION INDEX=0
##$CONDENSED SPECTRUM=NO
##NPOINTS= 137
##XYDATA=(XY..XY) 1 
    26          5
    27         77
    28         12
    29         71
    30          3
    31          7
    38          7
    39        136
    40         38
    41        258
    42         31
    43        999
    44         27
    45         25
    50         10
    51         40
    52         24
    53         98
    54         16
    55        176
    56         61
    57         24
    58          5
    59        119
    60          8
    61          5
    62          4
    63         14
    64          8
    65         89
    66        120
    67         98
    68         19
    69        148
    70         77
    71         33
    73          9
    74          8
    75         11
    77          5
    79        100
    80         28
    81        153
    82         30
    83        112
    84         31
    85         38
    86         12
    87         16
    88          4
    89         18
    90          6
    91         83
    92         19
    93        159
    94         64
    95        213
    96         32
    97         44
    98         18
    99         13
   100         23
   101          5
   103         12
   104          8
   105         50
   106         25
   107        151
   108         74
   109         91
   110         16
   111         70
   112         17
   113         52
   114          7
   115         11
   117         11
   119         16
   120          8
   121        161
   122         37
   123        598
   124        110
   125        214
   126         41
   127         15
   128          6
   129          5
   131         34
   132          9
   133         15
   134          8
   135         73
   136         60
   137         90
   138         16
   139         41
   140          8
   141          7
   145          5
   146          7
   147         32
   148          7
   149        187
   150         64
   151         23
   152          6
   153         10
   154          4
   155        437
   156         61
   157          8
   159          6
   163         23
   164         45
   165         98
   166         19
   167         45
   168         29
   169         43
   170          7
   177         32
   178          5
   179          7
   180          4
   181        150
   182         30
   183          5
   191         15
   192        144
   193         39
   195          5
   206         12
   209         53
   210         10
   224        199
   225         30