##TITLE=Library Entry 50546
##JCAMP-DX=Revision 4.10 
##DATA TYPE=MASS SPECTRUM
##SAMPLE DESCRIPTION=Chemical Concepts
##NAMES=HP
##CAS NAME=1H-Cyclopenta[c]furan-1-one, hexahydro-3,6,6-trimethyl-
##MOLFORM=C10H16O2
##CAS REGISTRY NO=77384-13-5
##MP= -300
##BP= -300
##MW= 168
##$RETENTION INDEX=0
##$CONDENSED SPECTRUM=NO
##NPOINTS= 109
##XYDATA=(XY..XY) 1 
    26          9
    27        141
    28         34
    29        124
    30          2
    31          2
    37          2
    38         10
    39        223
    40         53
    41        347
    42         48
    43        223
    44         10
    45         15
    46          2
    47          1
    49          0
    50         13
    51         43
    52         24
    53        138
    54         37
    55        385
    56         41
    57         24
    58          3
    59         16
    60          2
    61          1
    62          9
    63         12
    64          2
    65         47
    66         22
    67        263
    68        581
    69        243
    70         61
    71         53
    72          3
    73          8
    74          3
    75          3
    76          2
    77         94
    78         19
    79        127
    80         46
    81        999
    82        151
    83         57
    84         13
    85         10
    86          9
    87          3
    89          2
    91         49
    92         22
    93        130
    94         83
    95        484
    96        653
    97        122
    98         25
    99        475
   100         64
   101          7
   103          2
   105         12
   106          8
   107        124
   108        248
   109        571
   110         51
   111         66
   112        139
   113        104
   114         17
   115          4
   117          2
   119          2
   121         11
   122        290
   123        336
   124         52
   125        171
   126         29
   134          5
   135         21
   136          2
   137          1
   138          3
   139        142
   140        161
   141         19
   149          6
   150         88
   151         12
   152          1
   153        257
   154         16
   155          2
   165          1
   166          1
   167          8
   168        213
   169         29
   170          2