##TITLE=Library Entry 83584
##JCAMP-DX=Revision 4.10 
##DATA TYPE=MASS SPECTRUM
##SAMPLE DESCRIPTION=Chuck Anderson, Aldrich Chemical Co.
##NAMES=HP
##CAS NAME=Ethyl mandelate
##MOLFORM=C10H12O3
##CAS REGISTRY NO=774-40-3
##MP= -300
##BP= -300
##MW= 180
##$RETENTION INDEX=0
##$CONDENSED SPECTRUM=NO
##NPOINTS= 43
##XYDATA=(XY..XY) 1 
    14          0
    15          3
    17          0
    18          1
    19          0
    26          6
    27         43
    28         10
    29         90
    30          3
    31          4
    36          2
    38          4
    39         18
    43          3
    44          6
    45          2
    50         14
    51         58
    52         14
    53         10
    62          4
    63         11
    64          0
    73          0
    74          3
    75          2
    76          1
    77        261
    78         16
    79        457
    80         20
    89         11
    90          9
    91          6
   105         99
   106          1
   107        999
   108         36
   109          2
   118          5
   180         39
   181          3