##TITLE=Library Entry 26365
##JCAMP-DX=Revision 4.10 
##DATA TYPE=MASS SPECTRUM
##SAMPLE DESCRIPTION=Japan AIST/NIMC Database- Spectrum MS-NW-3823
##NAMES=HP
##CAS NAME=Benzoic acid 1,1-dimethylethyl ester
##MOLFORM=C11H14O2
##CAS REGISTRY NO=774-65-2
##MP= -300
##BP= -300
##MW= 178
##$RETENTION INDEX=0
##$CONDENSED SPECTRUM=NO
##NPOINTS= 76
##XYDATA=(XY..XY) 1 
    14          2
    15         18
    17          1
    18          2
    26          5
    27         60
    28         12
    29        199
    30          4
    31          3
    32          1
    37          5
    38         10
    39         79
    40         12
    41        328
    42         21
    43         38
    44          5
    45          3
    49          2
    50         54
    51        157
    52         12
    53          5
    54          3
    55         22
    56        497
    57        999
    58         47
    59          3
    61          2
    62          2
    63          2
    64          1
    65          5
    66          1
    73          1
    74         11
    75         12
    76         22
    77        340
    78         63
    79         55
    80          5
    81          3
    85          1
    87          2
    91          2
    93          1
    94          1
    95          1
   104          5
   105        917
   106         82
   107          4
   108          1
   109          1
   111          1
   119          3
   121          3
   122         89
   123        894
   124         76
   125          7
   126          1
   127          1
   139          2
   140          1
   141          1
   143          2
   155          1
   157          1
   159          1
   163          7
   178          3