##TITLE=Library Entry 62488
##JCAMP-DX=Revision 4.10 
##DATA TYPE=MASS SPECTRUM
##SAMPLE DESCRIPTION=A.A.Kutin, Moscow, Russia
##NAMES=HP
##CAS NAME=m-Anisaldehyde, 2-hydroxy-, p-toluenesulfonate
##MOLFORM=C15H14O5S
##CAS REGISTRY NO=7740-04-7
##MP= -300
##BP= -300
##MW= 306
##$RETENTION INDEX=0
##$CONDENSED SPECTRUM=NO
##NPOINTS= 176
##XYDATA=(XY..XY) 1 
    33         92
    34          3
    35          2
    36         13
    37         22
    38         64
    39        323
    40         51
    41        172
    42         24
    43         62
    44         26
    45        108
    46         46
    47          3
    48         16
    49         12
    50        137
    51        283
    52        310
    53        146
    54         24
    55         78
    56          8
    57         11
    58          3
    59          6
    60          3
    61         15
    62         56
    63        189
    64         76
    65        523
    66         45
    67         96
    68          9
    69         24
    70          5
    71          7
    72          2
    73          5
    74         14
    75         13
    76         39
    77        132
    78         36
    79        102
    80        108
    81         59
    82          8
    83          4
    84          3
    85          4
    86          4
    87          4
    88          2
    89         87
    90         44
    91        999
    92        122
    93        143
    94         15
    95         59
    96          6
    97          3
    98          1
    99          2
   100          0
   101          0
   102          1
   103          2
   104          9
   105         22
   106         76
   107         85
   108        215
   109         64
   110          6
   111          5
   112          1
   113          1
   114          1
   115          9
   116          2
   117          1
   118          1
   119         19
   120         27
   121         48
   122         91
   123         69
   124         11
   125          2
   126          1
   127          5
   128         19
   129          5
   130          1
   131          1
   132          0
   133         11
   134          5
   135         16
   136        111
   137         16
   138          4
   139        104
   140         12
   141         13
   142          4
   143          4
   144          1
   145          0
   146          0
   147          1
   148          0
   149         27
   150        125
   151        895
   152        200
   153         26
   154          4
   155        563
   156         49
   157         30
   158          2
   159          0
   160          0
   161          1
   162          0
   163          0
   165          2
   166          1
   167         18
   168          3
   169          2
   170          1
   171          9
   172          2
   180          0
   181          3
   182          2
   183          1
   184          6
   185          4
   186          1
   187          0
   194          0
   195          1
   196          0
   197          2
   198          4
   199          3
   200          0
   205          0
   209          0
   210          0
   211          1
   212          1
   213          1
   214          0
   223          0
   224          0
   225          0
   226          0
   227          1
   240          0
   241          0
   242          0
   278          1
   279          0
   291          0
   306        173
   307         27
   308         11
   309          1