##TITLE=Library Entry 35780
##JCAMP-DX=Revision 4.10 
##DATA TYPE=MASS SPECTRUM
##SAMPLE DESCRIPTION=P.E. BUTLER, ESSO R. & E. CO., LINDEN, NEW JERSEY, USA
##NAMES=HP
##CAS NAME=1-Butyne, 3-ethoxy-3-methyl-
##MOLFORM=C7H12O
##CAS REGISTRY NO=7740-69-4
##MP= -300
##BP= -300
##MW= 112
##$RETENTION INDEX=0
##$CONDENSED SPECTRUM=NO
##NPOINTS= 17
##XYDATA=(XY..XY) 1 
    39        277
    41        275
    43        357
    51        130
    52         49
    53        107
    55         18
    57          3
    59         31
    63         25
    65         76
    67        470
    69        999
    81          2
    83         17
    97        817
   111          0