##TITLE=Library Entry 50932
##JCAMP-DX=Revision 4.10 
##DATA TYPE=MASS SPECTRUM
##SAMPLE DESCRIPTION=R.E.Ardrey ET AL.Pharmaceutical Mass Spectra,L.,1985
##NAMES=HP
##CAS NAME=Barbituric acid, 5-allyl-5-(cyclohex-2-en-1-yl)-
##MOLFORM=C13H16N2O3
##CAS REGISTRY NO=77409-34-8
##MP= -300
##BP= -300
##MW= 248
##$RETENTION INDEX=0
##$CONDENSED SPECTRUM=NO
##NPOINTS= 73
##XYDATA=(XY..XY) 1 
    39        180
    40         80
    41        300
    42         30
    43         80
    44         80
    45         30
    50         30
    51         80
    52         80
    53        210
    54         50
    55         80
    56         30
    57         50
    63         30
    64         30
    65        100
    66         50
    67        180
    68         30
    69         30
    70         30
    71         30
    73         30
    77        230
    78        100
    79        510
    80        510
    81        999
    82         70
    92        130
    93         30
    94         50
    96         50
    97         50
    98         80
    99         30
   105         30
   106         30
   107         50
   108        100
   109         30
   118         30
   119         50
   120         30
   121         50
   122         30
   124         30
   126         30
   128         30
   138         50
   141        360
   142         50
   146         30
   147        100
   148         30
   156         30
   164         80
   165         50
   166         30
   167        100
   168         50
   169        310
   170         80
   205        180
   206        180
   207        950
   208        150
   209         50
   221         30
   233         30
   248         30