##TITLE=Library Entry 27930
##JCAMP-DX=Revision 4.10 
##DATA TYPE=MASS SPECTRUM
##SAMPLE DESCRIPTION=A.Pleshkova, Nesmeyanov Inst.Org.Elem.Cpds, Moscow
##NAMES=HP
##CAS NAME=Dimethylaminomethyl-isopropyl-sulfide
##MOLFORM=C6H15NS
##CAS REGISTRY NO=77422-33-4
##MP= -300
##BP= -300
##MW= 133
##$RETENTION INDEX=0
##$CONDENSED SPECTRUM=NO
##NPOINTS= 20
##XYDATA=(XY..XY) 1 
    41        100
    42        147
    43        152
    44         84
    45         68
    46         63
    47         58
    48          2
    56         42
    57         63
    58        999
    59        116
    60          5
    61         42
    76         37
    89         26
    90         21
    91          1
   133         26
   134          1