##TITLE=Library Entry 88930
##JCAMP-DX=Revision 4.10 
##DATA TYPE=MASS SPECTRUM
##SAMPLE DESCRIPTION=Chemical Concepts
##NAMES=HP
##CAS NAME=Hexanedioic acid, bis(2-chloroethyl) ester
##MOLFORM=C10H16Cl2O4
##CAS REGISTRY NO=7744-81-2
##MP= -300
##BP= -300
##MW= 270
##$RETENTION INDEX=0
##$CONDENSED SPECTRUM=NO
##NPOINTS= 115
##XYDATA=(XY..XY) 1 
    25          2
    26         59
    27        531
    28        194
    29        120
    30         14
    31         24
    35          5
    36          7
    38          9
    39         97
    40         19
    41        208
    42        168
    43        120
    44         16
    45         40
    47          3
    48          5
    49         38
    50         14
    51         17
    52          5
    53         34
    54         56
    55        639
    56        209
    57         40
    58         12
    59         57
    60         31
    61         16
    62        173
    63        539
    64         75
    65        177
    66          4
    67         15
    68         26
    69         58
    70          6
    71         25
    72          1
    73         35
    74          8
    77          4
    78          4
    79          4
    80         11
    81         34
    82         81
    83        360
    84         43
    85         26
    86         48
    87         35
    88          2
    91          6
    93          7
    94          4
    95          5
    97          3
    98          3
    99         80
   100         55
   101        123
   102         10
   105          3
   106          3
   107        147
   108         10
   109         57
   110         31
   111        999
   112         68
   113         11
   119         16
   120         15
   121         40
   122         26
   123         12
   124          8
   126          2
   127         12
   128          5
   129         22
   135         44
   136          4
   137         16
   145         14
   147         29
   148          6
   149        185
   150         19
   151         58
   152          4
   155         17
   156          2
   157          3
   161          4
   162        409
   163        105
   164        126
   165         29
   166          2
   168          1
   171          1
   173          8
   175          2
   189          3
   190         28
   191        760
   192         84
   193        250
   194         18