##TITLE=Library Entry 13303
##JCAMP-DX=Revision 4.10 
##DATA TYPE=MASS SPECTRUM
##SAMPLE DESCRIPTION=Chemical Concepts
##NAMES=HP
##CAS NAME=3-Acetamido-5-(3-ethyl-4,5-dimethyl-4-thiazolin-2-ylidene)rhodani
ne
##MOLFORM=C12H15N3O2S3
##CAS REGISTRY NO=77447-07-5
##MP= -300
##BP= -300
##MW= 329
##$RETENTION INDEX=0
##$CONDENSED SPECTRUM=NO
##NPOINTS= 110
##XYDATA=(XY..XY) 1 
    34         65
    36         10
    38         31
    39        111
    40        149
    41        205
    42        260
    43        999
    44        160
    45        181
    46         23
    47         35
    48         21
    50         22
    51         73
    53        391
    54         79
    55         71
    56         46
    57        100
    59        418
    60         49
    61         20
    63         12
    64         48
    65         28
    66         48
    67         25
    68         48
    69         59
    70         83
    71        238
    72         33
    73         27
    74         24
    76         75
    77         47
    78         24
    79         27
    81         33
    82         16
    83         28
    85        164
    86        191
    88         74
    89          9
    91         15
    92         13
    93         20
    94          9
    95         14
    96         11
    97         30
    98         42
    99         17
   100         14
   109         10
   110         13
   112         70
   113         35
   114         16
   115         18
   116         26
   117         20
   119         15
   120         12
   124         47
   125         32
   126         49
   127         40
   136         11
   137         23
   138         13
   139         17
   140         35
   141         17
   142          9
   149         16
   150         22
   152        597
   153         95
   154         53
   156        291
   157        219
   158         66
   159         21
   164          9
   165         12
   166          9
   167          9
   168         15
   170        472
   171         62
   172         49
   180         16
   181         11
   182         59
   183         28
   185        958
   186         90
   187         78
   212         21
   213         47
   214         10
   271         13
   272         22
   328         16
   329        233
   330         43
   331         32