##TITLE=Library Entry 58800
##JCAMP-DX=Revision 4.10 
##DATA TYPE=MASS SPECTRUM
##SAMPLE DESCRIPTION=NIST Mass Spectrometry Data Center, 1994
##NAMES=HP
##CAS NAME=Benzene, 2-bromo-1-methyl-4-nitro-
##MOLFORM=C7H6BrNO2
##CAS REGISTRY NO=7745-93-9
##MP= -300
##BP= -300
##MW= 215
##$RETENTION INDEX=0
##$CONDENSED SPECTRUM=NO
##NPOINTS= 89
##XYDATA=(XY..XY) 1 
    12          3
    14          4
    15         11
    16         11
    25          5
    26         32
    27         33
    28         27
    29          3
    30        437
    36          5
    37         61
    38        127
    39        316
    40         39
    41          1
    43         16
    44          7
    46        102
    48          5
    49         33
    50        175
    51        225
    52         54
    53         12
    54          1
    55          1
    60         10
    61         93
    62        245
    63        622
    64        138
    65         21
    66          3
    72          1
    73         15
    74         61
    75         59
    76         26
    77        163
    78        273
    79         37
    80         14
    81         20
    82         10
    84         11
    85         41
    86         79
    87         62
    88          1
    89        882
    90        999
    91         74
    92          4
    93          4
    95          4
   102          1
   105        263
   106         41
   107          6
   117         28
   118          6
   119         28
   121          2
   128          5
   129          4
   130          6
   131          6
   136          7
   141          6
   143         28
   145         27
   157         48
   159         48
   160          3
   167          3
   169        297
   171        276
   172         22
   185        139
   187        133
   188         11
   199         10
   201         10
   215        577
   216         46
   217        567
   218         45
   219          1