##TITLE=Library Entry 29
##JCAMP-DX=Revision 4.10 
##DATA TYPE=MASS SPECTRUM
##SAMPLE DESCRIPTION=S.Bauer ET AL, J.Chromatogr.,309,243 (1984)
##NAMES=HP
##CAS NAME=1-Carboxycyclopropane-2-acetic acid (Z), dimethyl ester
##MOLFORM=C8H12O4
##CAS REGISTRY NO=77462-53-4
##MP= -300
##BP= -300
##MW= 172
##$RETENTION INDEX=1175
##$CONDENSED SPECTRUM=NO
##NPOINTS= 76
##XYDATA=(XY..XY) 1 
    14         17
    15        999
    16         10
    18         14
    26         68
    27        394
    28        104
    29         98
    30         29
    31         31
    33         14
    35          4
    37         17
    38         19
    39        251
    40         38
    41        343
    42         59
    43         98
    44         14
    45         78
    50         19
    51         44
    52         19
    53        407
    54        159
    55        296
    56         25
    57         17
    58         27
    59        618
    60         27
    61          6
    65          6
    66          4
    67         19
    68         46
    69         46
    70         12
    71        313
    72         19
    73         21
    74         27
    75         76
    76          8
    79          6
    80        100
    81        503
    82        123
    83         78
    84         21
    85         46
    87         23
    95         19
    97         81
    98        633
    99        547
   100         34
   101         23
   102          6
   108        492
   109        574
   110         36
   111         61
   112        117
   113        149
   114         17
   115         14
   117         14
   125         10
   127         19
   130         10
   140        223
   141        185
   157          4
   171          6