##TITLE=Library Entry 21
##JCAMP-DX=Revision 4.10 
##DATA TYPE=MASS SPECTRUM
##SAMPLE DESCRIPTION=S.Bauer ET AL, J.Chromatogr.,309,243 (1984)
##NAMES=HP
##CAS NAME=1-Carboxycyclopropane-2-acetic acid (E), dimethyl ester
##MOLFORM=C8H12O4
##CAS REGISTRY NO=77462-54-5
##MP= -300
##BP= -300
##MW= 172
##$RETENTION INDEX=1190
##$CONDENSED SPECTRUM=NO
##NPOINTS= 76
##XYDATA=(XY..XY) 1 
    15        999
    16         14
    18         19
    26         46
    27        408
    28         85
    29        127
    30         12
    31         48
    33          4
    35          6
    36          8
    37          6
    38         23
    39        278
    40         36
    41         78
    42         76
    43        104
    44         27
    45         68
    47          8
    50         29
    51         61
    52         57
    53        321
    54        159
    55        342
    56         23
    57         14
    58         29
    59        791
    60         21
    63          4
    67         29
    68         34
    69         36
    70          8
    71        478
    72         19
    73         14
    74         25
    75         82
    79          8
    80         74
    81        412
    82         91
    83         55
    84         21
    85         53
    86          4
    87         21
    90          4
    91          4
    95          4
    97         85
    98        582
    99        678
   100         29
   101         23
   108        361
   109        253
   110         17
   111         38
   112        165
   113        304
   114         29
   115          4
   117          6
   127          6
   130          6
   140        193
   141        131
   142         12
   157          4
   171          6