##TITLE=Library Entry 39501
##JCAMP-DX=Revision 4.10 
##DATA TYPE=MASS SPECTRUM
##SAMPLE DESCRIPTION=Chemical Concepts
##NAMES=HP
##CAS NAME=2,7-Methanonaphthalen-3-amine, 1,2,3,4,4a,7,8,8a-octahydro-N,N-di
methyl-, (2.alpha.,3.alpha.,4a.beta.,7.alpha.,8a.beta.)-
##MOLFORM=C13H21N
##CAS REGISTRY NO=77483-32-0
##MP= -300
##BP= -300
##MW= 191
##$RETENTION INDEX=0
##$CONDENSED SPECTRUM=NO
##NPOINTS= 99
##XYDATA=(XY..XY) 1 
    27         32
    28         17
    29         22
    30         14
    39         58
    40          9
    41        106
    42        106
    43         49
    44         78
    45         23
    46         14
    51         19
    52         10
    53         28
    54         10
    55         34
    56        104
    57         43
    58        597
    59         31
    63          7
    65         33
    66         15
    67         38
    68         26
    69         15
    70         58
    71        999
    72         60
    77         86
    78         33
    79         89
    80         18
    81         25
    82         35
    83         11
    84         98
    85         23
    91        117
    92         30
    93         20
    94         34
    95         20
    96         30
    97         26
    98         25
    99          9
   103         12
   104         18
   105         53
   106          9
   107          9
   108         48
   109         90
   110         70
   111         30
   112         30
   113         15
   115         15
   116          6
   117         29
   118         12
   119         21
   120         18
   121         15
   122         83
   123        122
   124         28
   125          8
   128          7
   129          6
   131         24
   132          7
   133          6
   134         58
   135         26
   136        116
   137         34
   145          7
   146         21
   147         15
   148         82
   149         56
   150         55
   151          7
   162         51
   163         22
   164          4
   167          2
   174          4
   176         83
   177         12
   178          3
   189          9
   190         95
   191        708
   192         78
   193          5