##TITLE=Library Entry 6841
##JCAMP-DX=Revision 4.10 
##DATA TYPE=MASS SPECTRUM
##SAMPLE DESCRIPTION=E. WESTERLUND,DEP. CHEM. MOL. BIOL.,SWED. UNIV. AGRIC.,
UPPSA]
##NAMES=HP
##CAS NAME=exo-1,2-O-Ethylidene-.alpha.-d-erythrofuranose
##MOLFORM=C6H10O4
##CAS REGISTRY NO=77489-43-1
##MP= -300
##BP= -300
##MW= 146
##$RETENTION INDEX=0
##$CONDENSED SPECTRUM=NO
##NPOINTS= 33
##XYDATA=(XY..XY) 1 
    43        999
    44        400
    45        690
    47         90
    49         30
    50         20
    54         40
    55        140
    56        120
    57        210
    58         40
    59         30
    68         50
    69        140
    71        230
    72         30
    73         70
    83        130
    84         60
    85        190
    86         70
    87         40
    88         20
    99         40
   100         20
   101         60
   102         60
   103         40
   112         20
   113         40
   129         20
   131         90
   145         20