##TITLE=Library Entry 6889
##JCAMP-DX=Revision 4.10 
##DATA TYPE=MASS SPECTRUM
##SAMPLE DESCRIPTION=E. WESTERLUND,DEP. CHEM. MOL. BIOL.,SWED. UNIV. AGRIC.,
UPPSA
##NAMES=HP
##CAS NAME=3-O-Acetyl-exo-1,2-O-ethylidene-.alpha.-d-erythrofuranose
##MOLFORM=C8H12O5
##CAS REGISTRY NO=77489-44-2
##MP= -300
##BP= -300
##MW= 188
##$RETENTION INDEX=0
##$CONDENSED SPECTRUM=NO
##NPOINTS= 16
##XYDATA=(XY..XY) 1 
    43        999
    44         70
    45        150
    55         50
    56         40
    57        110
    69         40
    71         70
    73         30
    85        130
    86         60
    87         30
   101         40
   127         50
   173         90
   187          6