##TITLE=Library Entry 33813
##JCAMP-DX=Revision 4.10 
##DATA TYPE=MASS SPECTRUM
##SAMPLE DESCRIPTION=W.E.PRESTON DEPT. CHEM., UNIVERSITY OF DURHAM, DURHAM,
 UK
##NAMES=HP
##CAS NAME=11-Oxatetracyclo[6.2.1.0(2,7).0(3,6)]undec-9-ene, 2,3,4,4,5,5,6-h
eptafluoro-
##MOLFORM=C10H5F7O
##CAS REGISTRY NO=77495-78-4
##MP= -300
##BP= -300
##MW= 274
##$RETENTION INDEX=0
##$CONDENSED SPECTRUM=NO
##NPOINTS= 14
##XYDATA=(XY..XY) 1 
    29        140
    31        180
    39        640
    40        210
    68        999
    69        370
    75        280
    93        180
    99        130
   106        500
   137        999
   156        233
   187        280
   206        160