##TITLE=Library Entry 79597
##JCAMP-DX=Revision 4.10 
##DATA TYPE=MASS SPECTRUM
##SAMPLE DESCRIPTION=V.GOLDBERG CHEM. PATH., NAT. HOSP., QUEEN SQ., LONDON,
 UK
##NAMES=HP
##CAS NAME=Benzoic acid, 4-(benzoylphenylamino)-
##MOLFORM=C20H15NO3
##CAS REGISTRY NO=77495-80-8
##MP= -300
##BP= -300
##MW= 317
##$RETENTION INDEX=0
##$CONDENSED SPECTRUM=NO
##NPOINTS= 22
##XYDATA=(XY..XY) 1 
    50         30
    51        110
    63         30
    64         20
    65         30
    75         20
    76         30
    77        630
    78         50
   105        999
   106        130
   107         20
   139         20
   166         30
   167         40
   168         20
   180         20
   195        560
   196         90
   224         10
   317        110
   318         40