##TITLE=Library Entry 78604
##JCAMP-DX=Revision 4.10 
##DATA TYPE=MASS SPECTRUM
##SAMPLE DESCRIPTION=DKFZ HD OPFERKUCH, HEIDELBERG, GERMANY, F.R.G.
##NAMES=HP
##CAS NAME=1H-2,8a-Methanocyclopenta[a]cyclopropa[e]cyclodecen-11-one, 5,6-b
is(benzoyloxy)-1a,2,5,5a,6,9,10,10a-octahydro-5a-hydroxy-4-(hydroxymethyl)-1
,1,7,9-tetramethyl-, [1aR-(1a.alpha.,2.alpha.,5.beta.,5a.beta.,6.beta.,8a.al
pha.,9.alpha.,10a.alpha.)]-
##MOLFORM=C34H36O7
##CAS REGISTRY NO=77495-85-3
##MP= -300
##BP= -300
##MW= 556
##$RETENTION INDEX=0
##$CONDENSED SPECTRUM=NO
##NPOINTS= 374
##XYDATA=(XY..XY) 1 
    13          3
    14          0
    15          3
    16          8
    17          3
    18          4
    19          8
    20          0
    24          1
    25          4
    26         18
    27         69
    28         50
    29         31
    30          1
    31          8
    32          4
    36          5
    37         33
    38         35
    39        125
    40         18
    41        159
    42         14
    43         69
    44         15
    45         51
    46          0
    47          2
    48          2
    49         20
    50        131
    51        243
    52         43
    53         65
    54         11
    55         76
    56          8
    57         18
    58          2
    59          4
    60          4
    61         10
    62         11
    63         22
    64          7
    65         61
    66         26
    67         52
    68          7
    69         50
    70          6
    71          7
    72          2
    73         14
    74         46
    75         28
    76         46
    77        708
    78         97
    79         83
    80         12
    81         35
    82         13
    83         15
    84          2
    85          4
    86          1
    87          2
    88          2
    89          7
    90          4
    91        111
    92         20
    93         72
    94         30
    95         36
    96         17
    97         13
    98          2
    99          1
   100          0
   101          2
   102          5
   103         15
   104         14
   105        999
   106         97
   107         36
   108         11
   109         39
   110          9
   111          7
   112          1
   113          1
   114          1
   115         31
   116         12
   117         17
   118          6
   119         27
   120         10
   121         65
   122        225
   123         59
   124          7
   125          2
   126          1
   127          9
   128         25
   129         22
   130          9
   131         18
   132          6
   133         21
   134         15
   135         33
   136         27
   137         14
   138          6
   139          6
   140          2
   141         17
   142         11
   143         16
   144          8
   145         22
   146         13
   147         33
   148         23
   149         29
   150         15
   151         22
   152         14
   153         10
   154          6
   155         14
   156          9
   157         18
   158         14
   159         25
   160         14
   161         30
   162         22
   163         17
   164          7
   165         18
   166          7
   167         10
   168          6
   169         11
   170          8
   171         18
   172         14
   173         21
   174         15
   175         20
   176         19
   177         22
   178         11
   179         11
   180          4
   181         11
   182          6
   183         13
   184          8
   185         18
   186         15
   187         20
   188         15
   189         20
   190         15
   191         13
   192          5
   193          6
   194          4
   195         14
   196          7
   197         17
   198         10
   199         18
   200          9
   201         13
   202         10
   203         11
   204          6
   205          4
   206          2
   207          6
   208          4
   209          9
   210          6
   211         14
   212          9
   213         17
   214          7
   215         23
   216          9
   217          6
   218          5
   219          4
   220          2
   221          2
   222          2
   223         16
   224          7
   225         22
   226         10
   227         13
   228          6
   229          6
   230          4
   231          4
   232          1
   233          2
   234          1
   235          4
   236          2
   237          9
   238          4
   239         11
   240          5
   241         22
   242         10
   243         12
   244          3
   245          1
   246          0
   247          1
   248          1
   249          4
   250          2
   251         15
   252          7
   253         18
   254         10
   255         15
   256         10
   257          4
   258          1
   259          1
   260          0
   261          1
   262          0
   263          1
   264          2
   265          7
   266         16
   267         11
   268         20
   269         21
   270          9
   271          6
   272          1
   273          0
   274          0
   275          0
   276          2
   277          2
   278          1
   279          9
   280          3
   281          9
   282          7
   283         18
   284         27
   285          9
   286          2
   287          0
   288          0
   289          0
   291          0
   292          1
   293          2
   294         22
   295         10
   296          6
   297          9
   298          2
   299         15
   300          4
   301          1
   302          0
   303          0
   304          0
   305          0
   306          0
   307          0
   308          0
   309          0
   310          1
   311          6
   312         39
   313         13
   314          4
   315          1
   316          0
   317          0
   319          0
   320          0
   321          0
   322          0
   323          0
   324          0
   326          0
   327          0
   328          0
   329          2
   330          1
   331          0
   333          0
   334          0
   335          0
   337          0
   338          0
   339          0
   345          0
   346          0
   347          1
   348          0
   351          0
   357          0
   358          0
   359          0
   360          0
   361          0
   363          0
   364          0
   365          0
   370          0
   371          0
   372          0
   373          0
   374          0
   375          1
   376          1
   377          0
   378          0
   386          0
   387          1
   388          1
   389          0
   390          1
   391          1
   392          1
   393          0
   398          0
   399          0
   400          0
   401          0
   403          1
   404          1
   405          1
   406          4
   407          0
   408          0
   415          0
   416          6
   417          2
   418          0
   419          0
   420          0
   421          1
   422          0
   430          0
   432          0
   433          0
   434         13
   435          2
   436          1
   525          0
   538          1
   539          0
   556          0