##TITLE=Library Entry 67305
##JCAMP-DX=Revision 4.10 
##DATA TYPE=MASS SPECTRUM
##SAMPLE DESCRIPTION=Chemical Concepts
##NAMES=HP
##CAS NAME=3,6-Methanonaphthalen-1,7-imine, decahydro-9-methyl-
##MOLFORM=C12H19N
##CAS REGISTRY NO=77497-05-3
##MP= -300
##BP= -300
##MW= 177
##$RETENTION INDEX=0
##$CONDENSED SPECTRUM=NO
##NPOINTS= 120
##XYDATA=(XY..XY) 1 
    26          1
    27         35
    28         15
    29         19
    30         10
    31          1
    38          2
    39         49
    40          8
    41         76
    42        141
    43         16
    44         44
    45          8
    50          3
    51         13
    52          8
    53         28
    54         14
    55         28
    56         15
    57         47
    58         10
    59          1
    60          5
    61          0
    62          1
    63          4
    64          1
    65         20
    66         11
    67         40
    68         18
    69          4
    70         20
    71          4
    72          0
    73          3
    74          1
    75          1
    76          1
    77         44
    78         15
    79         56
    80         24
    81        131
    82        154
    83        118
    84         15
    85          1
    87          1
    88          0
    89          2
    90          1
    91         45
    92         11
    93         24
    94        999
    95        305
    96         58
    97         15
    98          4
    99          1
   102          1
   103          4
   104          4
   105         13
   106          9
   107         18
   108         52
   109         39
   110          7
   111          1
   115          4
   116          2
   117          8
   118          4
   119          9
   120         50
   121         16
   122         22
   123          6
   124          0
   125          0
   126          0
   127          1
   128          1
   129          1
   130          2
   131          2
   132          5
   133          4
   134         66
   135         47
   136         16
   137          1
   138          1
   139          1
   143          0
   144          0
   145          2
   146          3
   147          1
   148         13
   149          5
   150          2
   151          0
   152          0
   153          0
   158          0
   160          1
   161          0
   162         20
   163          3
   174          0
   175          0
   176         59
   177        248
   178         32
   179          2