##TITLE=Library Entry 82831
##JCAMP-DX=Revision 4.10 
##DATA TYPE=MASS SPECTRUM
##SAMPLE DESCRIPTION=NIST Mass Spectrometry Data Center, 1990.
##NAMES=HP
##CAS NAME=Silane, diphenyl-
##MOLFORM=C12H12Si
##CAS REGISTRY NO=775-12-2
##MP= -300
##BP= -300
##MW= 184
##$RETENTION INDEX=1442
##$CONDENSED SPECTRUM=NO
##NPOINTS= 78
##XYDATA=(XY..XY) 1 
    14          2
    17          0
    26          4
    27         15
    28         14
    29         24
    30          4
    32          0
    37          3
    38          6
    39         25
    40          2
    43          2
    49          4
    50         43
    51         70
    52         32
    53        207
    54         35
    55         32
    62          2
    63          8
    65          8
    66         18
    67         14
    68          2
    73          2
    74          9
    75          7
    76          9
    77         75
    78         78
    79        124
    80         29
    81         29
    82          4
    89          3
    90          8
    91         36
    93          3
   101          8
   103         60
   105        695
   106        999
   107        157
   108         43
   109          2
   115          5
   117          5
   126          2
   127          3
   128          5
   129         22
   130          4
   131         13
   132          2
   141          2
   142          2
   143          2
   151          4
   152         12
   153         19
   154         14
   155         39
   156          8
   157          8
   158          2
   167          2
   169          2
   179         11
   180         38
   181        106
   182         47
   183        178
   184        471
   185         84
   186         23
   187          2