##TITLE=Library Entry 3913
##JCAMP-DX=Revision 4.10 
##DATA TYPE=MASS SPECTRUM
##SAMPLE DESCRIPTION=CARL DJERASSI DEPT OF CHEM STANFORD UNIV STANFORD CALIF
 94305
##NAMES=HP
##CAS NAME=2(1H)-Naphthalenone, octahydro-1,1,4a-trimethyl-, trans-
##MOLFORM=C13H22O
##CAS REGISTRY NO=775-54-2
##MP= -300
##BP= -300
##MW= 194
##$RETENTION INDEX=1320
##$CONDENSED SPECTRUM=NO
##NPOINTS= 77
##XYDATA=(XY..XY) 1 
    38          9
    39        369
    40        509
    41        999
    42        210
    43        330
    44         30
    50         19
    51         59
    52         39
    53        249
    54         70
    55        599
    56         79
    57        179
    58         19
    59          9
    65         70
    66         50
    67        540
    68        190
    69        420
    70        109
    71        100
    77        100
    78         30
    79        159
    80         50
    81        499
    82        260
    83        640
    84         79
    85         19
    86         59
    87          9
    91         79
    92          9
    93        149
    94         70
    95        450
    96        229
    97        159
    98        210
    99         89
   105         30
   106          9
   107         59
   108        680
   109        599
   110        389
   111         39
   112          9
   119          9
   121         30
   122         19
   123        129
   124         19
   125        140
   126          9
   133        100
   134          9
   135         39
   136         19
   137        450
   138         89
   139        129
   140          9
   149          9
   150          9
   151         79
   152         30
   161         39
   165          9
   176          9
   179         59
   194        529
   195         39