##TITLE=Library Entry 77123
##JCAMP-DX=Revision 4.10 
##DATA TYPE=MASS SPECTRUM
##SAMPLE DESCRIPTION=Japan AIST/NIMC Database- Spectrum MS-IW-7240
##NAMES=HP
##CAS NAME=Benzaldehyde chloroacetylhydrazone
##MOLFORM=C9H9ClN2O
##CAS REGISTRY NO=775-25-7
##MP= -300
##BP= -300
##MW= 196
##$RETENTION INDEX=0
##$CONDENSED SPECTRUM=NO
##NPOINTS= 76
##XYDATA=(XY..XY) 1 
    14          1
    26          1
    27          4
    28         10
    29          2
    30          2
    35          2
    36         28
    37          1
    38          9
    39         21
    40          4
    41          5
    42          7
    43         13
    44         30
    48          1
    49         19
    50         14
    51         42
    52          7
    53          1
    56          3
    59          7
    61          1
    62          8
    63         25
    64         13
    65         87
    66         10
    67          1
    74          3
    75          7
    76         17
    77        104
    78         15
    79          6
    80          1
    86          1
    87          1
    88          1
    89         55
    90         39
    91         25
    92        141
    93         47
    94          5
    95          4
    96          1
   102          8
   103        257
   104        999
   105        115
   106         12
   107          1
   116          2
   117          7
   118         22
   119        104
   120         36
   121          3
   131          2
   132          4
   133          2
   135          1
   143          6
   144          5
   147          7
   159          1
   160         12
   161          4
   195          1
   196        103
   197         16
   198         34
   199          5