##TITLE=Library Entry 59030
##JCAMP-DX=Revision 4.10 
##DATA TYPE=MASS SPECTRUM
##SAMPLE DESCRIPTION=Chuck Anderson, Aldrich Chemical Co.
##NAMES=HP
##CAS NAME=1-Benzyl-3-hydroxypyrrolidine
##MOLFORM=C11H15NO
##CAS REGISTRY NO=775-15-5
##MP= -300
##BP= -300
##MW= 177
##$RETENTION INDEX=0
##$CONDENSED SPECTRUM=NO
##NPOINTS= 63
##XYDATA=(XY..XY) 1 
    26         12
    27         36
    28         34
    29         23
    30         12
    31          7
    39         57
    40          7
    41         44
    42        483
    43         29
    44         25
    50         13
    51         35
    52          9
    53          6
    54          2
    55         19
    56         19
    57         12
    58          9
    59          1
    62          8
    63         37
    64         11
    65        172
    66         12
    68          8
    70          4
    76          3
    77         29
    78         10
    79          5
    82          6
    86        116
    87          5
    89         43
    90         10
    91        999
    92        101
    93          2
   100         91
   101          4
   103          3
   104         27
   105         13
   117          7
   118         22
   119         19
   120         10
   128          2
   130          5
   132        149
   133        115
   134         12
   146         36
   147         13
   158         81
   159         13
   175          1
   176         61
   177        124
   178         14