##TITLE=Library Entry 58992
##JCAMP-DX=Revision 4.10 
##DATA TYPE=MASS SPECTRUM
##SAMPLE DESCRIPTION=G.GERCKEN UNIV. HAMBURG, 2 HAMBURG 13, GERMANY, F.R.G.
##NAMES=HP
##CAS NAME=9,12,15-Octadecatrienoic acid, phenylmethyl ester, (Z,Z,Z)-
##MOLFORM=C25H36O2
##CAS REGISTRY NO=77509-02-5
##MP= -300
##BP= -300
##MW= 368
##$RETENTION INDEX=2738
##$CONDENSED SPECTRUM=NO
##NPOINTS= 87
##XYDATA=(XY..XY) 1 
    26         22
    27         56
    29         45
    31         11
    36         39
    37         11
    38         17
    39        111
    40         17
    41        211
    42         33
    43         89
    44         39
    45         22
    50         22
    51         33
    52         22
    53         33
    54         33
    55        167
    56         22
    57         67
    58         11
    60         11
    61         11
    62         11
    63         56
    64         17
    65         95
    66         22
    67        178
    68         33
    69         83
    70         17
    71         17
    73         22
    74         11
    77         61
    78         45
    79        211
    80         89
    81        100
    82         22
    83         45
    85         17
    89         45
    90         33
    91        999
    92        100
    93        122
    94         22
    95        111
    96         22
    97         28
    98         11
   105         45
   106         11
   107         67
   108         89
   109         33
   111         11
   115         11
   117         22
   118         33
   121         56
   123         17
   125         11
   126         67
   127         11
   128         33
   129         11
   131         22
   133         22
   135         45
   136         22
   143         11
   145         11
   147         17
   149         22
   159         11
   161         11
   185         11
   207         11
   221         22
   222         11
   277         56
   278         17