##TITLE=Library Entry 70621
##JCAMP-DX=Revision 4.10 
##DATA TYPE=MASS SPECTRUM
##SAMPLE DESCRIPTION=NIST Mass Spectrometry Data Center, 1998.
##NAMES=HP
##CAS NAME=Chlorthiophos II
##MOLFORM=C11H15Cl2O3PS2
##CAS REGISTRY NO=77503-29-8
##MP= -300
##BP= -300
##MW= 360
##$RETENTION INDEX=0
##$CONDENSED SPECTRUM=NO
##NPOINTS= 244
##XYDATA=(XY..XY) 1 
    15          5
    26          6
    27         79
    28         12
    29        230
    30          6
    31          5
    35          2
    36          3
    38          2
    39          4
    42          2
    43         21
    45        452
    46         21
    47         91
    48          8
    49          5
    50         14
    51          6
    53          7
    57          3
    58          7
    59          9
    60         10
    61         23
    62         37
    63         74
    64          3
    65        254
    69         42
    70          4
    71          6
    72          8
    73         22
    74         18
    75         23
    76          5
    77         11
    78          3
    79         90
    80         21
    81         87
    82         17
    83         24
    84          4
    85         19
    86          4
    87          5
    89          4
    90          2
    91         27
    92          5
    93        151
    94         32
    95         28
    96         23
    97        999
    98         13
    99         84
   100          4
   101         11
   103         11
   105         10
   106         21
   107         20
   108         53
   109        137
   110         33
   111        107
   112         14
   113         23
   114          6
   115         11
   116          6
   117          3
   118          4
   119          4
   120          6
   121         45
   122          5
   123          8
   124          2
   125        304
   126         11
   127         21
   128         11
   129        195
   130         23
   131         75
   132          9
   133         52
   134          5
   135         33
   136          5
   137         11
   138         41
   139         38
   140          8
   141         18
   142         21
   143         28
   144         58
   145         27
   146         46
   147          9
   148         15
   149          2
   151          2
   153         27
   154          8
   155         12
   156         11
   157          6
   158          6
   159          9
   160          8
   161         12
   162         21
   163         16
   164         84
   165         88
   166         55
   167         58
   168         15
   169         16
   170          3
   171         16
   172         30
   173         18
   174         23
   175         22
   176         38
   177          9
   178         31
   179         20
   180          6
   181          5
   182          1
   187         10
   188         12
   189         25
   190         17
   191         21
   192         11
   193        147
   194         14
   195         98
   196         13
   197         22
   198          4
   199          2
   203         13
   204          5
   205         42
   206          9
   207         72
   208        201
   209         76
   210        152
   211         36
   212         24
   213          6
   219          6
   220          4
   221         82
   222        916
   223        163
   224        698
   225        106
   226        173
   227         28
   228         19
   229          3
   236          3
   237          5
   238          2
   239         52
   240         40
   241         43
   242         25
   243         12
   244          5
   249          4
   250          4
   253          4
   254          8
   255         33
   256         84
   257        593
   258        104
   259        430
   260         47
   261         84
   262          8
   263          3
   268          6
   269          9
   270          5
   271         26
   272         24
   273         16
   274         21
   275          8
   276          3
   278          3
   283         11
   284          3
   285        127
   286         15
   287        135
   288         23
   289        353
   290         31
   291        223
   292         22
   293         52
   294          3
   295          3
   303         14
   305         13
   307          2
   313        170
   314         24
   315        145
   316         18
   317         93
   318         11
   319         48
   320          4
   321          9
   331          2
   345         67
   346          9
   347         58
   348          9
   349         14
   360        227
   361         27
   362        167
   363         22
   364         35
   365          4
   366          3