##TITLE=Library Entry 69861
##JCAMP-DX=Revision 4.10 
##DATA TYPE=MASS SPECTRUM
##SAMPLE DESCRIPTION=R.E.ARDREY HOME OFFICE, RES. EST., ALDERMASTON, BERKS.,
 U.K.
##NAMES=HP
##CAS NAME=Phosphetane, 1-bromo-2,2,3,4,4-pentamethyl-, 1-sulfide
##MOLFORM=C8H16BrPS
##CAS REGISTRY NO=77508-87-3
##MP= -300
##BP= -300
##MW= 254
##$RETENTION INDEX=0
##$CONDENSED SPECTRUM=NO
##NPOINTS= 58
##XYDATA=(XY..XY) 1 
    29        180
    39        110
    40         60
    41        670
    42        180
    43        280
    47         10
    55        890
    57        400
    63        380
    65         40
    67        110
    69        890
    70        560
    71        140
    72         40
    73         80
    74         30
    75         20
    76         20
    77         30
    79         30
    80         40
    81         60
    82         50
    83         70
    84         30
    85         20
    87         20
    95        150
    97        999
   105        450
   110         90
   111        420
   112        280
   119         20
   121        140
   123        140
   141        100
   175        170
   184        300
   186        330
   188         80
   198         20
   200         20
   210         20
   212         50
   214         50
   221         10
   222         10
   223         20
   224         10
   225         10
   227         10
   239         50
   241         50
   254        320
   256        320