##TITLE=Library Entry 51043
##JCAMP-DX=Revision 4.10 
##DATA TYPE=MASS SPECTRUM
##SAMPLE DESCRIPTION=G.RUCKER WILHELMS-UNIV., MUNSTER, GERMANY, F.R.G.
##NAMES=HP
##CAS NAME=2,6,10-Cyclotetradecatrien-1-one, 3,7,11-trimethyl-14-(1-methylet
hyl)-
##MOLFORM=C20H32O
##CAS REGISTRY NO=77508-82-8
##MP= -300
##BP= -300
##MW= 288
##$RETENTION INDEX=0
##$CONDENSED SPECTRUM=NO
##NPOINTS= 29
##XYDATA=(XY..XY) 1 
    41        999
    43        400
    53        490
    55        970
    67        670
    68        680
    69        680
    77        240
    79        370
    81        980
    82        999
    91        250
    93        390
    95        380
    97        210
   107        310
   109        310
   121        270
   123        250
   139        190
   148        300
   149        240
   177        150
   203         50
   205         60
   207         80
   245         50
   273         50
   288        210