##TITLE=Library Entry 79728
##JCAMP-DX=Revision 4.10 
##DATA TYPE=MASS SPECTRUM
##SAMPLE DESCRIPTION=A.SELVA INST. OF CHEMISTRY, MILAN POLYTECH., MILAN, ITA
LY
##NAMES=HP
##CAS NAME=Methanone, (4,5-dihydro-3,5-diphenyl-4-isoxazolyl)phenyl-
##MOLFORM=C22H17NO2
##CAS REGISTRY NO=77508-74-8
##MP= -300
##BP= -300
##MW= 327
##$RETENTION INDEX=0
##$CONDENSED SPECTRUM=NO
##NPOINTS= 14
##XYDATA=(XY..XY) 1 
    51         30
    76         10
    77        240
    78         20
    89         10
   103         20
   105        999
   106         30
   206         10
   207         10
   222         10
   223         20
   224         40
   327         20