##TITLE=Library Entry 68392
##JCAMP-DX=Revision 4.10 
##DATA TYPE=MASS SPECTRUM
##SAMPLE DESCRIPTION=A.SELVA INST. OF CHEMISTRY, MILAN POLYTECH., MILAN, ITA
LY
##NAMES=HP
##CAS NAME=Methanone, (4,5-dihydro-3,5-diphenyl-4-isoxazolyl)-2-furanyl-
##MOLFORM=C20H15NO3
##CAS REGISTRY NO=77508-76-0
##MP= -300
##BP= -300
##MW= 317
##$RETENTION INDEX=0
##$CONDENSED SPECTRUM=NO
##NPOINTS= 37
##XYDATA=(XY..XY) 1 
    51         50
    57         10
    63         20
    65         10
    67         20
    68         20
    75         20
    76        160
    77         20
    89         20
    91         40
    95        999
    96         70
   102         20
   103         50
   105        580
   106         70
   115         20
   128         10
   131         10
   137         10
   141         10
   144         10
   165         10
   186         40
   189         20
   191         20
   197         50
   204         10
   205         10
   206         50
   212         10
   213         10
   214        220
   215         30
   222         40
   317         10