##TITLE=Library Entry 58509
##JCAMP-DX=Revision 4.10 
##DATA TYPE=MASS SPECTRUM
##SAMPLE DESCRIPTION=R.E.ARDREY HOME OFFICE, RES. EST., ALDERMASTON, BERKS.,
 U.K.
##NAMES=HP
##CAS NAME=Phosphetane, 2,2,3,4,4-pentamethyl-1-(methylthio)-, 1-oxide
##MOLFORM=C9H19OPS
##CAS REGISTRY NO=77508-91-9
##MP= -300
##BP= -300
##MW= 206
##$RETENTION INDEX=0
##$CONDENSED SPECTRUM=NO
##NPOINTS= 31
##XYDATA=(XY..XY) 1 
    29         60
    39         60
    41        420
    43        110
    47         90
    55        450
    57        110
    63         60
    69        220
    70        120
    78        160
    89        999
    90         90
    91         90
    95        100
    97        530
   110         30
   111         70
   112         80
   117         40
   121         80
   136        250
   137         50
   138        450
   143         30
   157         20
   159         30
   160         30
   164        330
   191        190
   206        360