##TITLE=Library Entry 63800
##JCAMP-DX=Revision 4.10 
##DATA TYPE=MASS SPECTRUM
##SAMPLE DESCRIPTION=A.SELVA INST. OF CHEMISTRY, MILAN POLYTECH., MILAN, ITA
LY
##NAMES=HP
##CAS NAME=Ethanone, 1-(4,5-dihydro-3,4-diphenyl-5-isoxazolyl)-
##MOLFORM=C17H15NO2
##CAS REGISTRY NO=77508-80-6
##MP= -300
##BP= -300
##MW= 265
##$RETENTION INDEX=0
##$CONDENSED SPECTRUM=NO
##NPOINTS= 37
##XYDATA=(XY..XY) 1 
    43        170
    50         20
    51         80
    63         50
    64         20
    65         90
    76         30
    77        130
    78         20
    89        120
    90         90
    91        999
    92         80
   103         80
   104         50
   105         20
   115         20
   116         60
   117         20
   118         20
   119        120
   120         50
   131         30
   145         20
   152         20
   165         50
   166         20
   167         40
   192         20
   193        150
   194        420
   195         80
   221         30
   222        590
   223        100
   265        110
   266         20