##TITLE=Library Entry 97264
##JCAMP-DX=Revision 4.10 
##DATA TYPE=MASS SPECTRUM
##SAMPLE DESCRIPTION=R.E.ARDREY HOME OFFICE, RES. EST., ALDERMASTON, BERKS.,
 U.K.
##NAMES=HP
##CAS NAME=Phosphetane, 2,2,3,4,4-pentamethyl-1-(propylthio)-, 1-oxide
##MOLFORM=C11H23OPS
##CAS REGISTRY NO=77508-93-1
##MP= -300
##BP= -300
##MW= 234
##$RETENTION INDEX=0
##$CONDENSED SPECTRUM=NO
##NPOINTS= 59
##XYDATA=(XY..XY) 1 
    29         80
    39         90
    41        500
    42        160
    43        380
    47        110
    53         50
    55        600
    56         50
    57        190
    59         80
    63         90
    69        380
    70        240
    75        190
    89        140
    90        200
    95         60
    97        670
    98        120
   104         80
   106         90
   110        140
   111        400
   112        110
   117        999
   118        130
   119         80
   121         60
   122        560
   123        210
   124        220
   125         60
   126         40
   135         30
   136         20
   141         20
   143         20
   145         20
   149         20
   150         70
   157         30
   159         30
   160         70
   164        200
   165         50
   166         40
   173         30
   177         70
   178         20
   179         10
   191         90
   192        360
   193         90
   194         40
   195         10
   205         10
   219         60
   234         60