##TITLE=Library Entry 7728
##JCAMP-DX=Revision 4.10 
##DATA TYPE=MASS SPECTRUM
##SAMPLE DESCRIPTION=DKFZ HD SORG, HEIDELBERG, GERMANY, F.R.G.
##NAMES=HP
##CAS NAME=Dodecanoic acid, 1a,2,5,5a,6,9,10,10a-octahydro-5a-hydroxy-4-(hyd
roxymethyl)-1,1,7,9-tetramethyl-6,11-dioxo-1H-2,8a-methanocyclopenta[a]cyclo
propa[e]cyclodecen-5-yl ester, [1aR-(1a.alpha.,2.alpha.,5.beta.,5a.beta.,8a.
alpha.,9.alpha.,10a.alpha.)]-
##MOLFORM=C32H48O6
##CAS REGISTRY NO=77508-68-0
##MP= -300
##BP= -300
##MW= 528
##$RETENTION INDEX=0
##$CONDENSED SPECTRUM=NO
##NPOINTS= 499
##XYDATA=(XY..XY) 1 
    12          1
    15          7
    17          7
    18         17
    25          2
    26         11
    27         72
    28         22
    29        166
    30          7
    31         18
    35          2
    36         17
    37          3
    38          8
    39        100
    40         22
    41        555
    42        111
    43        999
    44         94
    45         38
    46          4
    47          2
    48          1
    49          1
    50         10
    51         26
    52         21
    53        111
    54         44
    55        644
    56        133
    57        999
    58         55
    59         66
    60        166
    61         33
    62          4
    63         11
    64          5
    65        111
    66         33
    67        255
    68         66
    69        500
    70        122
    71        505
    72         41
    73        200
    74         24
    75          9
    76          7
    77        144
    78         44
    79        222
    80         72
    81        277
    82        111
    83        294
    84         94
    85        338
    86         29
    87         44
    88          8
    89         15
    90          7
    91        472
    92         77
    93        244
    94         83
    95        355
    96        161
    97        261
    98        100
    99        105
   100         12
   101         40
   102         15
   103         41
   104         33
   105        183
   106         66
   107        311
   108         94
   109        355
   110         77
   111        116
   112         50
   113         55
   114         18
   115        116
   116         40
   117         72
   118         35
   119        227
   120         88
   121        238
   122        400
   123        250
   124         55
   125         66
   126        150
   127         50
   128         72
   129        150
   130         41
   131         94
   132         44
   133        133
   134        122
   135        338
   136        144
   137        288
   138        533
   139        411
   140         55
   141         61
   142         44
   143         77
   144         44
   145        338
   146         72
   147        238
   148        133
   149        238
   150        116
   151        205
   152        150
   153         72
   154         50
   155         61
   156         31
   157        116
   158         66
   159        138
   160         83
   161        227
   162        166
   163        205
   164        144
   165        127
   166        105
   167        272
   168         61
   169         61
   170         41
   171        105
   172         66
   173        211
   174        111
   175        166
   176        111
   177        166
   178        105
   179        133
   180         61
   181         77
   182         44
   183        311
   184         61
   185        105
   186         94
   187        155
   188        122
   189        200
   190        133
   191        205
   192        133
   193         83
   194         66
   195         72
   196         50
   197        127
   198         72
   199        127
   200        272
   201        200
   202        100
   203        155
   204        155
   205        116
   206        177
   207         88
   208         41
   209         94
   210         55
   211        150
   212        116
   213        155
   214        333
   215        150
   216        161
   217        188
   218        150
   219         83
   220         55
   221         55
   222         44
   223         88
   224         83
   225        127
   226         88
   227        233
   228        116
   229        205
   230         72
   231         83
   232         72
   233         66
   234         41
   235         61
   236         32
   237         94
   238        122
   239        233
   240        111
   241        205
   242        127
   243        177
   244         72
   245         50
   246         44
   247         27
   248         17
   249         61
   250         36
   251         94
   252         83
   253        150
   254        111
   255        333
   256        150
   257        355
   258        105
   259        105
   260         35
   261         19
   262         17
   263         31
   264         44
   265        100
   266         50
   267        288
   268        105
   269        316
   270        255
   271        100
   272         66
   273         44
   274         16
   275         15
   276          7
   277         55
   278         18
   279         66
   280        155
   281        138
   282        222
   283        250
   284         77
   285        161
   286         94
   287         44
   288         24
   289         11
   290          6
   291         14
   292        238
   293         66
   294         22
   295        144
   296         38
   297        383
   298        483
   299        233
   300        238
   301         72
   302         15
   303         14
   304          5
   305          4
   306          4
   307          5
   308         12
   309         33
   310        277
   311        100
   312         35
   313         83
   314         24
   315         83
   316        177
   317         38
   318         16
   319         12
   320         22
   321         44
   322         12
   323          7
   324          2
   325          3
   326         11
   327         44
   328        383
   329        100
   330         26
   331         16
   332          5
   333          6
   334          8
   335          7
   336          3
   337          5
   338          2
   339          2
   340          2
   341          3
   342          3
   343          5
   344         13
   345         25
   346        127
   347         30
   348          7
   349         23
   350          9
   351          5
   352          2
   353          2
   354          2
   355          3
   356          2
   357          3
   358          2
   359          3
   360          3
   361         15
   362          6
   363          5
   364          4
   365          5
   366          1
   367          2
   368          2
   369          3
   370          4
   371          4
   372          4
   373          6
   374          5
   375          3
   376          2
   377          3
   378          3
   379          4
   380          2
   381          2
   382          2
   383         16
   384          6
   385          5
   386          3
   387          5
   388          3
   389         12
   390          5
   391          4
   392          3
   393          4
   394          2
   395          3
   396          6
   397          7
   398          3
   399          5
   400          5
   401          5
   402          5
   403          3
   404          2
   405          4
   406          5
   407          5
   408          2
   409          4
   410          2
   411          3
   412          3
   413          5
   414          4
   415          4
   416          4
   417          4
   418          2
   419          3
   420          3
   421          3
   422          2
   423          2
   424          2
   425          3
   426          6
   427          6
   428          3
   429          3
   430          2
   431          6
   432          3
   433          2
   434          3
   435          3
   436          3
   437          2
   438          3
   439          6
   440          3
   441          3
   442          2
   443          2
   444          1
   445          4
   446          3
   447          2
   448          2
   449          4
   450          3
   451          4
   452          3
   453          4
   454          3
   455          4
   456          3
   457          2
   458          1
   459          5
   460          5
   461          3
   462          4
   463          5
   464          5
   465          7
   466          4
   467          8
   468          4
   469          7
   470          6
   471          3
   472          2
   473          3
   474         44
   475         17
   476          5
   477          5
   478          2
   479         21
   480         15
   481         11
   482         41
   483         13
   484          5
   485         29
   486         10
   487          3
   488          1
   489          1
   490          2
   491          7
   492          7
   493          5
   494          2
   495          5
   496          3
   497         88
   498         61
   499         18
   500          6
   501          2
   502          2
   503          3
   504          2
   505          4
   506          2
   507          1
   508          2
   509          2
   510         37
   511         16
   512          6
   513          4
   514          2
   524          1
   525          1
   526          2
   527          2
   528         55
   529         16
   530          4
   531          2