##TITLE=Library Entry 76580
##JCAMP-DX=Revision 4.10 
##DATA TYPE=MASS SPECTRUM
##SAMPLE DESCRIPTION=R.E.ARDREY HOME OFFICE, RES. EST., ALDERMASTON, BERKS.,
 U.K.
##NAMES=HP
##CAS NAME=Phosphetane, 1-(ethylthio)-2,2,3,4,4-pentamethyl-, 1-oxide
##MOLFORM=C10H21OPS
##CAS REGISTRY NO=77508-92-0
##MP= -300
##BP= -300
##MW= 220
##$RETENTION INDEX=0
##$CONDENSED SPECTRUM=NO
##NPOINTS= 60
##XYDATA=(XY..XY) 1 
    29         80
    39         30
    40         10
    41        210
    42         50
    43         80
    47         60
    55        280
    57        110
    59         30
    61         10
    63         80
    67         30
    69        210
    70         90
    71         20
    72         20
    73         20
    74         10
    75         60
    79         10
    80         30
    81         40
    83         20
    85         10
    89         70
    90         80
    92        130
    95         30
    96         20
    97        420
   103        999
   104         90
   110         30
   111         80
   112         70
   117         20
   118         30
   119         70
   120         50
   121         20
   122         80
   143         20
   145         10
   150        190
   151         40
   152         90
   157         20
   159         20
   160         60
   164         10
   173         20
   177         20
   178         20
   191        120
   192         90
   193         20
   205         80
   219         10
   220        160