##TITLE=Library Entry 24512
##JCAMP-DX=Revision 4.10 
##DATA TYPE=MASS SPECTRUM
##SAMPLE DESCRIPTION=DKFZ HD SORG, HEIDELBERG, GERMANY, F.R.G.
##NAMES=HP
##CAS NAME=Hexadecanoic acid, 1a,2,5,5a,6,9,10,10a-octahydro-5a-hydroxy-4-(h
ydroxymethyl)-1,1,7,9-tetramethyl-6,11-dioxo-1H-2,8a-methanocyclopenta[a]cyc
lopropa[e]cyclodecen-5-yl ester, [1aR-(1a.alpha.,2.alpha.,5.beta.,5a.beta.,8
a.alpha.,9.alpha.,10a.alpha.)]
##MOLFORM=C36H56O6
##CAS REGISTRY NO=77508-69-1
##MP= -300
##BP= -300
##MW= 584
##$RETENTION INDEX=0
##$CONDENSED SPECTRUM=NO
##NPOINTS= 556
##XYDATA=(XY..XY) 1 
    12          1
    15         10
    17         10
    18         28
    19          1
    26         14
    27         79
    28         22
    29        164
    30          8
    31         20
    32          1
    35          3
    36         30
    37          3
    38         12
    39         94
    40         23
    41        461
    42         92
    43        717
    44        158
    45         51
    46          4
    47          2
    48          1
    49          2
    50         14
    51         38
    52         41
    53         94
    54         51
    55        564
    56        189
    57        999
    58         53
    59         97
    60        230
    61        130
    62          7
    63         13
    64          7
    65         58
    66         58
    67         28
    68        212
    69         79
    70        461
    71        171
    72        589
    73         56
    74        538
    75         58
    76         14
    77         12
    78        128
    79         38
    80        202
    81         48
    82        230
    83        141
    84        358
    85        135
    86        435
    87         33
    88        141
    89         25
    90         23
    91          5
    92        223
    93         53
    94        141
    95         56
    96        215
    97        200
    98        333
    99        156
   100        169
   101         17
   102         79
   103         33
   104         35
   105         25
   106        120
   107         43
   108        148
   109         56
   110        666
   111        153
   112        207
   113         74
   114        120
   115         17
   116        148
   117         64
   118         56
   119         20
   120         92
   121         43
   122        164
   123        117
   124        107
   125         51
   126        120
   127         76
   128         97
   129         56
   130        410
   131         58
   132         71
   133         33
   134         87
   135         69
   136        197
   137         79
   138        217
   139        207
   140        135
   141         38
   142         69
   143         25
   144        102
   145         33
   146         82
   147         43
   148        120
   149         53
   150        148
   151         51
   152         76
   153         58
   154         51
   155         30
   156         56
   157         20
   158        146
   159         53
   160         87
   161         41
   162         94
   163         66
   164        105
   165         58
   166         94
   167         43
   168         76
   169         30
   170         38
   171         17
   172        146
   173         41
   174         71
   175         43
   176         84
   177         53
   178         79
   179         48
   180         69
   181         25
   182         35
   183         25
   184         51
   185         23
   186        153
   187         48
   188         64
   189         46
   190         82
   191         79
   192         74
   193         58
   194         43
   195         33
   196         33
   197         28
   198         74
   199         30
   200         97
   201         33
   202         84
   203         46
   204         69
   205         48
   206         61
   207         46
   208         46
   209         17
   210         41
   211         20
   212         66
   213         64
   214        235
   215         76
   216         61
   217         48
   218         64
   219         48
   220         61
   221         74
   222         41
   223         23
   224         41
   225         28
   226         53
   227         33
   228        100
   229         46
   230         64
   231         33
   232         56
   233         51
   234         38
   235         25
   236         25
   237         17
   238         38
   239         41
   240        102
   241         46
   242         84
   243         51
   244         97
   245         38
   246         25
   247         17
   248         17
   249          9
   250         30
   251         17
   252         33
   253         28
   254         56
   255         48
   256         82
   257        307
   258         97
   259         35
   260         48
   261         17
   262         12
   263          8
   264         15
   265         23
   266         41
   267         20
   268        105
   269         43
   270         76
   271         56
   272         51
   273         41
   274         23
   275         10
   276          8
   277          5
   278         23
   279         10
   280         25
   281         38
   282         51
   283         84
   284         76
   285         51
   286         76
   287         33
   288         20
   289         10
   290          5
   291          5
   292          6
   293         28
   294         17
   295          9
   296         56
   297         18
   298         79
   299         97
   300         56
   301         84
   302         25
   303          9
   304          6
   305          4
   306          4
   307          3
   308          5
   309          4
   310         12
   311        135
   312         56
   313         20
   314         43
   315         17
   316         20
   317         30
   318         13
   319          6
   320          4
   321          2
   322          4
   323          4
   324          7
   325          2
   326          4
   327          8
   328         15
   329        210
   330         61
   331         20
   332          8
   333          4
   334          6
   335          3
   336          4
   337          4
   338          6
   339          3
   340          3
   341          3
   342          3
   343          4
   344          6
   345          8
   346         15
   347         41
   348         11
   349          5
   350          9
   351          5
   352          7
   353          2
   354          4
   355          3
   356          4
   357          2
   358          4
   359          4
   360          4
   361          3
   362          4
   363          3
   364          4
   365          4
   366          6
   367          2
   368          4
   369          5
   370          4
   371          3
   372          4
   373          3
   374          3
   375          2
   376          4
   377          5
   378         12
   379          5
   380          6
   381          3
   382          4
   383          3
   384          3
   385          3
   386          4
   387          4
   388          3
   389          2
   390          3
   391          4
   392          4
   393          3
   394          6
   395          3
   396          3
   397          6
   398          5
   399          3
   400          4
   401          4
   402          4
   403          2
   404          3
   405          3
   406          6
   407          4
   408          6
   409          2
   410          3
   411          3
   412          3
   413          3
   414          3
   415          5
   416          4
   417          2
   418          5
   419          4
   420          3
   421          3
   422          4
   423          2
   424          2
   425          3
   426          3
   427          3
   428          3
   429          3
   430          2
   431          3
   432          3
   433          3
   434          3
   435          3
   436          4
   437          2
   438          2
   439          2
   440          5
   441          3
   442          2
   443          3
   444          3
   445          2
   446          3
   447          4
   448          3
   449          4
   450          5
   451          2
   452          2
   453          2
   454          2
   455          3
   456          2
   457          3
   458          3
   459          5
   460          3
   461          3
   462          3
   463          3
   464          5
   465          3
   466          2
   467          2
   468          2
   469          2
   470          2
   471          3
   472          3
   473          2
   474          2
   475          3
   476          3
   477          3
   478          5
   479          3
   480          2
   481          2
   482          2
   483          3
   484          2
   485          4
   486          2
   487          1
   488          2
   489          2
   490          2
   491          3
   492          5
   493          3
   494          2
   495          2
   496          2
   497          2
   498          2
   499          3
   500          2
   501          1
   502          1
   503          2
   504          2
   505          3
   506          4
   507          2
   508          2
   509          2
   510          2
   511          2
   512          2
   513          4
   514          2
   515          1
   516          1
   517          2
   518          2
   519          3
   520          5
   521          3
   522          3
   523          3
   524          3
   525          3
   526          3
   527          3
   528          2
   529          1
   530          1
   531          1
   532          1
   533          3
   534          3
   535          3
   536          7
   537          5
   538          3
   539          8
   540          4
   541          4
   542         10
   543          5
   544          1
   545          1
   546          1
   547          2
   548          3
   549          3
   550          2
   551          2
   552          2
   553          2
   554         16
   555         15
   556          5
   557          2
   558          1
   559          1
   560          1
   561          1
   562          2
   563          1
   564          1
   565          1
   566          1
   567         15
   568          7
   569          3
   570          2
   581          1
   582          1
   583          1
   584          1
   585         13
   586          6
   587          1
   588          1