##TITLE=Library Entry 63799
##JCAMP-DX=Revision 4.10 
##DATA TYPE=MASS SPECTRUM
##SAMPLE DESCRIPTION=A.SELVA INST. OF CHEMISTRY, MILAN POLYTECH., MILAN, ITA
LY
##NAMES=HP
##CAS NAME=1-Propanone, 1-(4,5-dihydro-3,4-diphenyl-5-isoxazolyl)-
##MOLFORM=C18H17NO2
##CAS REGISTRY NO=77508-77-1
##MP= -300
##BP= -300
##MW= 279
##$RETENTION INDEX=0
##$CONDENSED SPECTRUM=NO
##NPOINTS= 42
##XYDATA=(XY..XY) 1 
    27         30
    29        180
    39         40
    50         20
    51         90
    52         20
    57        330
    63         40
    64         20
    65         90
    75         20
    76         40
    77        150
    78         20
    89        110
    90         70
    91        999
    92         80
   103        120
   104         50
   105         20
   115         20
   116         50
   117         20
   118         20
   119        140
   120        100
   131         60
   165         50
   166         20
   167         40
   176         20
   178         20
   192         20
   193        160
   194        570
   195        120
   221         80
   222        710
   223        130
   279        150
   280         30