##TITLE=Library Entry 8554
##JCAMP-DX=Revision 4.10 
##DATA TYPE=MASS SPECTRUM
##SAMPLE DESCRIPTION=DKFZ HD FUERSTENBERGER, HEIDELBERG, GERMANY, F.R.G.
##NAMES=HP
##CAS NAME=1H-Cyclopropa[3,4]benz[1,2-e]azulene-5,7b,9,9a-tetrol, 1a,1b,4,4a
,5,7a,8,9-octahydro-3-(hydroxymethyl)-1,1,6,8-tetramethyl-, 9,9a-diacetate,
 [1aR-(1a.alpha.,1b.beta.,4a.beta.,5.beta.,7a.alpha.,7b.alpha.,8.alpha.,9.be
ta.,9a.alpha.)]-
##MOLFORM=C24H34O7
##CAS REGISTRY NO=77508-65-7
##MP= -300
##BP= -300
##MW= 434
##$RETENTION INDEX=0
##$CONDENSED SPECTRUM=NO
##NPOINTS= 413
##XYDATA=(XY..XY) 1 
    14          0
    15         10
    16          0
    17          1
    18          3
    25          0
    26          2
    27         23
    28         19
    29         50
    30          1
    31         19
    32          1
    33          0
    36          0
    37          1
    38          2
    39         49
    40         10
    41         95
    42         20
    43        999
    44         27
    45         26
    46          0
    47          2
    49          0
    50          3
    51         16
    52          9
    53         73
    54         10
    55        163
    56         17
    57         84
    58         12
    59         24
    60         35
    61         16
    62          1
    63          8
    64          3
    65         56
    66         26
    67        143
    68         17
    69        315
    70         26
    71         39
    72          5
    73         12
    74          3
    75          3
    76          6
    77        153
    78         43
    79        219
    80         82
    81        138
    82         24
    83        260
    84         21
    85         39
    86         12
    87          9
    88          5
    89          9
    90          4
    91        260
    92         53
    93        260
    94         47
    95        232
    96        146
    97         57
    98         10
    99          9
   100          3
   101         23
   102          8
   103         32
   104         19
   105        191
   106         49
   107        246
   108         52
   109        139
   110         26
   111         35
   112         45
   113         16
   114         32
   115         68
   116         32
   117         89
   118         36
   119        164
   120         72
   121        219
   122        146
   123         98
   124         34
   125        112
   126         13
   127         27
   128         65
   129         97
   130         56
   131        246
   132         72
   133        160
   134         84
   135        105
   136        120
   137         72
   138         43
   139         28
   140         12
   141         49
   142         46
   143        161
   144         72
   145        164
   146         53
   147        128
   148        115
   149        153
   150         36
   151         54
   152         45
   153         47
   154         20
   155         53
   156         46
   157        153
   158         61
   159        164
   160         79
   161        150
   162         65
   163         52
   164         30
   165         67
   166         50
   167         47
   168         19
   169         50
   170         57
   171         86
   172         87
   173        164
   174        147
   175        124
   176         47
   177         54
   178         46
   179         49
   180         23
   181         49
   182         27
   183         83
   184         35
   185         89
   186         41
   187         79
   188         47
   189         72
   190         63
   191         60
   192         34
   193         41
   194         26
   195         61
   196         34
   197         63
   198         39
   199        112
   200        191
   201        152
   202         39
   203         54
   204         26
   205         34
   206         20
   207         43
   208         46
   209         54
   210         31
   211         61
   212         32
   213        127
   214         53
   215         45
   216         36
   217         80
   218         42
   219         45
   220         21
   221         34
   222         21
   223         46
   224         20
   225         64
   226         30
   227         64
   228         46
   229         38
   230         27
   231         35
   232         16
   233         24
   234         17
   235         43
   236         16
   237         35
   238         19
   239         45
   240         35
   241         41
   242         17
   243         43
   244         20
   245        219
   246         46
   247         34
   248         35
   249         38
   250         21
   251         36
   252         17
   253         63
   254         21
   255         35
   256         19
   257         21
   258         16
   259         17
   260         20
   261         23
   262         10
   263         46
   264         15
   265         54
   266         32
   267         41
   268         50
   269         27
   270         10
   271         43
   272         13
   273         13
   274          6
   275          7
   276         30
   277         30
   278         76
   279         78
   280         20
   281         54
   282         19
   283         42
   284         20
   285         36
   286         24
   287         17
   288          7
   289          8
   290          3
   291          3
   292          4
   293          9
   294         27
   295         50
   296        145
   297         76
   298         20
   299         31
   300         10
   301          9
   302          3
   303          5
   304          2
   305          8
   306          2
   307         17
   308          6
   309          3
   310          6
   311         10
   312         32
   313         54
   314        102
   315         42
   316          9
   317          4
   318          3
   319          2
   320          4
   321          4
   322          1
   323         36
   324         10
   325         16
   326          6
   327          6
   328         15
   329         10
   330         17
   331         38
   332         20
   333          7
   334          2
   335          1
   336          3
   337          9
   338         28
   339         13
   340          4
   341         10
   342          5
   343          7
   344          3
   345          5
   346          3
   347          3
   348          2
   349          1
   350          0
   351          0
   352          1
   353          2
   354         10
   355         15
   356        158
   357         46
   358          9
   359          8
   360          3
   361          1
   362          0
   363          0
   364          0
   365          2
   366          1
   367          1
   368          1
   369          1
   370          3
   371          6
   372         28
   373         50
   374        142
   375         63
   376         13
   377          2
   378          0
   379          0
   380          3
   381          1
   382          0
   383          1
   384          1
   385          2
   386          1
   387          1
   388          3
   389          6
   390          9
   391          9
   392          3
   393          0
   394          0
   395          0
   396          1
   397          1
   398         38
   399         12
   400          3
   401          2
   402          1
   403          1
   404          0
   405          0
   406          0
   407          0
   408          0
   409          0
   410          0
   411          0
   412          1
   413          0
   414          6
   415          3
   416         26
   417          9
   418          2
   419          0
   420          0
   421          0
   422          0
   423          0
   425          0
   426          0
   427          0
   428          0
   429          0
   430          1
   431          0
   432          3
   433          1
   434         13
   435          6
   436          1