##TITLE=Library Entry 9064
##JCAMP-DX=Revision 4.10 
##DATA TYPE=MASS SPECTRUM
##SAMPLE DESCRIPTION=DKFZ HD SORG, HEIDELBERG, GERMANY, F.R.G.
##NAMES=HP
##CAS NAME=Butanoic acid, 1a,2,5,5a,6,9,10,10a-octahydro-5a-hydroxy-4-(hydro
xymethyl)-1,1,7,9-tetramethyl-6,11-dioxo-1H-2,8a-methanocyclopenta[a]cyclopr
opa[e]cyclodecen-5-yl ester, [1aR-(1a.alpha.,2.alpha.,5.beta.,5a.beta.,8a.al
pha.,9.alpha.,10a.alpha.)]-
##MOLFORM=C24H32O6
##CAS REGISTRY NO=77508-70-4
##MP= -300
##BP= -300
##MW= 416
##$RETENTION INDEX=0
##$CONDENSED SPECTRUM=NO
##NPOINTS= 403
##XYDATA=(XY..XY) 1 
    12          0
    13          0
    14          1
    15          7
    16          1
    17         12
    18         60
    19          1
    20          0
    24          0
    25          2
    26         16
    27        130
    28         66
    29        146
    30          5
    31         70
    32          3
    33          0
    36          1
    37          8
    38         13
    39        170
    40         36
    41        238
    42         71
    43        999
    44        176
    45        103
    46          3
    47         10
    48          1
    49          2
    50         17
    51         56
    52         36
    53        320
    54         40
    55        350
    56         88
    57        216
    58         35
    59        133
    60        180
    61         36
    62          8
    63         26
    64         13
    65        136
    66         53
    67        236
    68         43
    69        260
    70         66
    71        700
    72         80
    73        116
    74         53
    75         30
    76         17
    77        283
    78         78
    79        346
    80         90
    81        223
    82         86
    83        123
    84         36
    85         88
    86         14
    87         23
    88         20
    89         40
    90         14
    91        450
    92        100
    93        273
    94         96
    95        223
    96        103
    97        138
    98         40
    99         35
   100         20
   101         22
   102         19
   103         86
   104         40
   105        236
   106         58
   107        373
   108        106
   109        370
   110         70
   111         80
   112         33
   113         26
   114         15
   115        140
   116         56
   117        116
   118         33
   119        180
   120         76
   121        240
   122        290
   123        116
   124         43
   125         33
   126         96
   127         60
   128        110
   129        143
   130         46
   131        126
   132         50
   133        143
   134        103
   135        273
   136        103
   137        333
   138        533
   139        266
   140         50
   141         76
   142         56
   143         90
   144         46
   145        170
   146         66
   147        223
   148        106
   149        253
   150        110
   151        173
   152        133
   153         76
   154         46
   155         66
   156         36
   157        100
   158         96
   159        153
   160         80
   161        180
   162        133
   163        183
   164        126
   165        133
   166         86
   167        250
   168         53
   169         66
   170         40
   171        100
   172         63
   173        153
   174         93
   175        163
   176        100
   177        166
   178        100
   179        113
   180         46
   181         73
   182         46
   183         90
   184         43
   185        120
   186         93
   187        153
   188        106
   189        173
   190        110
   191        120
   192        118
   193         80
   194         46
   195         76
   196         63
   197        110
   198         66
   199        130
   200         73
   201        150
   202         76
   203        150
   204        116
   205        106
   206        126
   207         83
   208         60
   209        130
   210         53
   211        163
   212         86
   213        173
   214        176
   215        136
   216         90
   217        150
   218         83
   219         73
   220         53
   221         63
   222         36
   223         93
   224         73
   225        133
   226         73
   227        186
   228         93
   229        150
   230         60
   231         83
   232         63
   233         46
   234         30
   235         50
   236         30
   237        120
   238        110
   239        223
   240        100
   241        190
   242        106
   243        116
   244         46
   245         40
   246         30
   247         26
   248         14
   249         73
   250         33
   251         90
   252         63
   253        123
   254         86
   255        200
   256        103
   257        133
   258         70
   259         73
   260         23
   261         16
   262         12
   263         26
   264         43
   265         86
   266         36
   267        246
   268         93
   269        240
   270        140
   271         90
   272         53
   273         33
   274         13
   275         10
   276          6
   277         53
   278         15
   279         66
   280        113
   281        103
   282        153
   283        160
   284         60
   285        140
   286         66
   287         40
   288         17
   289          6
   290          4
   291          8
   292         43
   293         26
   294         12
   295        110
   296         26
   297        273
   298        366
   299        123
   300        160
   301         40
   302         10
   303          7
   304          6
   305          4
   306          3
   307          2
   308          2
   309         22
   310        183
   311         63
   312         16
   313         63
   314         19
   315         56
   316         66
   317         18
   318          7
   319          2
   320          2
   321          1
   322          2
   323          4
   324          2
   325          3
   326          6
   327         30
   328        246
   329         66
   330         16
   331          6
   332          2
   333          4
   334          2
   335          1
   336          2
   337          4
   338          1
   339          6
   340          5
   341          3
   342          3
   343          5
   344          6
   345          7
   346         50
   347         16
   348          4
   349          3
   350          2
   351          4
   352          5
   353          6
   354          3
   355          4
   356          6
   357          3
   358          2
   359          2
   360          2
   361          1
   362          1
   363          1
   364          2
   365          2
   366          1
   367         30
   368         18
   369          9
   370         30
   371          9
   372          4
   373         30
   374         10
   375          2
   376          1
   377          1
   378          1
   379          3
   380          5
   381          2
   382          1
   383          4
   384          2
   385         98
   386         76
   387         19
   388          5
   389          1
   390          1
   391          1
   392          2
   393          2
   394          2
   395          0
   396          1
   397          1
   398         26
   399          9
   400          3
   401          2
   402          1
   403          0
   404          1
   405          0
   406          1
   407          2
   408          1
   409          1
   410          1
   411          0
   412          1
   413          0
   414          2
   415          1
   416         46
   417         13
   418          3
   419          1