##TITLE=Library Entry 11658
##JCAMP-DX=Revision 4.10 
##DATA TYPE=MASS SPECTRUM
##SAMPLE DESCRIPTION=DKFZ HD SORG, HEIDELBERG, GERMANY, F.R.G.
##NAMES=HP
##CAS NAME=Butanoic acid, 1a,2,5,5a,6,9,10,10a-octahydro-5,5a-dihydroxy-4-(h
ydroxymethyl)-1,1,7,9-tetramethyl-11-oxo-1H-2,8a-methanocyclopenta[a]cyclopr
opa[e]cyclodecen-6-yl ester, [1aR-(1a.alpha.,2.alpha.,5.beta.,5a.beta.,6.bet
a.,8a.alpha.,9.alpha.,10a.alph
##MOLFORM=C24H34O6
##CAS REGISTRY NO=77508-67-9
##MP= -300
##BP= -300
##MW= 418
##$RETENTION INDEX=0
##$CONDENSED SPECTRUM=NO
##NPOINTS= 397
##XYDATA=(XY..XY) 1 
    12          0
    13          1
    14          6
    15         24
    16          2
    17         17
    18         70
    19          6
    20          1
    24          0
    25          2
    26         20
    27        167
    28        145
    29        177
    30         10
    31         41
    32         16
    33          1
    34          0
    35          3
    36         11
    37          4
    38         10
    39        164
    40         35
    41        612
    42         93
    43        999
    44         54
    45        132
    46          6
    47          7
    48          0
    49          2
    50         13
    51         48
    52         25
    53        212
    54         48
    55        419
    56         64
    57        193
    58         20
    59        161
    60        138
    61         83
    62          5
    63         20
    64          9
    65        196
    66         67
    67        280
    68         54
    69        364
    70         90
    71        451
    72        109
    73        111
    74         16
    75         32
    76         12
    77        387
    78         96
    79        374
    80         67
    81        248
    82         87
    83        145
    84         35
    85         67
    86         19
    87         29
    88         32
    89         48
    90         11
    91        548
    92        100
    93        483
    94        116
    95        261
    96        132
    97        130
    98         41
    99         27
   100         13
   101         21
   102         20
   103         74
   104         38
   105        293
   106         77
   107        338
   108        100
   109        245
   110         70
   111        170
   112         35
   113         24
   114         22
   115        106
   116         48
   117        106
   118         35
   119        270
   120         93
   121        741
   122        967
   123        500
   124         90
   125         38
   126         25
   127         41
   128         87
   129        116
   130         48
   131        129
   132         54
   133        222
   134        158
   135        403
   136        248
   137        161
   138        116
   139         70
   140         32
   141         61
   142         54
   143        106
   144         58
   145        167
   146         77
   147        290
   148        167
   149        258
   150        161
   151        303
   152         90
   153         58
   154         35
   155         58
   156         38
   157         96
   158         61
   159        190
   160        103
   161        258
   162        209
   163        154
   164         67
   165        112
   166         54
   167         61
   168         41
   169         87
   170         41
   171        119
   172         77
   173        158
   174         80
   175        151
   176         90
   177        212
   178        106
   179        119
   180         48
   181         64
   182         35
   183         87
   184         48
   185        112
   186         93
   187        158
   188        141
   189        167
   190        116
   191        106
   192         48
   193         70
   194         35
   195        112
   196         58
   197        109
   198         64
   199        119
   200         67
   201        119
   202         74
   203         96
   204         51
   205         48
   206         32
   207         45
   208         51
   209        112
   210         51
   211        125
   212         54
   213        141
   214         58
   215        106
   216         58
   217         61
   218         48
   219         48
   220         29
   221         45
   222         29
   223        138
   224         70
   225        122
   226         58
   227         83
   228         41
   229         74
   230         41
   231         35
   232         16
   233         38
   234         20
   235         45
   236         32
   237         64
   238         48
   239         96
   240         50
   241        180
   242         67
   243         80
   244         29
   245         32
   246         11
   247         16
   248         17
   249         32
   250         18
   251        132
   252         45
   253        141
   254         61
   255         80
   256         48
   257         48
   258         17
   259         25
   260         14
   261         38
   262         10
   263         23
   264         22
   265         58
   266         80
   267         70
   268         25
   269        132
   270         45
   271        100
   272         32
   273         14
   274          8
   275          9
   276         24
   277         18
   278          8
   279         96
   280         21
   281        100
   282         70
   283        106
   284        154
   285         45
   286         11
   287         19
   288          8
   289          3
   290          1
   291          7
   292          2
   293          8
   294         80
   295         38
   296         16
   297         74
   298         20
   299        190
   300         87
   301         38
   302         25
   303          6
   304          1
   305          1
   306          0
   307          1
   308          3
   309          2
   310          4
   311         13
   312        167
   313         77
   314         16
   315         10
   316          3
   317          5
   318          3
   319          1
   320          1
   321          1
   322          0
   323          1
   324          0
   325          0
   326          0
   327          1
   328          3
   329          7
   330         64
   331         21
   332          5
   333          1
   334          0
   335          0
   336          0
   337          0
   338          0
   339          1
   340          0
   341          7
   342          2
   343          0
   344          1
   345          1
   346          0
   347          1
   348          4
   349          2
   350          0
   351          1
   352          0
   353          1
   354          1
   355          1
   356          0
   357          1
   358          2
   359          0
   360          0
   361          0
   362          1
   363          0
   364          0
   365          0
   366          0
   367          0
   368          1
   369          8
   370          7
   371          4
   372          1
   373          0
   377          0
   378          0
   379          0
   380          0
   381          0
   382          5
   383          1
   384          0
   385          0
   386          1
   387         38
   388         13
   389          2
   390          0
   391          0
   392          0
   393          0
   394          0
   396          0
   398          0
   399          0
   400         11
   401          3
   402          0
   403          0
   404          0
   406          0
   407          0
   408          0
   409          0
   410          0
   411          0
   416          0
   417          0
   418         11
   419          3
   420          0
   421          0