##TITLE=Library Entry 61279
##JCAMP-DX=Revision 4.10 
##DATA TYPE=MASS SPECTRUM
##SAMPLE DESCRIPTION=G.GERCKEN UNIV. HAMBURG, 2 HAMBURG 13, GERMANY, F.R.G.
##NAMES=HP
##CAS NAME=Eicosanoic acid, phenylmethyl ester
##MOLFORM=C27H46O2
##CAS REGISTRY NO=77509-04-7
##MP= -300
##BP= -300
##MW= 402
##$RETENTION INDEX=3003
##$CONDENSED SPECTRUM=NO
##NPOINTS= 93
##XYDATA=(XY..XY) 1 
    26         36
    27         72
    29         93
    31         14
    36         89
    37         14
    38         25
    39        100
    40         43
    41        192
    42         50
    43        350
    44        107
    45         36
    50         29
    51         43
    52         21
    53         21
    54         36
    55        164
    56         57
    57        371
    58         21
    60         18
    62         21
    63         47
    64         14
    65        107
    66         18
    67         50
    68         21
    69        114
    70         43
    71        214
    72         14
    73        136
    74         18
    75         14
    77         29
    78         50
    79         36
    80         14
    81         57
    82         29
    83        100
    84         43
    85        114
    86         14
    87         11
    89         36
    90         29
    91        999
    92        207
    93         21
    95         50
    96         21
    97         64
    98         43
    99         36
   101         18
   104         14
   105         21
   107         36
   108        465
   109         57
   110         14
   111         57
   112         14
   113         21
   115         11
   117         11
   121         18
   123         14
   124         11
   125         29
   126         79
   127         11
   128         22
   129         14
   135         11
   137         11
   139         22
   143         11
   147         36
   149         14
   153         18
   157         11
   167         18
   207         36
   221         29
   281         18
   282         11
   311         11