##TITLE=Library Entry 35776
##JCAMP-DX=Revision 4.10 
##DATA TYPE=MASS SPECTRUM
##SAMPLE DESCRIPTION=R.E.ARDREY HOME OFFICE, RES. EST., ALDERMASTON, BERKS.,
 U.K.
##NAMES=HP
##CAS NAME=Phosphetane, 1-bromo-2,2,3,4,4-pentamethyl-, 1-oxide
##MOLFORM=C8H16BrOP
##CAS REGISTRY NO=77508-86-2
##MP= -300
##BP= -300
##MW= 238
##$RETENTION INDEX=0
##$CONDENSED SPECTRUM=NO
##NPOINTS= 62
##XYDATA=(XY..XY) 1 
    29         80
    39         80
    40         30
    41        400
    42        190
    43        300
    47         90
    53         70
    55        560
    57        340
    67         70
    68         40
    69        999
    70        300
    71         80
    72         60
    73         30
    75         20
    77         20
    79        250
    80         40
    81         70
    82         30
    83        120
    84         30
    85         40
    89        120
    90         60
    91         30
    95         80
    96         40
    97        940
   101         40
   103         60
   111        470
   112        190
   121         70
   123         80
   124         30
   125         20
   126         40
   127         50
   129         60
   141         40
   143         30
   159        100
   168        120
   170        300
   172        220
   179         50
   180         10
   181         20
   182         40
   184         30
   194         40
   196         30
   198         30
   223        170
   225        170
   237         30
   238        160
   240        160