##TITLE=Library Entry 16855
##JCAMP-DX=Revision 4.10 
##DATA TYPE=MASS SPECTRUM
##SAMPLE DESCRIPTION=E. WESTERLUND,DEP. CHEM. MOL. BIOL.,SWED. UNIV. AGRIC.,
UPPSA
##NAMES=HP
##CAS NAME=endo-2,3-O-Ethylidene-.beta.-d-erythrofuranose
##MOLFORM=C6H10O4
##CAS REGISTRY NO=77519-84-7
##MP= -300
##BP= -300
##MW= 146
##$RETENTION INDEX=0
##$CONDENSED SPECTRUM=NO
##NPOINTS= 18
##XYDATA=(XY..XY) 1 
    43        960
    44        170
    45        999
    47        150
    54         40
    55        200
    56        250
    57        400
    58         40
    59         40
    69         40
    71        200
    72         40
    73         80
    85        180
   102         90
   131         50
   145         10