##TITLE=Library Entry 65100
##JCAMP-DX=Revision 4.10 
##DATA TYPE=MASS SPECTRUM
##SAMPLE DESCRIPTION=V.A.Korolev, Moscow, Russia
##NAMES=HP
##CAS NAME=Diethyl [phenyl(2-phenylhydrazin-1-ylidene)methyl]phosphonate
##MOLFORM=C17H21N2O3P
##CAS REGISTRY NO=77526-41-1
##MP= -300
##BP= -300
##MW= 332
##$RETENTION INDEX=0
##$CONDENSED SPECTRUM=NO
##NPOINTS= 124
##XYDATA=(XY..XY) 1 
    28         74
    29        342
    37         23
    38         83
    39        208
    40         53
    41         76
    42         22
    43         98
    44         13
    45         60
    47         86
    48          4
    50        134
    51        333
    52         96
    53         17
    54          6
    55         13
    56          4
    57          8
    59          1
    60          2
    61         10
    62         40
    63        173
    64        254
    65        520
    66         79
    67          8
    69          7
    73          4
    74         27
    75         40
    76        136
    77        890
    78         60
    79         27
    81        325
    82         53
    83         19
    84          1
    85          1
    86          1
    87          5
    88          7
    89         53
    91        456
    92        999
    93        116
    94         12
    95          2
    99          3
   102         11
   103         98
   104        311
   105        134
   106         18
   107         20
   109        241
   110          8
   111         12
   115          8
   116          1
   117          9
   118          6
   119          6
   120         21
   121          6
   128          1
   129          1
   130          1
   132          5
   135          2
   137         34
   138         19
   139          5
   140          3
   145          2
   149          3
   151          1
   152          2
   153         16
   154          3
   155         12
   156          1
   165         14
   166         11
   167         30
   168         10
   169          1
   171          3
   172          4
   173         12
   181          1
   182          8
   183          1
   184          1
   192          9
   193         36
   194        304
   195        101
   196         26
   197          3
   201          5
   212         13
   213          2
   226          1
   227          5
   239         15
   240          2
   257         12
   258          1
   275         27
   276          3
   277          2
   302          1
   303         21
   304          7
   330          2
   331         67
   332        219
   333         42
   334          3