##TITLE=Library Entry 97463
##JCAMP-DX=Revision 4.10 
##DATA TYPE=MASS SPECTRUM
##SAMPLE DESCRIPTION=Japan AIST/NIMC Database- Spectrum MS-IW-5106
##NAMES=HP
##CAS NAME=2-(p-Chlorophenyl)-4,6-di(p-tolyl)-1,3,5-triazine
##MOLFORM=C23H18ClN3
##CAS REGISTRY NO=7752-00-3
##MP= -300
##BP= -300
##MW= 371
##$RETENTION INDEX=0
##$CONDENSED SPECTRUM=NO
##NPOINTS= 71
##XYDATA=(XY..XY) 1 
    27          2
    28          5
    38          1
    39          8
    40          1
    41          2
    50          3
    51          7
    52          2
    53          1
    57          1
    62          2
    63          9
    64          5
    65         14
    66          1
    74          1
    75          9
    76          5
    77          4
    78          3
    88          3
    89         51
    90        103
    91         36
    92          2
   100          2
   101          1
   102         22
   103          3
   109          1
   110          2
   111          7
   112          1
   113          2
   114          2
   115          3
   116        138
   117        999
   118        233
   119         16
   123          1
   124          1
   127          3
   128          1
   133          1
   137         69
   138         22
   139         24
   140          7
   143          3
   163          1
   165          1
   167          2
   168          1
   185         28
   186          9
   187          2
   218          1
   219          5
   233          3
   234          2
   253          4
   254          2
   255          1
   370          2
   371        214
   372         55
   373         73
   374         17
   375          2