##TITLE=Library Entry 72329
##JCAMP-DX=Revision 4.10 
##DATA TYPE=MASS SPECTRUM
##SAMPLE DESCRIPTION=Chemical Concepts
##NAMES=HP
##CAS NAME=Androstan-19-al, 3,3:17,17-bis(ethylenedioxy)-4,4-dimethyl-
##MOLFORM=C25H38O5
##CAS REGISTRY NO=77531-10-3
##MP= -300
##BP= -300
##MW= 418
##$RETENTION INDEX=0
##$CONDENSED SPECTRUM=NO
##NPOINTS= 289
##XYDATA=(XY..XY) 1 
    27          0
    28          1
    29          2
    39          1
    40          0
    41         15
    42          7
    43         12
    44          0
    45          5
    53          4
    54          1
    55         21
    56          6
    57          4
    59          1
    65          3
    66          1
    67         11
    68          2
    69         11
    70          1
    71          1
    73          8
    77          6
    78          1
    79         11
    80          2
    81         10
    82          2
    83          2
    84          0
    85          1
    86        105
    87        139
    88          8
    89          1
    90          0
    91         13
    92          2
    93          8
    94          2
    95          7
    96          1
    97          2
    98          1
    99        999
   100         70
   101          8
   102          0
   103          1
   104          0
   105          9
   106          1
   107          6
   108          1
   109          4
   110          0
   111          1
   112          0
   113          8
   114          6
   115          3
   116          1
   117          4
   118          1
   119          6
   120          1
   121          5
   122          1
   123          2
   124          0
   125          2
   126          2
   127          1
   128          1
   129          3
   130          1
   131          5
   132          1
   133          4
   134          1
   135          2
   136          0
   137          1
   138          0
   139          2
   140          2
   141         18
   142          5
   143          4
   144          1
   145          5
   146          1
   147          6
   148          1
   149          2
   150          0
   151          1
   152          0
   153          1
   154          1
   155          2
   156          0
   157          2
   158          1
   159          3
   160          2
   161          2
   162          0
   163          1
   164          0
   165          1
   166          1
   167          2
   168          5
   169          1
   170          0
   171          2
   172          1
   173          2
   174          1
   175          1
   176          0
   177          0
   178          0
   179          1
   180          0
   181         12
   182          1
   183          2
   184          0
   185          2
   186          0
   187          2
   188          0
   189          1
   190          0
   191          0
   192          0
   193          1
   194          1
   195          1
   196          0
   197          3
   198          3
   199          4
   200          1
   201          1
   202          0
   203          1
   205          0
   207          1
   208          1
   209          3
   210          1
   211          1
   212          0
   213          1
   214          0
   215          1
   216          2
   217          1
   218          0
   219          0
   220          0
   221          3
   222          6
   223          6
   224          1
   225          1
   226          0
   227          2
   228          0
   229          1
   230          0
   231          0
   233          1
   234          0
   235          0
   236          0
   237          1
   238          0
   239          3
   240          9
   241          4
   242          2
   243          1
   244          1
   245          1
   246          0
   247          1
   248          0
   249          0
   250          0
   251          1
   252          1
   253          0
   254          0
   255          1
   256          0
   257          0
   258          0
   259          0
   260          2
   261          3
   262          1
   263          0
   264          0
   265          2
   266          3
   267          1
   268          1
   269          0
   270          0
   271          0
   272          0
   273          0
   274          0
   275          1
   276          1
   277          0
   279          0
   283          1
   284          0
   285         23
   286          5
   287          3
   288          1
   289          2
   290          0
   291          0
   294          1
   295          0
   299          0
   300          0
   301          1
   302          7
   303          2
   304          6
   305          1
   312          0
   313          1
   314          2
   315          1
   317          2
   318          2
   319          2
   320          0
   321          0
   327          4
   328         12
   329          4
   330          3
   331          1
   332          1
   333          0
   334          0
   336          0
   337          1
   338          0
   341          0
   345          1
   346          1
   347         19
   348          4
   349          1
   356          9
   357          4
   358          2
   359          0
   361          0
   362          0
   363          0
   373          2
   374          0
   375          9
   376          2
   377          0
   389          3
   390         71
   391         16
   392          2
   400          0
   403          1
   417          0
   418         18
   419          5
   420          0