##TITLE=Library Entry 56309
##JCAMP-DX=Revision 4.10 
##DATA TYPE=MASS SPECTRUM
##SAMPLE DESCRIPTION=E.J.NORMAN TEXAS A&M UNIV., COLLEGE STN., TEXAS, USA
##NAMES=HP
##CAS NAME=L-Leucine, N-(N-acetyl-L-.alpha.-glutamyl)-, dibutyl ester
##MOLFORM=C21H38N2O6
##CAS REGISTRY NO=77536-51-7
##MP= -300
##BP= -300
##MW= 414
##$RETENTION INDEX=0
##$CONDENSED SPECTRUM=NO
##NPOINTS= 104
##XYDATA=(XY..XY) 1 
    39         39
    40         13
    41        231
    42         29
    43        258
    44        125
    45         10
    53          8
    54         13
    55         50
    56        210
    57        204
    58         29
    60         10
    67          8
    68         13
    69         26
    70         37
    71          8
    72         10
    73         21
    74         18
    82          8
    83         16
    84        795
    85        114
    86        999
    87         58
    88          8
    95          5
    96          5
    97          8
    98         39
    99         31
   100         26
   101          5
   102        146
   103          8
   110          5
   111         13
   112          8
   113         10
   114          8
   115          5
   126        164
   127         82
   128         10
   129          8
   130         42
   131          5
   132          8
   139          5
   140         82
   141         31
   142          8
   144         47
   145          5
   149         13
   153         16
   154         82
   155         13
   156          8
   157          5
   158        590
   159         55
   160          5
   168          8
   169          5
   172         10
   184          5
   186         16
   187          5
   188         77
   189         10
   197         13
   198          5
   199         10
   200        555
   201        465
   202         61
   203          8
   214          5
   227         10
   228        337
   229         39
   230          8
   239        109
   240         18
   242          5
   243         13
   267         10
   284         13
   285          5
   286         10
   299         16
   313         61
   314         10
   341         55
   342         13
   358         21
   359          5
   399          8
   414         18
   415          8