##TITLE=Library Entry 54424
##JCAMP-DX=Revision 4.10 
##DATA TYPE=MASS SPECTRUM
##SAMPLE DESCRIPTION=E.J.NORMAN TEXAS A&M UNIV., COLLEGE STN., TEXAS, USA
##NAMES=HP
##CAS NAME=L-Aspartic acid, N-(N-acetyl-L-.alpha.-glutamyl)-, tributyl ester
##MOLFORM=C23H40N2O8
##CAS REGISTRY NO=77536-54-0
##MP= -300
##BP= -300
##MW= 472
##$RETENTION INDEX=0
##$CONDENSED SPECTRUM=NO
##NPOINTS= 164
##XYDATA=(XY..XY) 1 
    36          3
    37          2
    38          4
    39         45
    40          9
    41        288
    42         44
    43        256
    44         57
    45          8
    46          7
    50          3
    51          9
    52          2
    53          6
    54         13
    55         66
    56        224
    57        298
    58         24
    59          2
    60         20
    61          7
    66          2
    67          2
    68         10
    69        101
    70         51
    71         12
    72          9
    73         16
    74         15
    75          2
    80          2
    81          2
    82          9
    83         15
    84        999
    85        190
    86        128
    87         18
    88         86
    89          3
    90          2
    93          6
    95          3
    96          2
    97          8
    98         27
    99         28
   100         43
   101          9
   102        106
   103          6
   104          2
   109          2
   110          3
   111          9
   112          6
   113          6
   114         19
   115          4
   116          6
   117          3
   119         22
   124          2
   125          7
   126        189
   127        286
   128         22
   129          6
   130          9
   131         30
   132         20
   133          2
   134          3
   137          2
   139          4
   140         71
   141          8
   142         25
   143          8
   144        288
   145         25
   146          4
   149          2
   151          2
   153         14
   154        150
   155         21
   156          7
   157          3
   158        422
   159         39
   160          6
   162          2
   166          2
   167          3
   169         10
   170          2
   171          4
   172          4
   180          2
   181         13
   182          3
   186          3
   188         15
   189          2
   190          8
   193          3
   196          2
   197          2
   198          4
   199         13
   200        518
   201        328
   202         37
   203          4
   205          2
   209          2
   210          4
   213          2
   214          2
   216          2
   219          4
   225          2
   226          3
   227         14
   228         92
   229         12
   230          3
   231          6
   243          4
   244         16
   245          7
   246         63
   247          9
   255          2
   269          2
   272         27
   273          3
   274          3
   280          3
   281          4
   282          3
   293          2
   297         50
   298          8
   301          7
   324          3
   325         14
   326          3
   331          2
   339          2
   343          2
   344          7
   357          7
   398          3
   399         42
   400          9
   401          2
   454          2
   472          9
   473          3