##TITLE=Library Entry 9858
##JCAMP-DX=Revision 4.10 
##DATA TYPE=MASS SPECTRUM
##SAMPLE DESCRIPTION=W.L.MEAD BRITISH PETROLEUM CO. LTD., SUNBURY-ON-THAMES,
 UK
##NAMES=HP
##CAS NAME=Docosane, 2,4-dimethyl-
##MOLFORM=C24H50
##CAS REGISTRY NO=77536-30-2
##MP= -300
##BP= -300
##MW= 338
##$RETENTION INDEX=0
##$CONDENSED SPECTRUM=NO
##NPOINTS= 92
##XYDATA=(XY..XY) 1 
    39         97
    40         22
    41        391
    42         97
    43        999
    44         36
    53         23
    54         28
    55        299
    56        209
    57        820
    58         35
    67         41
    68         31
    69        219
    70         92
    71        401
    72         24
    73         22
    81         25
    82         28
    83        136
    84        287
    85        949
    86         56
    95         14
    96         18
    97         88
    98         22
    99        126
   100          9
   109          6
   110         13
   111         40
   112         14
   113        105
   114          8
   124          9
   125         27
   126         11
   127         83
   128          8
   139         16
   140         12
   141         75
   142         15
   143         11
   152          6
   153         11
   154          4
   155         53
   156          6
   167          8
   168          4
   169         51
   170          5
   180          8
   181          9
   182          5
   183         47
   184          5
   197         39
   198          4
   209          8
   210          5
   211         33
   212          5
   225         24
   226          3
   239         17
   240          3
   251          5
   252         25
   253         17
   254          6
   265          2
   266          4
   267          5
   268          1
   280         83
   281        136
   282         27
   294         36
   295         61
   296         17
   308          3
   309          5
   310          1
   323         18
   324          4
   338          3
   339          1