##TITLE=Library Entry 97798
##JCAMP-DX=Revision 4.10 
##DATA TYPE=MASS SPECTRUM
##SAMPLE DESCRIPTION=Japan AIST/NIMC Database- Spectrum MS-IW-5105
##NAMES=HP
##CAS NAME=2-(2-Furyl)-4,6-di(p-tolyl)-1,3,5-triazine
##MOLFORM=C21H17N3O
##CAS REGISTRY NO=7753-07-3
##MP= -300
##BP= -300
##MW= 327
##$RETENTION INDEX=0
##$CONDENSED SPECTRUM=NO
##NPOINTS= 84
##XYDATA=(XY..XY) 1 
    27          2
    28          3
    29          1
    37          1
    38          6
    39         21
    40          2
    41          3
    42          1
    43          2
    50          2
    51          7
    52          3
    53          1
    55          1
    57          3
    62          3
    63         11
    64         18
    65         27
    66          5
    67          1
    68          4
    69          2
    71          2
    75          3
    76          3
    77          5
    78          3
    81          1
    83          1
    85          1
    87          1
    88          4
    89         56
    90        110
    91         41
    92          4
    93        131
    94         26
    95          2
    97          2
   102          3
   103          1
   105          2
   107          1
   109          2
   111          1
   114          2
   115          4
   116        148
   117        999
   118        230
   119         19
   123          1
   127          1
   128          1
   129          1
   135          1
   141          1
   142          1
   143          6
   148          2
   149          1
   154          2
   155          1
   162          1
   163         40
   164          9
   179          1
   181          3
   182          2
   209          6
   210          7
   211          1
   233          5
   234          2
   298          1
   299          1
   326          6
   327        390
   328         94
   329         10
   330          1