##TITLE=Library Entry 90975
##JCAMP-DX=Revision 4.10 
##DATA TYPE=MASS SPECTRUM
##SAMPLE DESCRIPTION=E.J.NORMAN TEXAS A&M UNIV., COLLEGE STN., TEXAS, USA
##NAMES=HP
##CAS NAME=l-Glutamic acid, N-(N-acetyl-l-valyl)-, dibutyl ester
##MOLFORM=C20H36N2O6
##CAS REGISTRY NO=77536-49-3
##MP= -300
##BP= -300
##MW= 400
##$RETENTION INDEX=0
##$CONDENSED SPECTRUM=NO
##NPOINTS= 95
##XYDATA=(XY..XY) 1 
    39         15
    40          4
    41        145
    42         15
    43        128
    44          7
    45          3
    53          6
    54          7
    55        101
    56        100
    57        106
    58         41
    60         23
    68          4
    69         17
    70         26
    71         15
    72        975
    73         47
    74          9
    75          2
    82         15
    83         24
    84        181
    85         28
    86         15
    87          3
    97          4
    98          6
    99         14
   100         87
   101          7
   102         35
   103          2
   110          7
   111          4
   112          3
   113         62
   114        999
   115        692
   116         47
   117          3
   126          4
   128         11
   129          3
   130         18
   131          2
   139          9
   140          4
   141          4
   142        135
   143         13
   149          3
   156          6
   157          6
   158        391
   159         42
   160          3
   167          2
   170          2
   184          4
   185          4
   186         37
   187          3
   198          2
   202          3
   204          4
   213          7
   214          2
   230          2
   240          6
   241         19
   242          3
   244          4
   258         18
   259         17
   260         20
   261          3
   272          4
   286          4
   288          6
   299          7
   315         14
   316          2
   326          8
   327         18
   328          3
   341          3
   342          2
   358         30
   359          7
   385          2
   400          8
   401          2