##TITLE=Library Entry 66866
##JCAMP-DX=Revision 4.10 
##DATA TYPE=MASS SPECTRUM
##SAMPLE DESCRIPTION=Japan AIST/NIMC Database- Spectrum MS-IW-5100
##NAMES=HP
##CAS NAME=2-(2-Furyl)-4,6-diphenyl-1,3,5-triazine
##MOLFORM=C19H13N3O
##CAS REGISTRY NO=7753-01-7
##MP= -300
##BP= -300
##MW= 299
##$RETENTION INDEX=0
##$CONDENSED SPECTRUM=NO
##NPOINTS= 75
##XYDATA=(XY..XY) 1 
    18          7
    27          3
    37          1
    38         10
    39         28
    40          1
    41          1
    42          3
    43          1
    50         16
    51         25
    52          9
    53          2
    55          1
    57          2
    62          1
    63          7
    64         34
    65         28
    66          6
    67          1
    68          7
    69          1
    71          1
    74          3
    75         13
    76        101
    77         60
    78          5
    81          1
    82          1
    83          2
    84          1
    85          1
    88          2
    89          2
    92          1
    93        999
    94         74
    95          5
    97          1
    98          8
    99          1
   100          1
   101          1
   102         11
   103        510
   104         90
   105          5
   109          4
   111          1
   114          2
   115          2
   119          3
   129          8
   130          1
   135          2
   136          2
   140          5
   141          1
   150         30
   167          2
   168          3
   195          7
   196         10
   197          1
   205          7
   206          6
   270          1
   271          1
   298          2
   299        517
   300        112
   301         12
   302          1