##TITLE=Library Entry 7838
##JCAMP-DX=Revision 4.10 
##DATA TYPE=MASS SPECTRUM
##SAMPLE DESCRIPTION=W.L.MEAD BRITISH PETROLEUM CO. LTD., SUNBURY-ON-THAMES,
 UK
##NAMES=HP
##CAS NAME=Docosane, 2,21-dimethyl-
##MOLFORM=C24H50
##CAS REGISTRY NO=77536-31-3
##MP= -300
##BP= -300
##MW= 338
##$RETENTION INDEX=0
##$CONDENSED SPECTRUM=NO
##NPOINTS= 88
##XYDATA=(XY..XY) 1 
    39         46
    40         12
    41        335
    42        125
    43        999
    44         29
    53         14
    54         22
    55        244
    56        207
    57        892
    58         37
    67         25
    68         24
    69        148
    70         76
    71        455
    72         26
    81         13
    82         20
    83         81
    84         34
    85        295
    86         19
    95          5
    96          9
    97         54
    98         17
    99        125
   100         10
   110          5
   111         27
   112         12
   113         79
   114          7
   124          2
   125         12
   126          7
   127         59
   128          6
   138          2
   139          6
   140          6
   141         46
   142          7
   143          2
   153          3
   154          4
   155         38
   156          5
   167          3
   168          3
   169         30
   170          4
   181          2
   182          3
   183         26
   184          4
   196          2
   197         23
   198          2
   210          2
   211         19
   212          3
   224          2
   225         15
   226          3
   238          3
   239         13
   240          2
   242          2
   243          8
   244          1
   256          4
   257          5
   258          1
   280          1
   281          4
   294         19
   295         60
   296         13
   297          2
   322          1
   323         16
   324          4
   325          1
   338          3
   339          1