##TITLE=Library Entry 39993
##JCAMP-DX=Revision 4.10 
##DATA TYPE=MASS SPECTRUM
##SAMPLE DESCRIPTION=E.J.NORMAN TEXAS A&M UNIV., COLLEGE STN., TEXAS, USA
##NAMES=HP
##CAS NAME=L-Histidine, N-(N-acetyl-L-valyl)-, butyl ester
##MOLFORM=C17H28N4O4
##CAS REGISTRY NO=77536-35-7
##MP= -300
##BP= -300
##MW= 352
##$RETENTION INDEX=0
##$CONDENSED SPECTRUM=NO
##NPOINTS= 141
##XYDATA=(XY..XY) 1 
    36         11
    38         11
    39        125
    40         26
    41        272
    42         87
    43        443
    44         64
    45         11
    46         30
    50          7
    51          7
    52         18
    53         30
    54         94
    55        280
    56        143
    57        193
    58         68
    59         15
    60         22
    64         11
    65          7
    66         15
    67         26
    68         37
    69         41
    70         45
    71         30
    72        999
    73         60
    74         18
    79          7
    80         11
    81        295
    82        697
    83         90
    84         18
    85         18
    88         26
    91          7
    92          7
    93         45
    94        125
    95         87
    96        102
    97         30
    98         22
    99         30
   100         30
   101          7
   102          7
   103         11
   106          7
   107         22
   108         49
   109         83
   110        625
   111         53
   112         11
   113         11
   114        412
   115         64
   116         11
   117          7
   120         30
   121         72
   122         37
   123         15
   124         15
   125          7
   126         15
   127          7
   128          7
   129          7
   130         11
   132          7
   133          7
   134         11
   135         15
   136         98
   137         22
   138         87
   139         34
   140         11
   141         37
   142        143
   143         22
   144         18
   145          7
   146          7
   147         11
   148          7
   149         11
   150          7
   152         11
   154         18
   155          7
   156         11
   159         41
   160          7
   164         11
   165         18
   166         11
   167         11
   168          7
   179          7
   180         11
   181         11
   182         22
   183          7
   185          7
   189          7
   194         79
   195         45
   196         45
   197         11
   207          7
   209         11
   210         30
   211         11
   212         22
   213          7
   233         15
   234         11
   235          7
   236         11
   237          7
   238        227
   239         37
   240          7
   251         34
   252         11
   267          7
   279         11
   280          7
   309          7
   334          7
   337          7
   352         56
   353         11