##TITLE=Library Entry 13143
##JCAMP-DX=Revision 4.10 
##DATA TYPE=MASS SPECTRUM
##SAMPLE DESCRIPTION=W.ONKENHOUT,DEP. PHARM.,GORLAEUS LABS.,STATE UNIV. LEID
EN,NETH
##NAMES=HP
##CAS NAME=N-Acetyl-S-(2-oxocyclohexyl)-L-cysteine methyl ester
##MOLFORM=C12H19NO4S
##CAS REGISTRY NO=77549-11-2
##MP= -300
##BP= -300
##MW= 273
##$RETENTION INDEX=0
##$CONDENSED SPECTRUM=NO
##NPOINTS= 85
##XYDATA=(XY..XY) 1 
    39        160
    40         40
    41        490
    42        190
    43        999
    44        160
    45        130
    46         20
    47         60
    53         30
    55        190
    56         30
    57         20
    58         30
    59        110
    60         90
    61         20
    65         10
    67        280
    68        130
    69        180
    70        100
    71         40
    73         30
    74        190
    75         40
    76         30
    77         10
    79        100
    81         40
    83         30
    84         70
    85         70
    86        190
    87         70
    88        230
    89         10
    93         10
    95         20
    96         10
    97        100
    98        240
    99         40
   100         20
   101         70
   102        120
   103         10
   111         10
   112         30
   113        130
   114         10
   115         50
   116         20
   117         80
   118         40
   119         10
   121         20
   126        120
   127         20
   128        180
   129         30
   130         40
   134        360
   135         20
   136         10
   138         50
   141         20
   142         20
   143        170
   144        500
   145         50
   153         40
   154        120
   155         50
   158         30
   172         20
   176        620
   177         50
   178         30
   182         40
   214        160
   215         10
   273        420
   274         60
   275         20