##TITLE=Library Entry 33874
##JCAMP-DX=Revision 4.10 
##DATA TYPE=MASS SPECTRUM
##SAMPLE DESCRIPTION=R.G.WESTON DEPT. CHEM., UNIVERSITY OF DURHAM, DURHAM, U
K
##NAMES=HP
##CAS NAME=11-Oxatetracyclo[6.2.1.0(2,7).0(3,6)]undec-9-ene, 2,3,4,4,5,5,6,7
-octafluoro-
##MOLFORM=C10H4F8O
##CAS REGISTRY NO=77549-75-8
##MP= -300
##BP= -300
##MW= 292
##$RETENTION INDEX=0
##$CONDENSED SPECTRUM=NO
##NPOINTS= 18
##XYDATA=(XY..XY) 1 
    39        290
    68        999
    69        160
    93        130
   100         30
   101         60
   105         60
   112         30
   113         30
   114         30
   117         60
   124        190
   155        320
   163         60
   174        100
   194         30
   205        100
   224        160