##TITLE=Library Entry 81822
##JCAMP-DX=Revision 4.10 
##DATA TYPE=MASS SPECTRUM
##SAMPLE DESCRIPTION=Chemical Concepts
##NAMES=HP
##CAS NAME=2-Buten-1-one, 1,2-diphenyl-
##MOLFORM=C16H14O
##CAS REGISTRY NO=77542-10-0
##MP= -300
##BP= -300
##MW= 222
##$RETENTION INDEX=0
##$CONDENSED SPECTRUM=NO
##NPOINTS= 127
##XYDATA=(XY..XY) 1 
    26          1
    27         12
    28          7
    29          3
    37          1
    38          4
    39         44
    40          3
    41         11
    42          2
    43          7
    44          3
    50         25
    51        101
    52         13
    53          4
    55          5
    56          4
    57          7
    58          3
    61          2
    62          8
    63         30
    64          9
    65         40
    66          4
    67          2
    69          4
    70          3
    71          4
    73          3
    74         11
    75         15
    76         26
    77        361
    78         35
    79          5
    81          3
    82          4
    83          4
    84          8
    85          3
    86          4
    87          8
    88          7
    89         33
    90          6
    91        117
    92         13
    93          3
    94          2
    95          4
    96          2
    97          4
    98          2
    99          2
   101          5
   102         23
   103         15
   104          6
   105        999
   106         83
   107         10
   109          3
   110          3
   111          4
   113          6
   114          7
   115        244
   116         68
   117        292
   118         43
   119          6
   120          2
   121          2
   122          3
   126          3
   127          7
   128         11
   129         15
   131         49
   132          6
   139          5
   141          3
   142          2
   143          8
   144         13
   145         20
   146          2
   147          2
   151          5
   152          9
   153          2
   154          2
   163          4
   164          3
   165         17
   166          3
   168          2
   176          7
   177          6
   178         32
   179         47
   180          8
   181          2
   189          9
   190          3
   191         11
   192          8
   193         22
   194         14
   195          4
   196          3
   202          6
   203         12
   204         17
   205         20
   206          5
   207         73
   208         13
   209          2
   219          3
   220         14
   221        147
   222        633
   223        114
   224         13