##TITLE=Library Entry 70057
##JCAMP-DX=Revision 4.10 
##DATA TYPE=MASS SPECTRUM
##SAMPLE DESCRIPTION=W.ONKENHOUT,DEP. PHARM.,GORLAEUS LABS.,STATE UNIV. LEID
EN,NETH
##NAMES=HP
##CAS NAME=N-Acetyl-S-(3-oxocyclohexyl)-L-cysteine methyl ester
##MOLFORM=C12H19NO4S
##CAS REGISTRY NO=77549-17-8
##MP= -300
##BP= -300
##MW= 273
##$RETENTION INDEX=0
##$CONDENSED SPECTRUM=NO
##NPOINTS= 45
##XYDATA=(XY..XY) 1 
    41        140
    42         30
    43        180
    44         40
    55        130
    60        120
    67         20
    68         20
    69        300
    70         20
    74         10
    76         70
    84         10
    85         10
    86        170
    87         20
    88        170
    89         10
    95         10
    96         30
    97        999
    98         70
    99         20
   101         20
   102         30
   117         30
   118         70
   129         20
   134         60
   143         30
   144         50
   145         80
   146         20
   149         20
   176         50
   177        210
   178         30
   179         10
   181        130
   182         40
   214        250
   215         30
   216         10
   255         30
   273         10