##TITLE=Library Entry 14490
##JCAMP-DX=Revision 4.10 
##DATA TYPE=MASS SPECTRUM
##SAMPLE DESCRIPTION=DKFZ HD FUERSTENBERGER, HEIDELBERG, GERMANY, F.R.G.
##NAMES=HP
##CAS NAME=1H-Cyclopropa[3,4]benz[1,2-e]azulene-5,7b,9,9a-tetrol, 3-[(acetyl
oxy)methyl]-1a,1b,4,4a,5,7a,8,9-octahydro-1,1,6,8-tetramethyl-, 9,9a-diaceta
te, [1aR-(1a.alpha.,1b.beta.,4a.alpha.,5.beta.,7a.alpha.,7b.alpha.,8.alpha.,
9.beta.,9a.alpha.)]-
##MOLFORM=C26H36O8
##CAS REGISTRY NO=77550-15-3
##MP= -300
##BP= -300
##MW= 476
##$RETENTION INDEX=0
##$CONDENSED SPECTRUM=NO
##NPOINTS= 449
##XYDATA=(XY..XY) 1 
    12          0
    13          0
    15         30
    17         11
    18         42
    25          1
    26          9
    27         47
    28         22
    29        100
    30          4
    31         28
    32          1
    37          2
    38          5
    39         57
    40         12
    41        242
    42         30
    43        999
    44         42
    45         38
    46          2
    47          3
    48          0
    49          1
    50          9
    51         18
    52          8
    53         52
    54         18
    55        214
    56         47
    57        157
    58         17
    59         38
    60         33
    61         24
    62          1
    63          5
    64          3
    65         47
    66         20
    67        133
    68         33
    69        276
    70         42
    71         90
    72         12
    73         24
    74          6
    75         10
    76         15
    77        123
    78         38
    79        190
    80         71
    81        152
    82         38
    83        257
    84         33
    85         61
    86         14
    87         21
    88          5
    89         13
    90          3
    91        219
    92         47
    93        219
    94         57
    95        166
    96        128
    97         90
    98         24
    99         28
   100          7
   101         27
   102          8
   103         33
   104         21
   105        209
   106         52
   107        200
   108         47
   109        133
   110         33
   111         66
   112         57
   113         30
   114         42
   115         66
   116         30
   117         90
   118         38
   119        157
   120         95
   121        185
   122        114
   123        104
   124         42
   125        142
   126         21
   127         33
   128         57
   129        109
   130         71
   131        238
   132         71
   133        123
   134         66
   135         95
   136         80
   137         66
   138         52
   139         33
   140         12
   141         52
   142         57
   143        180
   144         90
   145        161
   146         57
   147        119
   148        109
   149        290
   150         42
   151         61
   152         52
   153         52
   154         42
   155         66
   156         76
   157        195
   158         76
   159        161
   160         85
   161        147
   162         66
   163         61
   164         38
   165         66
   166         38
   167         57
   168         28
   169         71
   170         57
   171        114
   172        123
   173        180
   174         95
   175        114
   176         52
   177         57
   178         33
   179         47
   180         33
   181         61
   182         52
   183        157
   184         61
   185        104
   186         47
   187         80
   188         52
   189         85
   190         80
   191         61
   192         38
   193         52
   194         33
   195        104
   196         57
   197         90
   198         57
   199        195
   200        157
   201        133
   202         47
   203         61
   204         30
   205         47
   206         24
   207         57
   208         47
   209         85
   210         57
   211        109
   212         52
   213        119
   214         57
   215         57
   216         47
   217         80
   218         47
   219         38
   220         24
   221         47
   222         42
   223         90
   224         33
   225        104
   226         71
   227        114
   228         57
   229         47
   230         33
   231         33
   232         28
   233         33
   234         22
   235         95
   236         38
   237         61
   238         38
   239         76
   240         57
   241         61
   242         47
   243         61
   244         33
   245        119
   246         32
   247         27
   248         20
   249         57
   250         71
   251         66
   252         30
   253        114
   254         38
   255         71
   256         33
   257         31
   258         21
   259         30
   260         30
   261         33
   262         17
   263         95
   264         28
   265         61
   266         33
   267         76
   268        104
   269         52
   270         23
   271         42
   272         17
   273         22
   274         12
   275         16
   276         38
   277         52
   278        195
   279        100
   280         33
   281         95
   282         33
   283         42
   284         19
   285         42
   286         33
   287         38
   288         14
   289         12
   290         13
   291          9
   292          8
   293         20
   294         33
   295        123
   296        314
   297        133
   298         47
   299         38
   300         16
   301         13
   302          7
   303         10
   304          6
   305         10
   306          4
   307          7
   308          4
   309          9
   310         20
   311         27
   312         38
   313        104
   314        142
   315         52
   316         16
   317          7
   318          4
   319          6
   320         10
   321         11
   322          5
   323         20
   324          9
   325         21
   326         10
   327         19
   328         38
   329         21
   330         14
   331         24
   332         19
   333          6
   334          2
   335          2
   336          8
   337         20
   338        228
   339         85
   340         26
   341         33
   342         12
   343          9
   344          6
   345          7
   346          7
   347          3
   348          2
   349          2
   350          1
   351          1
   352          3
   353          5
   354         23
   355         71
   356        290
   357        104
   358         31
   359         12
   360          3
   361          2
   362          1
   363          1
   364          1
   365          9
   366          5
   367          2
   368          3
   369          3
   370         10
   371         21
   372         33
   373         76
   374         80
   375         24
   376          5
   377          1
   378          1
   379          1
   380          6
   381          4
   382          3
   383          7
   384          3
   385          4
   386          4
   387          8
   388          6
   389          7
   390          5
   391          4
   392          2
   393          2
   394          1
   395          1
   396          3
   397          3
   398        109
   399         33
   400         10
   401         16
   402          6
   403          3
   404          1
   405          1
   406          1
   407          1
   408          1
   409          1
   410          1
   411          3
   412          2
   413          1
   414         30
   415         25
   416        100
   417         76
   418         20
   419          5
   420          1
   421          0
   422          0
   423          0
   424          1
   425          1
   426          2
   427          1
   428          1
   429          1
   430          5
   431         11
   432         10
   433         38
   434         11
   435          3
   436          1
   437          0
   438          0
   439          0
   440          2
   441          1
   442          2
   443          1
   444          1
   445          0
   446          1
   447          1
   448          1
   449          1
   450          0
   451          0
   452          0
   453          0
   454          1
   455          0
   456          1
   457          0
   458         42
   459         14
   460          4
   461          1
   462          1
   463          0
   464          0
   472          1
   473          0
   474          2
   475          1
   476         42
   477         13
   478          3
   479          0