##TITLE=Library Entry 48042
##JCAMP-DX=Revision 4.10 
##DATA TYPE=MASS SPECTRUM
##SAMPLE DESCRIPTION=DKFZ HD FUERSTENBERGER, HEIDELBERG, GERMANY, F.R.G.
##NAMES=HP
##CAS NAME=2,4,6,8,10-Tetradecapentaenoic acid, 9a-(acetyloxy)-1a,1b,4,4a,5,
7a,7b,8,9,9a-decahydro-4a,7b-dihydroxy-3-(hydroxymethyl)-1,1,6,8-tetramethyl
-5-oxo-1H-cyclopropa[3,4]benz[1,2-e]azulen-9-yl ester, [1aR-(1a.alpha.,1b.be
ta.,4a.beta.,7a.alpha.,7b.alph
##MOLFORM=C36H46O8
##CAS REGISTRY NO=77550-17-5
##MP= -300
##BP= -300
##MW= 606
##$RETENTION INDEX=0
##$CONDENSED SPECTRUM=NO
##NPOINTS= 597
##XYDATA=(XY..XY) 1 
    12          5
    13          4
    14         13
    15         32
    16         19
    17        176
    18        840
    19          6
    20          8
    22          2
    23          3
    24          3
    25          8
    26         40
    27        108
    28        420
    29        108
    30         76
    31         88
    32         23
    33          2
    34          1
    35         11
    36        164
    37         28
    38         48
    39        180
    40         36
    41        260
    42         76
    43        308
    44        800
    45        124
    46         22
    47          7
    48          6
    49         19
    50        100
    51        136
    52        128
    53         60
    54         26
    55        192
    56         52
    57        188
    58         36
    59         32
    60        108
    61         18
    62         12
    63         36
    64         18
    65         52
    66         16
    67         92
    68         32
    69        156
    70        164
    71        132
    72         28
    73         44
    74         40
    75         25
    76         60
    77        296
    78        999
    79        168
    80         28
    81        100
    82         44
    83        112
    84         40
    85         76
    86         18
    87         24
    88          8
    89         17
    90          7
    91        140
    92         26
    93         60
    94         32
    95         88
    96         48
    97        100
    98         40
    99         40
   100         10
   101         26
   102         15
   103         24
   104         25
   105         84
   106         23
   107         68
   108         20
   109         64
   110         28
   111         60
   112         28
   113         36
   114         28
   115         68
   116         25
   117         60
   118         18
   119         48
   120         24
   121         44
   122         24
   123         64
   124         40
   125         56
   126         23
   127         32
   128         96
   129        140
   130         36
   131         52
   132         20
   133         44
   134         22
   135         32
   136         20
   137         23
   138         15
   139         20
   140         23
   141         40
   142         28
   143         92
   144         25
   145         40
   146         19
   147         32
   148         22
   149        156
   150         22
   151         19
   152         22
   153         21
   154         13
   155         18
   156         12
   157         28
   158         18
   159         36
   160         19
   161         28
   162         16
   163         21
   164         14
   165         32
   166         25
   167         32
   168         15
   169         18
   170         12
   171         28
   172         48
   173         44
   174         22
   175         36
   176         18
   177         18
   178         21
   179         19
   180         15
   181         15
   182          8
   183         16
   184         10
   185         28
   186         16
   187         24
   188         10
   189         22
   190         14
   191         18
   192         17
   193         14
   194         12
   195         18
   196         10
   197         20
   198         16
   199         32
   200         22
   201         48
   202         24
   203         22
   204         27
   205         24
   206         10
   207         12
   208         17
   209         23
   210         15
   211         22
   212         11
   213         20
   214         10
   215         25
   216         14
   217         16
   218         64
   219         36
   220         13
   221         15
   222         52
   223         32
   224         18
   225         22
   226         13
   227         18
   228         12
   229         10
   230          6
   231         15
   232          8
   233         11
   234          9
   235         12
   236         13
   237         11
   238          8
   239         18
   240          9
   241         15
   242          8
   243         10
   244          8
   245         14
   246         13
   247         11
   248          6
   249         16
   250          9
   251         17
   252         10
   253         11
   254         14
   255         11
   256         10
   257          9
   258         12
   259         11
   260         12
   261         13
   262          8
   263         14
   264         16
   265         14
   266          6
   267         16
   268          7
   269         11
   270          5
   271          7
   272          4
   273          5
   274          8
   275          8
   276          9
   277         15
   278          9
   279         20
   280         12
   281         12
   282         15
   283         11
   284          8
   285          7
   286          3
   287          4
   288          3
   289          4
   290          4
   291          5
   292         32
   293         22
   294         14
   295         14
   296          6
   297          8
   298         10
   299          8
   300          9
   301          5
   302          6
   303          4
   304          4
   305          2
   306          3
   307          3
   308          5
   309         10
   310         48
   311         44
   312         16
   313          8
   314          6
   315          4
   316          2
   317          2
   318          3
   319          2
   320          3
   321          2
   322          2
   323          5
   324          3
   325          3
   326          4
   327         11
   328         40
   329         32
   330         11
   331          3
   332         10
   333          4
   334          3
   335          2
   336          2
   337          3
   338          2
   339          3
   340          2
   341          5
   342          2
   343          5
   344          2
   345          5
   346          6
   347          5
   348          3
   349          3
   350          4
   351          2
   352          4
   353          7
   354          2
   355          4
   356          2
   357          2
   358          1
   359          2
   360          2
   361          2
   362          2
   363          3
   364          2
   365          4
   366          1
   367          2
   368          4
   369          4
   370          6
   371          6
   372          3
   373          2
   374          1
   375          1
   376          2
   377          1
   378          2
   379          3
   380          1
   381          2
   382          2
   383          2
   384          1
   385          2
   386          2
   387          2
   388          3
   389         40
   390          9
   391          4
   392          2
   393          2
   394          2
   395          2
   396          2
   397          1
   398          2
   399          1
   400          3
   401          1
   402          2
   403          2
   404          2
   405          2
   406          2
   407          8
   408          2
   409          2
   410          3
   411          2
   412          2
   413          2
   414          2
   415          1
   416          3
   417          1
   418          2
   419          2
   420          2
   421          2
   422          2
   423          2
   424          4
   425          8
   426          4
   427          2
   428          3
   429          2
   430          2
   431          0
   432          2
   433          2
   434          2
   435          2
   436          3
   437          2
   438          2
   439          2
   440          5
   441          4
   442          2
   443          1
   444          1
   445          2
   446         16
   447          7
   448          2
   449          1
   450          2
   451          3
   452          1
   453          1
   454          4
   455          2
   456          3
   457          2
   458          2
   459          2
   460          1
   461          1
   462          0
   463          1
   464          0
   465          1
   466          1
   467          1
   468          4
   469          1
   470          1
   471          1
   472          2
   473          0
   474          0
   475          1
   476          1
   477          1
   478          0
   479          1
   480          1
   481          1
   482          2
   483          1
   484          1
   485          1
   486          1
   487          1
   488          2
   489          1
   490          1
   491          1
   492          1
   493          1
   494          1
   495          1
   496          0
   497          0
   498          0
   499          0
   500          1
   501          1
   502          1
   503          1
   504          0
   505          1
   506          1
   507          0
   508          1
   509          1
   510          2
   511          1
   512          1
   513          1
   514          0
   515          0
   516          1
   517          0
   518          2
   519          1
   520          1
   521          1
   522          1
   523          1
   524          1
   525          0
   526          0
   527          0
   528          4
   529          1
   530          1
   531          1
   532          2
   533          0
   534          0
   535          0
   536          1
   537          1
   538          1
   539          0
   540          1
   541          0
   542          0
   543          0
   544          1
   545          1
   546          2
   547          2
   548          1
   549          1
   550          1
   551          1
   552          0
   553          0
   554          1
   555          1
   556          1
   557          0
   558          0
   559          0
   560          1
   561          1
   562          1
   563          0
   564          1
   565          0
   566          1
   567          0
   568          0
   569          0
   570          0
   571          0
   572          0
   573          0
   574          0
   575          1
   576          1
   577          1
   578          1
   579          1
   580          2
   581          1
   582          0
   583          0
   584          0
   585          0
   586          1
   587          0
   588          4
   589          1
   590          1
   591          0
   592          1
   593          0
   594          0
   595          0
   596          0
   597          0
   598          0
   600          0
   601          0
   602          2
   603          2
   604          1
   605          1
   606         19
   607          8
   608          2
   609          1
   610          0