##TITLE=Library Entry 100222
##JCAMP-DX=Revision 4.10 
##DATA TYPE=MASS SPECTRUM
##SAMPLE DESCRIPTION=NIST Mass Spectrometry Data Center, 1998.
##NAMES=HP
##CAS NAME=Benzoic acid, 2-amino-, butyl ester
##MOLFORM=C11H15NO2
##CAS REGISTRY NO=7756-96-9
##MP= -300
##BP= -300
##MW= 193
##$RETENTION INDEX=1600
##$CONDENSED SPECTRUM=NO
##NPOINTS= 77
##XYDATA=(XY..XY) 1 
    15          1
    26          3
    27         24
    28          3
    29         40
    30          2
    31          1
    37          2
    38          9
    39         59
    40          6
    41         51
    42          7
    43          6
    44          2
    45          1
    46          1
    50          6
    51          7
    52         24
    53         10
    54          4
    55          9
    56          4
    57          9
    60          1
    61          2
    62          7
    63         33
    64         41
    65        202
    66         30
    67          2
    68          1
    71          1
    74          2
    75          3
    76          5
    77          4
    78          2
    79          1
    80          4
    81          1
    88          1
    89          2
    90         14
    91         48
    92        312
    93         58
    94          4
   104          1
   105          1
   106          1
   108          1
   117          1
   119        999
   120        340
   121         31
   122          2
   130          1
   132          4
   133          1
   136          7
   137        274
   138         24
   139          2
   146         10
   147          2
   150          1
   160          2
   164          1
   174          1
   175          9
   176          1
   193        299
   194         38
   195          3