##TITLE=Library Entry 6708
##JCAMP-DX=Revision 4.10 
##DATA TYPE=MASS SPECTRUM
##SAMPLE DESCRIPTION=E. DE HOFFMANN, LAB. MASS SPECTROM., UNIV. LOUVAIN, BEL
G
##NAMES=HP
##CAS NAME=2-Acetoxy-N,N-dimethyl-2-propenamidine
##MOLFORM=C7H12N2O2
##CAS REGISTRY NO=77564-35-3
##MP= -300
##BP= -300
##MW= 156
##$RETENTION INDEX=0
##$CONDENSED SPECTRUM=NO
##NPOINTS= 42
##XYDATA=(XY..XY) 1 
    30         38
    32         21
    40         25
    41        160
    42        531
    43        999
    44        992
    45        339
    46         66
    53         11
    54         23
    55         25
    56         65
    57        190
    58        139
    65         13
    68         35
    69         15
    70         20
    71        147
    72        395
    73         42
    74         14
    83         18
    84         85
    85         23
    86         18
    96         30
    97         15
    99         32
   109         26
   110         17
   111         20
   112         66
   113        474
   114        282
   115         20
   138        154
   139         16
   155         12
   156        317
   157         40