##TITLE=Library Entry 8608
##JCAMP-DX=Revision 4.10 
##DATA TYPE=MASS SPECTRUM
##SAMPLE DESCRIPTION=DKFZ HD SCHMIDT, HEIDELBERG, GERMANY, F.R.G.
##NAMES=HP
##CAS NAME=1H-Cyclopropa[3,4]benz[1,2-e]azulene-2,5-dione, 9,9a-bis(acetylox
y)-3-[(acetyloxy)methyl]-1a,1b,4a,7a,7b,8,9,9a-octahydro-4a,7b-dihydroxy-1,1
,6,8-tetramethyl-, [1aR-(1a.alpha.,1b.beta.,4a.beta.,7a.alpha.,7b.alpha.,8.a
lpha.,9.beta.,9a.alpha.)]-
##MOLFORM=C26H32O10
##CAS REGISTRY NO=77573-14-9
##MP= -300
##BP= -300
##MW= 504
##$RETENTION INDEX=0
##$CONDENSED SPECTRUM=NO
##NPOINTS= 421
##XYDATA=(XY..XY) 1 
    18          1
    19          0
    24          0
    25          2
    26          9
    27         56
    28        126
    29         43
    30          1
    31          4
    32          7
    36          0
    37          2
    38          5
    39        116
    40         28
    41        320
    42         56
    43        999
    44         75
    45         97
    46          1
    47          1
    49          0
    50          8
    51         31
    52         25
    53        262
    54         30
    55        155
    56         13
    57         83
    58          9
    59         21
    60         66
    61         27
    62          3
    63         18
    64          8
    65         84
    66         24
    67        135
    68         29
    69        592
    70         51
    71         21
    72          2
    73          4
    74          3
    75          4
    76          5
    77        203
    78         60
    79        135
    80         26
    81        116
    82         72
    83        310
    84         22
    85         62
    86          6
    87          4
    88          1
    89         13
    90          8
    91        271
    92         49
    93        106
    94         32
    95        145
    96        106
    97         55
    98         15
    99         10
   100          4
   101         15
   102         11
   103         60
   104         24
   105        126
   106         29
   107         97
   108         34
   109        310
   110         42
   111         48
   112         16
   113         14
   114         14
   115         64
   116         27
   117         43
   118         14
   119         82
   120        116
   121        203
   122         58
   123         82
   124         59
   125         70
   126         11
   127         28
   128         49
   129         54
   130         19
   131         66
   132         56
   133         79
   134         36
   135         79
   136         42
   137         92
   138         39
   139         30
   140          9
   141         38
   142         29
   143         36
   144         19
   145         66
   146         29
   147        106
   148        213
   149        242
   150         61
   151         84
   152         31
   153         29
   154         14
   155         27
   156         24
   157         36
   158         29
   159         75
   160        116
   161         96
   162         35
   163         63
   164         53
   165        106
   166         49
   167         82
   168         21
   169         25
   170         16
   171         41
   172         32
   173         73
   174         40
   175        116
   176        155
   177        174
   178         44
   179         39
   180         16
   181         33
   182         19
   183         32
   184         19
   185         51
   186         32
   187         67
   188         33
   189         55
   190         33
   191         49
   192         21
   193         67
   194         16
   195         28
   196         19
   197         38
   198         23
   199         59
   200         31
   201         63
   202         33
   203         56
   204         28
   205         36
   206         14
   207         20
   208         14
   209         34
   210         26
   211         55
   212         35
   213         71
   214         34
   215         60
   216         29
   217         45
   218         34
   219         37
   220         14
   221         19
   222         12
   223         40
   224         22
   225         49
   226         31
   227        116
   228         53
   229         80
   230         32
   231         58
   232         19
   233         19
   234         10
   235         23
   236         14
   237         40
   238         55
   239        135
   240         44
   241         50
   242         23
   243         35
   244         18
   245         50
   246         19
   247         18
   248          8
   249         33
   250         18
   251         34
   252         15
   253         52
   254         42
   255        466
   256        155
   257         84
   258         33
   259         24
   260         10
   261         16
   262         10
   263         33
   264         18
   265         34
   266         27
   267         62
   268         50
   269         37
   270         14
   271         38
   272         25
   273         49
   274         17
   275         12
   276          8
   277         33
   278         38
   279         54
   280         27
   281         84
   282         38
   283         54
   284         23
   285         34
   286         17
   287         24
   288          9
   289         12
   290          5
   291         51
   292         23
   293         15
   294          9
   295         79
   296        116
   297         75
   298         42
   299         46
   300         33
   301         33
   302          8
   303          4
   304          4
   305         19
   306         64
   307         63
   308         24
   309         79
   310         51
   311         25
   312         11
   313         82
   314        106
   315         94
   316         31
   317         11
   318          8
   319          3
   320          1
   321          2
   322          5
   323         71
   324        330
   325        271
   326         66
   327         39
   328         21
   329          8
   330          3
   331         51
   332         14
   333          5
   334          2
   335          1
   336          0
   337          3
   338          5
   339         12
   340          9
   341        106
   342        106
   343         55
   344         13
   345          4
   346          3
   347          1
   348         17
   349          8
   350          2
   351          9
   352          8
   353          4
   354          2
   355         34
   356         48
   357         20
   358          8
   359         14
   360          7
   361          2
   362          0
   364          0
   365          2
   366         24
   367         41
   368         12
   369         37
   370         41
   371         12
   372          3
   373         10
   374          6
   375          1
   376          0
   377          0
   381          0
   382          1
   383         43
   384        213
   385        116
   386         31
   387         13
   388          5
   389          1
   390          0
   391          0
   392          0
   393          0
   394          0
   397          0
   398          1
   399          0
   400          3
   401         43
   402         84
   403         21
   404          3
   405          0
   408          1
   409          3
   410          1
   411          7
   412          2
   413          1
   414          1
   415          5
   416          5
   417          1
   418          0
   419          1
   420          0
   424          0
   425          3
   426         22
   427         14
   428          4
   429          4
   430         10
   431          7
   432          1
   433          0
   434          0
   442          1
   443         52
   444        291
   445        223
   446          5
   447          9
   448          1
   458          2
   459          0
   460          1
   461         69
   462         22
   463          4
   464          0
   471          0
   472          0
   486          3
   487          1
   488          0
   490          0
   504          5
   505          1
   506          0