##TITLE=Library Entry 6310
##JCAMP-DX=Revision 4.10 
##DATA TYPE=MASS SPECTRUM
##SAMPLE DESCRIPTION=DKFZ HD SORG, HEIDELBERG, GERMANY, F.R.G.
##NAMES=HP
##CAS NAME=7H-6,9a-Methano-4H-cyclopenta[9,10]cyclopropa[5,6]cyclodeca[1,2-d
]-1,3-dioxin-13-one, 12-(acetyloxy)-6,6a,7a,8,9,12,12a,12b-octahydro-12a-hyd
roxy-2,2,7,7,9,11-hexamethyl-, [6R-(6.alpha.,6a.alpha.,7a.alpha.,9.alpha.,9a
.alpha.,12.beta.,12a.beta.,12b
##MOLFORM=C25H34O6
##CAS REGISTRY NO=77573-46-7
##MP= -300
##BP= -300
##MW= 430
##$RETENTION INDEX=0
##$CONDENSED SPECTRUM=NO
##NPOINTS= 344
##XYDATA=(XY..XY) 1 
    12          1
    13          2
    14         10
    15         53
    16          5
    17          1
    18          9
    19          0
    23          0
    25          2
    26          9
    27         85
    28         59
    29         65
    30          2
    31         18
    32          7
    36          0
    37          4
    38         10
    39        139
    40         26
    41        252
    42         43
    43        999
    44         24
    45         20
    46          0
    48          0
    49          0
    50         10
    51         39
    52         23
    53        121
    54         14
    55        104
    56          8
    57         15
    58         10
    59         90
    60          9
    61         20
    62          3
    63         17
    64          7
    65         73
    66         34
    67         74
    68          8
    69         65
    70          6
    71          6
    72          1
    73          2
    74          1
    75          4
    76          3
    77        139
    78         35
    79         95
    80         16
    81         41
    82         15
    83         13
    84          1
    85          2
    86          0
    87          1
    88          2
    89          7
    90          2
    91        165
    92         26
    93        104
    94         30
    95         49
    96         26
    97         19
    98          1
    99          0
   100          0
   101          1
   102          4
   103         19
   104         10
   105         62
   106         16
   107         57
   108         14
   109         33
   110         10
   111          8
   112          1
   113          1
   114          1
   115         28
   116         11
   117         20
   118          6
   119         33
   120         13
   121        139
   122        156
   123         57
   124          7
   125          2
   126          1
   127         11
   128         19
   129         15
   130          8
   131         17
   132          4
   133          7
   134          6
   135         10
   136         13
   137          7
   138          3
   139          3
   140          1
   141          3
   142          2
   143          3
   144          2
   145         11
   146          3
   147          8
   148         12
   149          9
   150          4
   151          5
   152          2
   153          2
   154          1
   155          3
   156          1
   157          3
   158          3
   159          9
   160          4
   161         13
   162         18
   163         11
   164          4
   165          8
   166          4
   167          4
   168          2
   169          7
   170          4
   171         12
   172          7
   173         15
   174         11
   175         23
   176         89
   177        130
   178         23
   179          7
   180          3
   181         33
   182          6
   183          7
   184          3
   185         10
   186          7
   187         19
   188         20
   189         31
   190         47
   191         24
   192          7
   193          8
   194          5
   195          9
   196          5
   197          9
   198          6
   199         13
   200          7
   201         13
   202         11
   203         13
   204          6
   205          3
   206          1
   207          4
   208          4
   209          4
   210          4
   211          8
   212          3
   213         13
   214          4
   215         17
   216         13
   217         10
   218          3
   219          4
   220          9
   221          3
   222          8
   223         13
   224          8
   225         14
   226          8
   227         17
   228          8
   229          9
   230          6
   231          6
   232          3
   233          4
   234          2
   235          7
   236          3
   237          7
   238          4
   239         10
   240          4
   241         53
   242         15
   243         20
   244          7
   245          3
   246          1
   247          2
   248          1
   249         34
   250         10
   251         19
   252          6
   253          8
   254          6
   255         17
   256          8
   257          6
   258          1
   259          2
   260          1
   261          4
   262          1
   263          1
   264          1
   265          7
   266         10
   267         13
   268          5
   269         36
   270         13
   271          3
   272          1
   273          1
   274          1
   275          1
   276          1
   277          2
   278          4
   279         15
   280          2
   281          2
   282          6
   283         21
   284         42
   285         12
   286          2
   287          1
   288          0
   289          0
   292          0
   293          1
   294         13
   295         12
   296          3
   297         20
   298          4
   299          2
   300          0
   301          2
   302          1
   303          2
   304          0
   305          0
   308         26
   309          4
   310          1
   311          2
   312        147
   313         42
   314          8
   315          1
   316          0
   317          0
   322          0
   323          0
   324          0
   325          2
   326          1
   327          1
   328          0
   329          2
   330          4
   331          1
   336          0
   337          0
   338          0
   339          0
   340          0
   341          0
   342          1
   343          1
   344          1
   345          0
   352          1
   353          0
   354          2
   355          1
   356          1
   357          0
   358          0
   360          0
   361          0
   368          0
   369          0
   370         11
   371          3
   372          4
   373          1
   374          0
   386          0
   387          0
   388          0
   400          0
   412          0
   414          0
   415          3
   416          0
   417          0
   428          0
   429          0
   430         13
   431          2
   432          0