##TITLE=Library Entry 52853
##JCAMP-DX=Revision 4.10 
##DATA TYPE=MASS SPECTRUM
##SAMPLE DESCRIPTION=DKFZ HD SCHMIDT, HEIDELBERG, GERMANY, F.R.G.
##NAMES=HP
##CAS NAME=2-Butenoic acid, 2-methyl-, 1,1a,1b,4,4a,5,7a,7b,8,9-decahydro-4a
,7b-dihydroxy-1,1,6,8-tetramethyl-3-[[(2-methyl-1-oxo-2-butenyl)oxy]methyl]-
5-oxo-9aH-cyclopropa[3,4]benz[1,2-e]azulene-9,9a-diyl ester, [1aR-[1a.alpha.
,1b.beta.,3(E),4a.beta.,7a.alp
##MOLFORM=C35H46O9
##CAS REGISTRY NO=77573-12-7
##MP= -300
##BP= -300
##MW= 610
##$RETENTION INDEX=0
##$CONDENSED SPECTRUM=NO
##NPOINTS= 508
##XYDATA=(XY..XY) 1 
    12          7
    13          1
    14          5
    15         30
    16          9
    17          5
    18          9
    19          1
    20          0
    22          0
    24          1
    25          7
    26         44
    27        383
    28        205
    29        616
    30         20
    31         15
    32          8
    35          0
    36          4
    37         22
    38         40
    39        553
    40         86
    41        537
    42         48
    43        300
    44         94
    45         60
    46          2
    47          1
    48          1
    49         15
    50         71
    51        110
    52         62
    53        660
    54        411
    55        861
    56        359
    57        150
    58         15
    59         21
    60          7
    61          2
    62          7
    63         22
    64         11
    65         98
    66         37
    67        126
    68         24
    69        826
    70         55
    71         35
    72          8
    73         13
    74         13
    75          7
    76         10
    77        205
    78         79
    79        280
    80         62
    81        142
    82        347
    83        999
    84        999
    85        154
    86         11
    87          9
    88          2
    89         13
    90          7
    91        308
    92         52
    93        173
    94         39
    95        142
    96         42
    97         31
    98         12
    99         22
   100        197
   101        142
   102         18
   103         48
   104         29
   105        292
   106         79
   107        268
   108         77
   109        667
   110         98
   111         77
   112         37
   113         11
   114          7
   115         86
   116         36
   117         94
   118         32
   119        142
   120        134
   121        442
   122        205
   123        166
   124         69
   125         53
   126         15
   127         30
   128         77
   129         86
   130         39
   131        110
   132         68
   133        118
   134         54
   135         86
   136         90
   137         82
   138         68
   139         53
   140         12
   141         56
   142         55
   143         94
   144         54
   145        150
   146         65
   147        118
   148         69
   149        106
   150         52
   151         62
   152         35
   153         37
   154         19
   155         45
   156         35
   157        110
   158         94
   159        158
   160         68
   161        118
   162         75
   163         59
   164         29
   165         59
   166         30
   167         57
   168         29
   169         49
   170         40
   171        122
   172        166
   173        335
   174         86
   175         98
   176         55
   177        110
   178         60
   179         86
   180         29
   181         40
   182         22
   183         62
   184         30
   185         79
   186         79
   187        102
   188         56
   189         79
   190         44
   191         37
   192         22
   193         30
   194         26
   195         53
   196         49
   197         71
   198         68
   199        134
   200         94
   201        126
   202         62
   203         86
   204         46
   205         86
   206         58
   207         60
   208         33
   209         47
   210         44
   211         67
   212         41
   213        150
   214        114
   215         94
   216         45
   217         55
   218         22
   219         19
   220         24
   221         45
   222         28
   223         72
   224         57
   225         94
   226         56
   227         90
   228         67
   229         57
   230         30
   231         70
   232         26
   233         25
   234         15
   235         37
   236         38
   237         60
   238         26
   239         73
   240         66
   241         94
   242         46
   243         45
   244         41
   245         27
   246         13
   247         16
   248         18
   249         62
   250         38
   251         71
   252         46
   253         94
   254         79
   255         44
   256         15
   257         26
   258         28
   259         43
   260         19
   261         21
   262         11
   263         50
   264         66
   265         81
   266         51
   267        118
   268         41
   269         46
   270         33
   271         38
   272         27
   273         39
   274         19
   275         20
   276         15
   277         60
   278         23
   279         23
   280         24
   281        110
   282        264
   283         94
   284         26
   285         33
   286         16
   287         11
   288          7
   289          7
   290         22
   291         73
   292        197
   293         94
   294         37
   295         94
   296         34
   297         36
   298         24
   299         81
   300         46
   301         50
   302         12
   303          6
   304          4
   305         11
   306         44
   307         18
   308         28
   309        237
   310        996
   311        308
   312         62
   313         24
   314         15
   315          9
   316          3
   317          6
   318          2
   319          2
   320          1
   321          2
   322          4
   323          7
   324          9
   325         10
   326         26
   327        237
   328        110
   329         27
   330          6
   331          6
   332          2
   333          2
   334          5
   335          7
   336          3
   337          9
   338          2
   339          3
   340          4
   341         37
   342         14
   343         11
   344          5
   345         10
   346          3
   347          2
   348          2
   349          3
   350          2
   351          3
   352          5
   353          7
   354          5
   355          5
   356          1
   357          1
   358          1
   359          2
   360          2
   361          1
   362          1
   363          3
   364         11
   365          6
   366          6
   367          9
   368          5
   369          4
   370          3
   371          2
   372          1
   373          2
   374         11
   375          6
   376          2
   377          5
   378          2
   379          2
   380          2
   381         15
   382         48
   383         13
   384          5
   385          3
   386          1
   387          0
   388          2
   389          0
   390          1
   391         15
   392         90
   393         41
   394         15
   395         24
   396          7
   397          4
   398          2
   399          5
   400          3
   401          1
   402          0
   403          0
   404          0
   405          0
   406          0
   407          1
   408         10
   409         60
   410        584
   411        213
   412         58
   413         11
   414          3
   415          1
   416          0
   417          0
   418          0
   419          0
   420          0
   421          0
   422          1
   423          1
   424          0
   425          1
   426         10
   427        102
   428         58
   429         15
   430          2
   431          0
   432          0
   434          1
   435          1
   436          0
   437          1
   438          0
   439          0
   440          0
   441          1
   442          0
   443          0
   444          0
   445          0
   446          0
   447          0
   448          0
   449          0
   450          0
   451          0
   452          0
   453          0
   454          0
   455          1
   456          0
   457          0
   458          0
   459          0
   461          0
   462          0
   463          0
   464          4
   465          1
   466          0
   467          0
   468          0
   469          0
   470          0
   471          0
   473          0
   474          2
   475          0
   476          0
   477          0
   478          0
   479          0
   480          0
   481          1
   482          3
   483          2
   484          0
   485          0
   491          1
   492         18
   493          7
   494          2
   495          6
   496          1
   497          0
   498          0
   499          0
   508          0
   509          2
   510        118
   511        343
   512         94
   513         23
   514          3
   515          0
   522          0
   523          0
   524          0
   525          0
   526          1
   527         15
   528          5
   529          1
   530          0
   537          3
   538          1
   539          0
   540          1
   541          0
   555         15
   556          4
   557          0
   574          0
   592          0
   593          0
   594          0
   610         16
   611          6
   612          1