##TITLE=Library Entry 36394
##JCAMP-DX=Revision 4.10 
##DATA TYPE=MASS SPECTRUM
##SAMPLE DESCRIPTION=D.J.HARVEY UNIV. DEPT. OF PHARMACOLOGY, OXFORD, UK
##NAMES=HP
##CAS NAME=1,5-Pentanediol, 2TBDMS derivative
##MOLFORM=C17H40O2Si2
##CAS REGISTRY NO=77572-86-2
##MP= -300
##BP= -300
##MW= 332
##$RETENTION INDEX=1627
##$CONDENSED SPECTRUM=NO
##NPOINTS= 17
##XYDATA=(XY..XY) 1 
    41         64
    68         13
    69        999
    70         48
    73         63
    75         11
   147        512
   148         83
   149         86
   150         11
   163         37
   189        184
   190         39
   191         35
   219         37
   275         49
   276         14