##TITLE=Library Entry 9356
##JCAMP-DX=Revision 4.10 
##DATA TYPE=MASS SPECTRUM
##SAMPLE DESCRIPTION=DKFZ HD SCHWEIZER, HEIDELBERG, GERMANY, F.R.G.
##NAMES=HP
##CAS NAME=Benzenepropanoic acid, .alpha.-(acetyloxy)-3-hydroxy-4-(phenylazo
)-, methyl ester, (.+/-.)-
##MOLFORM=C18H18N2O5
##CAS REGISTRY NO=77573-40-1
##MP= -300
##BP= -300
##MW= 342
##$RETENTION INDEX=0
##$CONDENSED SPECTRUM=NO
##NPOINTS= 295
##XYDATA=(XY..XY) 1 
    12          2
    13          3
    14         15
    15        294
    16          3
    17          2
    18          7
    24          0
    25          1
    26         14
    27         72
    28         37
    29         56
    30          7
    31         13
    32          3
    33          7
    36          0
    37         12
    38         36
    39        165
    40         20
    41         33
    42         52
    43        999
    44         33
    45         19
    46          0
    49          2
    50         61
    51        269
    52         62
    53         46
    54          8
    55         40
    56          4
    57         17
    58          0
    59        105
    60          9
    61         22
    62         18
    63         69
    64         55
    65        202
    66         36
    67         13
    68          3
    69         13
    70          3
    71          7
    72          0
    73          4
    74         14
    75         14
    76         26
    77        766
    78        109
    79         92
    80          7
    81          7
    82          2
    83          7
    84          1
    85          3
    86          0
    87          2
    88          4
    89         39
    90         19
    91         62
    92        165
    93         70
    94         13
    95          5
    96          1
    97          4
    98          0
    99          1
   100          0
   101          1
   102          8
   103         12
   104          9
   105        134
   106         52
   107         30
   108          3
   109          4
   110          1
   111          2
   112          0
   113          0
   114          0
   115          8
   116          3
   117         20
   118         33
   119         22
   120          6
   121         12
   122          7
   123          3
   124          0
   125          1
   126          0
   127          3
   128          4
   129          3
   130          3
   131          7
   132          2
   133          5
   134          8
   135         96
   136         13
   137          1
   138          0
   139          2
   140          0
   141          2
   142          1
   143          4
   144          1
   145         71
   146         12
   147         10
   148          2
   149         20
   150          2
   151          1
   152          4
   153          4
   154          3
   155          1
   156          0
   157          1
   158          0
   159          1
   160          0
   161          3
   162          4
   163         19
   164          2
   165          8
   166          3
   167          3
   168          4
   169          2
   170          0
   171          0
   172          0
   175          1
   176          1
   177         45
   178          7
   179          1
   180          9
   181          4
   182          2
   183          5
   184          1
   185          0
   186          0
   187          0
   189          1
   190          0
   191          1
   192          1
   193          3
   194          4
   195          6
   196          4
   197          1
   198          1
   199          0
   200          0
   201          0
   202          0
   203          0
   204          0
   205         30
   206          2
   207          1
   208          0
   209          1
   210          1
   211         13
   212          7
   213          1
   217          0
   218          0
   219          0
   220          0
   221          6
   222          2
   223          3
   224         44
   225          7
   226          1
   227          0
   228          0
   231          0
   232          0
   233          0
   234          0
   235          0
   236          0
   237          0
   238          0
   239          1
   240          4
   241         13
   242          1
   243          0
   244          0
   245          0
   247          0
   248          0
   249          0
   250          0
   251          0
   252          0
   253          1
   254          2
   255          0
   256          0
   257          1
   258          0
   259          0
   260          0
   261          0
   263          0
   264          0
   265          8
   266          2
   267          0
   268          2
   269          1
   270          0
   271          0
   272          0
   273          0
   274          0
   275          0
   278          0
   279          1
   280          0
   281          1
   282         38
   283          8
   284          2
   285          0
   287          0
   288          0
   289          0
   291          0
   292          0
   293          0
   295          0
   298          0
   299          0
   300          0
   301          0
   303          0
   304          0
   305          0
   306          0
   308          0
   309          0
   311          4
   312          1
   315          0
   317          0
   321          0
   323          0
   326          4
   327          0
   328          0
   329          0
   330          0
   331          0
   334          0
   336          0
   337          0
   341          0
   342         44
   343          9
   344          1
   345          0
   346          0
   347          0
   348          0
   349          0
   350          0