##TITLE=Library Entry 78646
##JCAMP-DX=Revision 4.10 
##DATA TYPE=MASS SPECTRUM
##SAMPLE DESCRIPTION=W.BENZ HOFFMANN-LA ROCHE INC., NUTLEY, NEW JERSEY, USA
##NAMES=HP
##CAS NAME=4-Piperidinepropanoic acid, 1-benzoyl-3-(2-chloroethyl)-, ethyl e
ster
##MOLFORM=C19H26ClNO3
##CAS REGISTRY NO=77572-69-1
##MP= -300
##BP= -300
##MW= 351
##$RETENTION INDEX=0
##$CONDENSED SPECTRUM=NO
##NPOINTS= 167
##XYDATA=(XY..XY) 1 
    33          4
    34         14
    35         12
    36         53
    37        117
    38        131
    39        160
    40         22
    41         40
    43         42
    44        106
    45         44
    47         12
    48          8
    49         53
    50        419
    51        626
    52         95
    53         34
    54         22
    56         27
    57          8
    58         13
    59          3
    60         17
    61         23
    62         34
    63         39
    64         12
    65         43
    66         21
    67         23
    68          4
    69         29
    70          8
    71         12
    72         11
    73         70
    74        113
    75         89
    76        121
    77        878
    78        140
    79          6
    80         19
    85         21
    86          9
    87         11
    88          4
    89          2
    90          8
    91         37
    92         19
    93         19
    94         71
    95         16
    96          1
    97         16
    98          4
    99          6
   100          4
   101         12
   102          3
   103          7
   104         16
   105        999
   106         84
   107          4
   109          6
   112         35
   114          4
   119          4
   121         51
   122        595
   123         32
   125          6
   126          9
   127          3
   128          9
   130          6
   131          8
   132         11
   133          7
   134         18
   136          2
   137          8
   138          1
   141          7
   142          8
   143          7
   145          4
   147          3
   148          7
   149         51
   150          7
   151          4
   152         37
   153          6
   154          1
   155          7
   156          3
   157          6
   158          9
   160          2
   161         11
   162          8
   165          6
   166          2
   170          3
   171          2
   173          3
   175          2
   176          3
   177         11
   178          6
   179          8
   180          6
   181          4
   183          1
   184          2
   186          2
   187          4
   190          4
   191          3
   192         13
   193          8
   197          2
   199          2
   203          6
   205          9
   206          7
   208          4
   210          1
   212          2
   213          8
   217          3
   222          3
   224          3
   225          8
   230          4
   233          3
   244          3
   246          6
   252          6
   253          2
   259         18
   261          7
   262          4
   264          2
   267          2
   272          3
   274          3
   281          3
   283          2
   288          8
   289          7
   298          4
   308          6
   314          4
   316         34
   317          4
   318          3
   328          2
   350          7
   351          7
   352          8
   353          2