##TITLE=Library Entry 9681
##JCAMP-DX=Revision 4.10 
##DATA TYPE=MASS SPECTRUM
##SAMPLE DESCRIPTION=DKFZ HD SCHMIDT, HEIDELBERG, GERMANY, F.R.G.
##NAMES=HP
##CAS NAME=5H-Cyclopropa[3,4]benz[1,2-e]azulen-5-one, 9,9a-bis(acetyloxy)-3-
[(acetyloxy)methyl]-2-chloro-1,1a,1b,2,3,4,4a,7a,7b,8,9,9a-dodecahydro-3,4a,
7b-trihydroxy-1,1,6,8-tetramethyl-, [1aR-(1a.alpha.,1b.beta.,2.alpha.,3.alph
a.,4a.beta.,7a.alpha.,7b.alpha
##MOLFORM=C26H35ClO10
##CAS REGISTRY NO=77573-33-2
##MP= -300
##BP= -300
##MW= 542
##$RETENTION INDEX=0
##$CONDENSED SPECTRUM=NO
##NPOINTS= 479
##XYDATA=(XY..XY) 1 
    12          2
    13          2
    14         15
    15        121
    16          3
    17          3
    18         10
    19          1
    20          0
    21          0
    22          0
    23          0
    24          1
    25          4
    26         13
    27         98
    28         92
    29        106
    30          4
    31        125
    32         12
    33          0
    34          0
    35         27
    36         95
    37         10
    38         30
    39        136
    40         30
    41        409
    42         66
    43        999
    44        100
    45         77
    46          1
    47          2
    48          0
    49          2
    50          9
    51         40
    52         33
    53        393
    54         60
    55        212
    56         25
    57        133
    58         21
    59         71
    60         33
    61         33
    62          4
    63         18
    64          6
    65        103
    66         37
    67        140
    68         28
    69        575
    70         59
    71         42
    72          3
    73         86
    74         40
    75         12
    76          5
    77        227
    78         57
    79        227
    80         46
    81        181
    82        142
    83        999
    84         74
    85         95
    86          9
    87         12
    88          2
    89         25
    90          9
    91        257
    92         45
    93        150
    94         45
    95        242
    96        112
    97         72
    98         25
    99         30
   100          6
   101        160
   102         15
   103         48
   104         21
   105        181
   106         42
   107        212
   108        181
   109        651
   110        113
   111        122
   112         42
   113         40
   114        181
   115         72
   116         33
   117         66
   118         21
   119        107
   120         53
   121        196
   122         81
   123        166
   124        227
   125        409
   126         37
   127         43
   128         50
   129         60
   130         25
   131         63
   132         39
   133        137
   134         74
   135        139
   136         54
   137        113
   138         71
   139         54
   140         24
   141         74
   142         39
   143         57
   144         27
   145         86
   146         39
   147         96
   148         65
   149        181
   150         89
   151        127
   152         42
   153         54
   154         21
   155         42
   156        116
   157         68
   158         46
   159        101
   160         59
   161        166
   162         65
   163         89
   164         62
   165         87
   166         59
   167         95
   168         37
   169         75
   170         33
   171         69
   172         40
   173         89
   174         51
   175        157
   176         54
   177        212
   178         75
   179         87
   180         30
   181         53
   182         27
   183         98
   184         31
   185         83
   186         48
   187         75
   188         45
   189         81
   190         34
   191         53
   192         25
   193         56
   194         24
   195         68
   196         81
   197        137
   198         74
   199        103
   200         37
   201         98
   202         54
   203         81
   204         30
   205         53
   206         30
   207         42
   208         48
   209         74
   210         43
   211         89
   212         63
   213        107
   214         50
   215         83
   216         36
   217         46
   218         25
   219         65
   220         30
   221         56
   222         34
   223         63
   224         37
   225         75
   226         69
   227         90
   228         33
   229         83
   230         37
   231         59
   232         21
   233         37
   234         18
   235         46
   236         25
   237         80
   238         40
   239         98
   240         56
   241         71
   242         33
   243         69
   244         42
   245         50
   246         25
   247         39
   248         25
   249         46
   250         31
   251         68
   252         50
   253         71
   254         34
   255         68
   256         34
   257         93
   258         50
   259         37
   260         24
   261         56
   262         45
   263         63
   264         31
   265         78
   266         34
   267         90
   268         66
   269         83
   270         39
   271         43
   272         21
   273         36
   274         16
   275         45
   276         16
   277         31
   278         16
   279         72
   280         74
   281         72
   282         27
   283         56
   284         22
   285         62
   286         40
   287         39
   288         21
   289         33
   290         57
   291         66
   292         21
   293         46
   294         15
   295         53
   296         22
   297         77
   298         56
   299         46
   300         18
   301         21
   302          7
   303         40
   304         18
   305         13
   306         21
   307         42
   308        116
   309        139
   310         42
   311         45
   312         13
   313         89
   314         21
   315         27
   316         16
   317         39
   318         12
   319         10
   320          3
   321         13
   322         65
   323         24
   324         28
   325         71
   326        109
   327         90
   328         30
   329         25
   330         13
   331         31
   332          9
   333         13
   334         10
   335         12
   336          9
   337          6
   338          4
   339         16
   340         16
   341         21
   342          7
   343         48
   344         42
   345         25
   346         18
   347          9
   348          4
   349         12
   350         10
   351         37
   352         13
   353         16
   354          6
   355         12
   356          4
   357         10
   358         10
   359          9
   360          3
   361         16
   362         18
   363         16
   364         10
   365          5
   366          3
   367         10
   368         77
   369         92
   370         25
   371         33
   372          9
   373         25
   374          6
   375          4
   376         10
   377          9
   378         18
   379         13
   380         12
   381          9
   382          6
   383          3
   384          2
   385         15
   386         83
   387         57
   388         16
   389         10
   390          2
   391          3
   392          1
   393          5
   394          4
   395         10
   396          3
   397          7
   398          2
   399          2
   400          1
   401          1
   402          1
   403         18
   404         63
   405         31
   406         22
   407         27
   408          6
   409          6
   410          2
   411         30
   412          7
   413          3
   414          1
   415          0
   416          0
   417          0
   418          1
   419          0
   420          0
   421          5
   422        124
   423         46
   424         48
   425         13
   426          3
   427          1
   428          6
   429         16
   430          4
   431          4
   432          0
   433          0
   434          0
   435          1
   436          0
   437          0
   438          0
   439          3
   440          9
   441          2
   442          3
   443          0
   444          0
   445          1
   446         13
   447        212
   448         60
   449          9
   450          1
   451          0
   452          0
   453          1
   454          0
   455          0
   457          0
   458          0
   459          0
   461          0
   462          0
   463          3
   464         43
   465         13
   466         15
   467         15
   468          3
   469          3
   470          1
   471          0
   473          0
   477          0
   481          1
   482         18
   483         10
   484          6
   485          4
   486          1
   487          0
   488          0
   489          0
   491          0
   498          0
   499          0
   500          1
   501          0
   502          0
   503          0
   506          1
   507          0
   508          0