##TITLE=Library Entry 83369
##JCAMP-DX=Revision 4.10 
##DATA TYPE=MASS SPECTRUM
##SAMPLE DESCRIPTION=DKFZ HD SCHWEIZER, HEIDELBERG, GERMANY, F.R.G.
##NAMES=HP
##CAS NAME=Benzenepropanoic acid, 4-(acetyloxy)-.alpha.-hydroxy-, methyl est
er
##MOLFORM=C12H14O5
##CAS REGISTRY NO=77573-21-8
##MP= -300
##BP= -300
##MW= 238
##$RETENTION INDEX=0
##$CONDENSED SPECTRUM=NO
##NPOINTS= 114
##XYDATA=(XY..XY) 1 
    15          3
    25          0
    26          1
    27          5
    28          6
    29         44
    30         23
    31         45
    32          3
    33         23
    34          0
    37          5
    38         32
    39         63
    40          5
    41         20
    42        107
    43        794
    44         19
    45         23
    46          0
    48          0
    49         11
    50         72
    51        102
    52         61
    53         44
    54          5
    55         22
    56          2
    57          1
    58          6
    59        147
    60          6
    61         20
    62         44
    63         80
    64         20
    65         42
    66         10
    67          2
    68          2
    69          1
    73          3
    74         20
    75         13
    76          6
    77        161
    78        113
    79         73
    80         11
    81         14
    82          2
    84          0
    85          2
    86          4
    87          4
    88          0
    89         45
    90         14
    91         63
    92          5
    93          2
    94         11
    95          5
    96          0
    98          0
   101          1
   102          0
   103          2
   105          6
   106         11
   107        999
   108         88
   109          6
   110          0
   117          1
   118          4
   119         14
   120          4
   121          4
   122          0
   123          1
   131          1
   132          0
   133          1
   134          1
   135          3
   136         35
   137         47
   138          3
   141          0
   143          0
   147         14
   148          1
   149         14
   150          2
   151          0
   161          0
   162          0
   177          7
   178         76
   179         26
   180          2
   194          0
   196        120
   197         13
   198          1
   220          1
   221          0
   237          0
   238         61
   239          7
   240          1