##TITLE=Library Entry 9654
##JCAMP-DX=Revision 4.10 
##DATA TYPE=MASS SPECTRUM
##SAMPLE DESCRIPTION=DKFZ HD SCHMIDT, HEIDELBERG, GERMANY, F.R.G.
##NAMES=HP
##CAS NAME=5H-Cyclopropa[3,4]benz[1,2-e]azulen-5-one, 4,9,9a-tris(acetyloxy)
-3-[(acetyloxy)methyl]-1,1a,1b,4,4a,7a,7b,8,9,9a-decahydro-4a,7b-dihydroxy-1
,1,6,8-tetramethyl-
##MOLFORM=C28H36O11
##CAS REGISTRY NO=77573-16-1
##MP= -300
##BP= -300
##MW= 548
##$RETENTION INDEX=0
##$CONDENSED SPECTRUM=NO
##NPOINTS= 415
##XYDATA=(XY..XY) 1 
    12          0
    13          1
    14          3
    15         19
    16          1
    18          0
    24          0
    25          1
    26          2
    27         13
    28         22
    29         13
    30          0
    31          2
    32          1
    36          0
    37          1
    38          2
    39         25
    40          5
    41         49
    42         24
    43        999
    44         24
    45         43
    46          0
    47          0
    49          1
    50          7
    51         17
    52         13
    53        118
    54         14
    55         65
    56          7
    57         40
    58          6
    59         13
    60         54
    61         21
    62          7
    63         22
    64          9
    65         70
    66         34
    67        100
    68         18
    69        423
    70         31
    71         21
    72          3
    73         11
    74         10
    75         12
    76         11
    77        170
    78         58
    79        173
    80         31
    81         90
    82         76
    83        625
    84         41
    85         52
    86         10
    87         10
    88          4
    89         20
    90          9
    91        309
    92         48
    93        131
    94         43
    95        125
    96         29
    97         26
    98         10
    99          9
   100          5
   101         16
   102         16
   103         53
   104         22
   105        152
   106         29
   107         90
   108         29
   109        277
   110         63
   111         59
   112         26
   113         11
   114         16
   115        111
   116         39
   117         68
   118         22
   119         90
   120         28
   121         83
   122         29
   123         43
   124         29
   125         34
   126          9
   127         31
   128         83
   129         83
   130         26
   131         83
   132         29
   133         62
   134         22
   135         43
   136         34
   137         50
   138         42
   139         32
   140         12
   141         52
   142         41
   143         48
   144         28
   145         83
   146         31
   147         51
   148         30
   149         47
   150         19
   151         40
   152         34
   153         36
   154         18
   155         38
   156         26
   157         45
   158         34
   159         66
   160         31
   161         54
   162         21
   163         25
   164         11
   165         54
   166         22
   167         36
   168         20
   169         36
   170         20
   171         50
   172         24
   173         54
   174         34
   175         43
   176         18
   177         29
   178         25
   179         41
   180         19
   181         30
   182         15
   183         31
   184         19
   185         46
   186         31
   187         57
   188         29
   189         45
   190         20
   191         21
   192         11
   193         20
   194         11
   195         31
   196         22
   197         43
   198         29
   199         35
   200         18
   201         32
   202         33
   203         28
   204         13
   205         19
   206         12
   207         18
   208         18
   209         32
   210         21
   211         42
   212         26
   213         79
   214         33
   215         44
   216         24
   217         25
   218         10
   219         15
   220          9
   221         22
   222         18
   223         33
   224         20
   225         32
   226         27
   227         29
   228         15
   229         36
   230         21
   231         23
   232          9
   233         20
   234         11
   235         22
   236         13
   237         36
   238         25
   239         38
   240         28
   241         37
   242         15
   243         17
   244          9
   245         17
   246          9
   247         15
   248          8
   249         22
   250         19
   251         34
   252         28
   253         27
   254         10
   255         21
   256         12
   257         25
   258         20
   259         11
   260          6
   261         14
   262         21
   263         29
   264         24
   265         48
   266         21
   267         25
   268         19
   269         23
   270         17
   271         19
   272         10
   273          9
   274          4
   275         15
   276          4
   277          7
   278          5
   279         31
   280         66
   281         36
   282         18
   283         29
   284          9
   285         10
   286          5
   287          4
   288          2
   289         10
   290         25
   291         20
   292         11
   293         34
   294         10
   295         15
   296          7
   297         24
   298         31
   299         15
   300          6
   301          5
   302          2
   303          2
   304          1
   305          1
   306          3
   307         20
   308        125
   309         47
   310         18
   311         18
   312          6
   313          3
   314          1
   315          6
   316          2
   317          3
   318          1
   319          1
   320          0
   321          1
   322          3
   323          4
   324          5
   325         27
   326         62
   327         24
   328          8
   329          3
   330          2
   331          0
   332          0
   333          1
   334          1
   335          1
   336          0
   337          1
   338          1
   339          4
   340         14
   341          6
   342          2
   343          7
   344         10
   345          2
   346          0
   347          0
   348          0
   349          0
   350          8
   351          7
   352          3
   353          7
   354          2
   355          2
   356          1
   357          3
   358          4
   359          1
   360          1
   361          0
   362          0
   363          0
   364          0
   366          0
   367          4
   368        118
   369         38
   370          9
   371          2
   372          1
   373          0
   374          0
   375          0
   376          0
   381          0
   382          0
   383          0
   384          2
   385         12
   386         23
   387          6
   388          2
   389          0
   395          0
   398          0
   399          0
   400          1
   401          0
   402          0
   403          1
   404          3
   405          0
   409          0
   410          2
   411          1
   412          1
   413          2
   414          0
   415          0
   416          0
   417          0
   418          0
   426          0
   427          1
   428         37
   429         11
   430          3
   431          1
   440          0
   441          0
   442          0
   444          1
   445          4
   446          9
   447          2
   448          0
   458          0
   459          0
   460          0
   462          0
   470          0
   471          0
   472          0
   473          0
   486          0
   488         10
   489         15
   490          3
   491          0
   500          0
   505          0
   506          0
   530          0
   548          1
   549          0