##TITLE=Library Entry 8485
##JCAMP-DX=Revision 4.10 
##DATA TYPE=MASS SPECTRUM
##SAMPLE DESCRIPTION=DKFZ HD SCHMIDT, HEIDELBERG, GERMANY, F.R.G.
##NAMES=HP
##CAS NAME=5H-Cyclopropa[3,4]benz[1,2-e]azulen-5-one, 9,9a-bis(acetyloxy)-1,
1a,1b,2,4a,7a,7b,8,9,9a-decahydro-2,4a,7b-trihydroxy-3-(hydroxymethyl)-1,1,6
,8-tetramethyl-, [1aR-(1a.alpha.,1b.beta.,2.beta.,4a.beta.,7a.alpha.,7b.alph
a.,8.alpha.,9.beta.,9a.alpha.)
##MOLFORM=C24H32O9
##CAS REGISTRY NO=77573-19-4
##MP= -300
##BP= -300
##MW= 464
##$RETENTION INDEX=0
##$CONDENSED SPECTRUM=NO
##NPOINTS= 401
##XYDATA=(XY..XY) 1 
    14         12
    15         54
    16          1
    17          7
    18         31
    19          0
    24          0
    25          1
    26          2
    27         17
    28         72
    29         72
    30          4
    31          1
    32          5
    33          0
    36          0
    37          0
    38          1
    39         96
    40          8
    41        343
    42         21
    43        999
    44         50
    45         57
    46          1
    47          2
    49          0
    50          4
    51         32
    52         12
    53        186
    54         24
    55        138
    56         18
    57         90
    58         12
    59        132
    60         32
    61         23
    62          3
    63         15
    64          6
    65         53
    66         15
    67        108
    68         25
    69        433
    70         38
    71         31
    72          2
    73         13
    74          8
    75          6
    76          5
    77        168
    78         45
    79        138
    80         24
    81         78
    82         66
    83        240
    84         22
    85         54
    86          6
    87         10
    88          2
    89          9
    90          6
    91        192
    92         31
    93         84
    94         26
    95        120
    96         72
    97         54
    98         15
    99         15
   100          4
   101         14
   102          9
   103         48
   104         19
   105        114
   106         24
   107         96
   108         41
   109        253
   110         34
   111         39
   112         17
   113         18
   114         30
   115         78
   116         34
   117         44
   118         12
   119         52
   120         28
   121        132
   122         43
   123         72
   124         66
   125        108
   126         14
   127         27
   128         46
   129         49
   130         15
   131         45
   132         41
   133         96
   134         66
   135         84
   136         42
   137         78
   138         32
   139         25
   140          8
   141         34
   142         24
   143         36
   144         21
   145         78
   146         34
   147         66
   148         66
   149        240
   150         78
   151         96
   152         29
   153         26
   154         12
   155         23
   156         21
   157         33
   158         31
   159         66
   160         60
   161        132
   162        114
   163         84
   164         72
   165         96
   166         57
   167         56
   168         15
   169         22
   170         15
   171         49
   172         40
   173         57
   174         37
   175         96
   176         37
   177         90
   178         90
   179         78
   180         25
   181         27
   182         17
   183         30
   184         19
   185         51
   186         29
   187         66
   188         49
   189         78
   190         39
   191         59
   192         19
   193         34
   194         15
   195         31
   196         20
   197         40
   198         29
   199         51
   200         34
   201         66
   202         51
   203         72
   204         25
   205         31
   206         13
   207         19
   208         21
   209         30
   210         24
   211         46
   212         39
   213         66
   214         31
   215         59
   216         24
   217         36
   218         48
   219         35
   220         16
   221         21
   222         22
   223         42
   224         21
   225         48
   226         26
   227         60
   228         39
   229         66
   230         36
   231         45
   232         14
   233         15
   234          9
   235         16
   236         11
   237         33
   238         31
   239         66
   240         50
   241         90
   242         25
   243         36
   244         15
   245         30
   246         13
   247         26
   248         14
   249         22
   250         32
   251         46
   252         22
   253         40
   254         13
   255         35
   256         21
   257         66
   258         27
   259         21
   260          6
   261         12
   262         19
   263         22
   264          9
   265         34
   266         12
   267         39
   268         96
   269        132
   270         33
   271         19
   272          6
   273         10
   274          5
   275         20
   276          6
   277         12
   278         21
   279         30
   280         42
   281         32
   282         12
   283         31
   284         10
   285         38
   286         37
   287         27
   288          7
   289         13
   290         22
   291         18
   292          7
   293         33
   294         10
   295         21
   296         17
   297         28
   298         34
   299         22
   300          7
   301          8
   302          4
   303          9
   304          6
   305          2
   306          2
   307         12
   308         78
   309         43
   310         26
   311         31
   312          8
   313         16
   314         11
   315         13
   316          9
   317          4
   318          1
   319          1
   320          0
   321          1
   322          1
   323          1
   324          4
   325         20
   326         96
   327         72
   328         25
   329         19
   330          4
   331          5
   332          1
   333          1
   334          1
   335          2
   336          0
   337          1
   338          1
   339          2
   340         32
   341         33
   342         33
   343         15
   344         44
   345         55
   346         16
   347          3
   348          0
   349          0
   350          2
   351          2
   352          0
   353          2
   354          0
   355          5
   356          4
   357          3
   358          4
   359          2
   360          1
   361         18
   362         12
   363          2
   364          0
   366          0
   367          0
   368         16
   369         31
   370         11
   371          4
   372          1
   373         10
   374          3
   375          1
   376          3
   377          1
   378          0
   381          0
   382          0
   383          0
   384          1
   385          2
   386         46
   387         50
   388         13
   389          4
   390          1
   391          0
   392          0
   393          0
   398          0
   399          0
   400          1
   401          0
   402          4
   403         10
   404         13
   405        253
   406         53
   407         10
   408          1
   409          0
   410          0
   415          0
   416          0
   417          0
   418          1
   419          1
   420          0
   421         14
   422          3
   423          0
   428          1
   429          0
   430          0
   446          1
   447          1
   448          0
   449          0
   464          2
   465          0