##TITLE=Library Entry 9659
##JCAMP-DX=Revision 4.10 
##DATA TYPE=MASS SPECTRUM
##SAMPLE DESCRIPTION=DKFZ HD SCHMIDT, HEIDELBERG, GERMANY, F.R.G.
##NAMES=HP
##CAS NAME=5H-Cyclopropa[3,4]benz[1,2-e]azulen-5-one, 2,4a,9,9a-tetrakis(ace
tyloxy)-3,[(acetyloxy)methyl]-1,1a,1b,2,3,4,4a,7a,7b,8,9,9a-dodecahydro-2,7b
-dihydroxy-1,1,6,8-tetramethyl-, [1aR-(1a.alpha.,1b.beta.,2.alpha.,3.beta.,4
a.beta.,7a.alpha.,7b.alpha.,8.
##MOLFORM=C30H40O13
##CAS REGISTRY NO=77573-25-2
##MP= -300
##BP= -300
##MW= 608
##$RETENTION INDEX=0
##$CONDENSED SPECTRUM=NO
##NPOINTS= 448
##XYDATA=(XY..XY) 1 
    13          1
    14          2
    15         12
    16          1
    17          1
    18          1
    24          0
    25          0
    26          2
    27          7
    28         44
    29         14
    30          1
    31          6
    32          3
    37          0
    38          1
    39         10
    40          2
    41         44
    42         20
    43        999
    44         23
    45         25
    46          0
    47          0
    50          1
    51          4
    52          3
    53         46
    54          3
    55         28
    56          2
    57         17
    58          2
    59          4
    60         16
    61          8
    62          1
    63          2
    64          1
    65          9
    66          2
    67         21
    68          3
    69        120
    70         11
    71         13
    72          1
    73         23
    74          2
    75          1
    76          0
    77         31
    78         10
    79         42
    80          8
    81         23
    82         13
    83        185
    84         12
    85         14
    86          1
    87          1
    88          0
    89          1
    90          1
    91         33
    92          6
    93         22
    94          6
    95         34
    96         20
    97         14
    98          7
    99          2
   100          2
   101         38
   102          2
   103          6
   104          1
   105         25
   106          6
   107         49
   108         45
   109         95
   110         14
   111         16
   112          3
   113          7
   114         25
   115         11
   116          4
   117          9
   118          2
   119         15
   120          7
   121         33
   122         14
   123         25
   124         33
   125         53
   126          4
   127          6
   128          7
   129         11
   130          3
   131         11
   132          4
   133         20
   134         12
   135         29
   136          8
   137         17
   138          8
   139         10
   140          3
   141         13
   142          4
   143          9
   144          3
   145         15
   146          7
   147         17
   148         13
   149         42
   150         16
   151         26
   152          7
   153          8
   154          3
   155          7
   156         16
   157         11
   158          8
   159         19
   160         11
   161         30
   162         13
   163         18
   164         14
   165         24
   166         13
   167         16
   168          4
   169          8
   170          3
   171         10
   172          9
   173         17
   174         10
   175         28
   176         12
   177         38
   178         18
   179         19
   180          4
   181          9
   182          4
   183         20
   184          7
   185         18
   186         11
   187         15
   188          9
   189         13
   190          6
   191         10
   192          6
   193         13
   194          4
   195         18
   196          7
   197         16
   198         12
   199         13
   200          7
   201         26
   202         13
   203         15
   204          6
   205         12
   206          3
   207          9
   208         13
   209         12
   210          9
   211         19
   212         13
   213         27
   214         12
   215         14
   216          6
   217         13
   218          9
   219         18
   220         12
   221         18
   222         10
   223         12
   224          9
   225         18
   226         21
   227         16
   228          7
   229         13
   230          7
   231         12
   232          3
   233          6
   234          3
   235         11
   236          9
   237         20
   238         12
   239         24
   240         15
   241         16
   242          7
   243         12
   244          8
   245         12
   246          3
   247          8
   248          2
   249         12
   250         12
   251         17
   252         14
   253         16
   254         12
   255         25
   256         11
   257         13
   258          8
   259          6
   260          7
   261         19
   262         18
   263         14
   264          8
   265         17
   266         11
   267         40
   268         27
   269         16
   270         11
   271          9
   272          9
   273         10
   274          3
   275         10
   276          3
   277         10
   278          7
   279         22
   280         24
   281         12
   282          4
   283         12
   284          5
   285         16
   286         16
   287          6
   288          2
   289         12
   290         37
   291         20
   292          7
   293         13
   294          3
   295         42
   296         14
   297         22
   298         12
   299          9
   300          3
   301          4
   302          1
   303          4
   304          4
   305          2
   306          7
   307         21
   308         62
   309         28
   310         11
   311          9
   312          6
   313         16
   314          4
   315          6
   316          2
   317          6
   318          2
   319          1
   320          0
   321          9
   322          3
   323          2
   324          2
   325         21
   326         31
   327         23
   328         11
   329          4
   330         23
   331          6
   332          2
   333          4
   334          1
   335          2
   336          0
   337          2
   338          1
   339          4
   340         10
   341          3
   342          1
   343         12
   344          7
   345          3
   346          7
   347          1
   348          3
   349          3
   350         15
   351         12
   352          3
   353          4
   354          1
   355         29
   356          9
   357          7
   358          3
   359          2
   360          0
   361          1
   362          0
   363          0
   364          0
   365          1
   366          1
   367         10
   368         64
   369         27
   370         10
   371          7
   372         19
   373         10
   374          2
   375          1
   376          0
   377          3
   378          1
   379          0
   382          0
   383          0
   384          1
   385         16
   386         36
   387         11
   388          3
   389          1
   390          0
   391          0
   392          0
   393          3
   394          0
   395          0
   397          0
   398          0
   399          0
   400          1
   401          2
   402          1
   403          4
   404          3
   405          1
   406          0
   407          0
   408          2
   409          2
   410         11
   411          9
   412          3
   413          2
   414          2
   415          3
   416          0
   417          1
   418          1
   419          1
   420          0
   421          0
   427          3
   428         49
   429         20
   430          8
   431          1
   432          0
   433          0
   435          0
   444          1
   445          3
   446         20
   447          6
   448          1
   449          0
   453          0
   459          0
   460          0
   461          0
   462          0
   463          1
   464          0
   465          0
   470          3
   471          7
   472          3
   473          2
   474          0
   475          0
   487          0
   488         57
   489         22
   490          4
   491          1
   504          0
   505          1
   506          5
   507          1
   508          0
   530          3
   531          2
   532          0
   533          0
   546          0
   547          1
   548          4
   549          5
   550          1
   551          0
   560          0
   561          0
   590          3
   591          1
   592          0