##TITLE=Library Entry 71617
##JCAMP-DX=Revision 4.10 
##DATA TYPE=MASS SPECTRUM
##SAMPLE DESCRIPTION=N.C.LING THE SALK INST., SAN DIEGO, CALIFORNIA, USA
##NAMES=HP
##CAS NAME=L-Serinamide, 1-methyl-5-oxo-L-prolyl-N,1-dimethyl-L-histidyl-N,1
-L-tryptophyl-N,N,N2,O-tetramethyl-
##MOLFORM=C34H48N8O6
##CAS REGISTRY NO=77572-76-0
##MP= -300
##BP= -300
##MW= 664
##$RETENTION INDEX=0
##$CONDENSED SPECTRUM=NO
##NPOINTS= 387
##XYDATA=(XY..XY) 1 
    91        410
    92         50
    93         70
    94        160
    95        420
    96        290
    97        390
    98        999
    99        550
   100        100
   101        120
   102        130
   103        110
   104         60
   105         80
   106         40
   107         90
   108        100
   109        190
   110         90
   111        180
   112         60
   113         90
   114         40
   115        180
   116         60
   117         70
   118         60
   119         50
   120         40
   121         80
   122         50
   123        100
   124         80
   125        140
   126         60
   127        490
   128        500
   129        150
   130        100
   131        110
   132         50
   133         50
   134         40
   135        180
   136         90
   137        110
   138        300
   139        140
   140         90
   141        270
   142        650
   143        170
   144        700
   145        480
   146        110
   147         60
   148         40
   149         80
   150         40
   151         50
   152         60
   153         70
   154         60
   155         70
   156        270
   157        160
   158        100
   159         40
   160         50
   161         70
   162         30
   163         60
   164         60
   165         70
   166         60
   167        100
   168         50
   169         60
   170         80
   171         40
   172         40
   173         20
   174         40
   175         30
   176         40
   177         80
   178         40
   179         50
   180         40
   181         50
   182         50
   183         40
   184        290
   185        130
   186         70
   187         90
   188         30
   189         20
   190         20
   191         40
   192         30
   193         30
   194         40
   195         60
   196         40
   197         40
   198         90
   199         30
   200         20
   201         40
   202         20
   203         20
   204         20
   205         30
   206         20
   207        110
   208         50
   209         40
   210         20
   211         30
   212         30
   213         40
   214        210
   215         50
   216         20
   217         20
   218         20
   219         30
   220         25
   221         24
   222         17
   223         52
   224         19
   225         15
   226         11
   227          9
   228         27
   229         10
   230         19
   231         14
   232         16
   233         17
   234         16
   235         22
   236         17
   237         19
   238         25
   239         65
   240         21
   241         13
   242          7
   243         15
   244         25
   245         22
   246         10
   247         11
   248         10
   249         14
   250         14
   251         12
   252         13
   253         14
   254         15
   255         13
   256         13
   257         10
   258          7
   259         10
   260         10
   261         14
   262         17
   263         47
   264         27
   265         16
   266         16
   267         70
   268         25
   269         13
   270          9
   271         26
   272         12
   273         20
   274          8
   275         16
   276          9
   277         13
   278          8
   279          7
   280          6
   281         22
   282         13
   283         41
   284         15
   285          8
   286          5
   287          7
   288         11
   289         11
   290         62
   291         75
   292         27
   293          9
   294          7
   295          6
   296          6
   297          7
   298         10
   299         10
   300          6
   301          7
   302          5
   303          7
   304         10
   305          7
   306          6
   307          5
   308          6
   309          9
   310          5
   311         40
   312         12
   313          9
   314          4
   315          7
   316          7
   317          6
   318          5
   319          6
   320          6
   321         20
   322         17
   323          7
   324          4
   325          3
   326          3
   327          7
   328          5
   329          8
   330          5
   331          5
   332          7
   333          7
   334          5
   335          5
   336          3
   337          3
   338          3
   339          6
   340          6
   341          4
   342          8
   343         20
   344          7
   345          4
   346          6
   347         11
   348          9
   349          6
   350          5
   351          3
   352          2
   353          2
   354          2
   355          4
   356          9
   357          4
   358          3
   359          5
   360         10
   361         18
   362         63
   363         20
   364          6
   365          7
   366          3
   367          2
   368          3
   369          2
   370          3
   371          3
   372          4
   373          6
   374         14
   375         15
   376          8
   377          5
   378          4
   379         12
   380          4
   381          2
   382          2
   384          2
   385          2
   386          3
   387          4
   388          3
   389          3
   390          6
   391          6
   392          3
   393          3
   394          2
   395          2
   396          4
   397          2
   398          2
   399          2
   400          2
   401          3
   403          3
   404          4
   405          4
   406          4
   407          9
   408          3
   409          3
   410          2
   411          2
   413          2
   415          3
   416          2
   417          2
   418          3
   419          6
   420          3
   421         13
   422          4
   423          3
   425          2
   426          2
   427          2
   429          2
   430          2
   431          4
   432          5
   433          3
   434          3
   435          2
   436          2
   437          3
   438          2
   443          5
   444          2
   445          2
   446          4
   447          2
   448          2
   449          2
   450          3
   458          2
   459          2
   460          4
   461          3
   462          2
   463          3
   464          2
   465          2
   466          2
   473          2
   474          2
   475          2
   476          5
   477          4
   478          3
   479          2
   488          3
   489          2
   490          3
   491          3
   492          2
   502          2
   504         11
   505          4
   506          3
   516          2
   518          8
   519          4
   520          3
   532          2
   535          3
   536          2
   560         10
   561          4
   562          3
   632          9
   633          4