##TITLE=Library Entry 13642
##JCAMP-DX=Revision 4.10 
##DATA TYPE=MASS SPECTRUM
##SAMPLE DESCRIPTION=DKFZ HD SORG, HEIDELBERG, GERMANY, F.R.G.
##NAMES=HP
##CAS NAME=Tetradecanoic acid, (3,3a,4,6a,7,8,9,10,10a,10b-decahydro-3a,8,10
a-trihydroxy-2,10-dimethyl-3-oxobenz[e]azulen-5-yl)methyl ester, [3aR-(3a.al
pha.,6a.alpha.,8.beta.,10.beta.,10a.beta.,10b.beta.)]-
##MOLFORM=C31H50O6
##CAS REGISTRY NO=77573-28-5
##MP= -300
##BP= -300
##MW= 518
##$RETENTION INDEX=0
##$CONDENSED SPECTRUM=NO
##NPOINTS= 406
##XYDATA=(XY..XY) 1 
    13          2
    14          0
    15          3
    16          8
    17          2
    18          2
    19         10
    20          2
    24          0
    25          2
    26         15
    27        140
    28         72
    29        242
    30          5
    31         17
    32          8
    36          1
    37          4
    38          8
    39        146
    40         33
    41        585
    42        115
    43        999
    44         33
    45         31
    46          0
    47          2
    48          0
    49          1
    50          6
    51         29
    52         20
    53        229
    54         54
    55        382
    56         84
    57        407
    58         16
    59         12
    60         72
    61         12
    62          2
    63         10
    64          4
    65         52
    66         28
    67        114
    68         30
    69        178
    70         31
    71        159
    72          9
    73         93
    74         11
    75          3
    76          2
    77         90
    78         29
    79        178
    80         40
    81        121
    82        191
    83        109
    84         33
    85         64
    86          4
    87         19
    88          2
    89          5
    90          2
    91        131
    92         29
    93         87
    94         31
    95         81
    96         24
    97         39
    98         14
    99        159
   100         14
   101         12
   102          5
   103         19
   104         12
   105         92
   106         35
   107        105
   108         38
   109        280
   110         73
   111         80
   112         26
   113         10
   114          2
   115         47
   116         19
   117         42
   118         12
   119         50
   120         24
   121         61
   122         29
   123         30
   124         35
   125         19
   126          4
   127         12
   128         31
   129         57
   130         22
   131         47
   132         19
   133         40
   134         31
   135         50
   136         17
   137         47
   138         25
   139         18
   140          3
   141         17
   142         14
   143         28
   144         14
   145         78
   146         30
   147         49
   148         38
   149         30
   150         12
   151         19
   152         20
   153         15
   154          6
   155         22
   156         38
   157         45
   158         66
   159        222
   160         95
   161        103
   162        121
   163        165
   164         70
   165         58
   166         35
   167         29
   168         21
   169         28
   170         20
   171         68
   172         75
   173        146
   174        124
   175         89
   176         85
   177         57
   178         38
   179         68
   180         44
   181        541
   182         74
   183         47
   184         38
   185         92
   186         44
   187         43
   188         33
   189         38
   190         39
   191        528
   192         91
   193         25
   194         10
   195         15
   196         11
   197         28
   198         38
   199         77
   200         40
   201         52
   202         38
   203         32
   204         22
   205         11
   206         19
   207         25
   208         52
   209        700
   210        127
   211         66
   212         33
   213         28
   214         14
   215         25
   216         56
   217         30
   218         36
   219         22
   220         12
   221         11
   222         13
   223          5
   224          3
   225         19
   226         43
   227         35
   228         40
   229         31
   230         16
   231         16
   232          8
   233         10
   234          4
   235          3
   236          8
   237         12
   238          5
   239         17
   240          3
   241         11
   242          8
   243         19
   244         58
   245         24
   246         24
   247         10
   248          3
   249          2
   250          1
   251          0
   252          0
   253          4
   254         71
   255         30
   256         11
   257         12
   258          2
   259          4
   260          4
   261          8
   262         78
   263         15
   264          2
   265          0
   266          0
   267          0
   268          0
   269          0
   270          5
   271         12
   272        280
   273        100
   274         26
   275          6
   276          1
   277          2
   278          0
   279          0
   280          0
   281          0
   282          0
   283          0
   284          0
   285          0
   286          1
   287          0
   288          8
   289          8
   290        343
   291         75
   292         11
   293          2
   294          1
   295          0
   296          0
   297          0
   298          0
   299          0
   300          0
   301          0
   302          0
   303          0
   304          0
   305          0
   306          1
   307          0
   308          7
   309          1
   310          0
   311          0
   312          0
   313          0
   314          0
   315          0
   316          0
   317          0
   318          0
   321          0
   325          0
   326          0
   327          0
   328          0
   329          0
   330          0
   331          0
   332          0
   333          0
   336          0
   337          0
   339          0
   340          0
   341          0
   343          0
   346          0
   347          0
   349          0
   354          0
   356          0
   358          0
   361          0
   363          0
   368          0
   369          0
   372          0
   373          0
   374          0
   376          0
   378          0
   379          0
   383          0
   384          0
   386          0
   388          0
   389          0
   390          0
   391          0
   392          0
   396          0
   398          0
   399          0
   400          0
   401          0
   402          0
   403          0
   404          0
   405          0
   406          0
   407          0
   410          0
   411          0
   412          0
   414          0
   415          0
   416          0
   418          0
   419          0
   421          0
   425          0
   427          0
   428          0
   429          0
   430          0
   431          0
   432          0
   438          0
   439          0
   440          0
   446          0
   453          0
   454          0
   455          1
   456          1
   457          1
   458          0
   464          0
   466          0
   467          0
   468          0
   470          0
   471          0
   472          1
   473          0
   474          0
   475          0
   482          2
   483          0
   484          0
   485          0
   486          0
   490          1
   491          0
   498          0
   499          0
   500         17
   501          4
   502          1
   503          0
   504          0
   516          1
   517          0
   518          6
   519          2
   520          0