##TITLE=Library Entry 9636
##JCAMP-DX=Revision 4.10 
##DATA TYPE=MASS SPECTRUM
##SAMPLE DESCRIPTION=DKFZ HD SCHMIDT, HEIDELBERG, GERMANY, F.R.G.
##NAMES=HP
##CAS NAME=5H-Cyclopropa[3,4]benz[1,2-e]azulen-5-one, 9-(acetyloxy)-3-[(acet
yloxy)methyl]-1,1a,1b,4,4a,7a,7b,8,9,9a-decahydro-4a,7b,9a-trihydroxy-1,1,6,
8-tetramethyl-, [1ar-(1a.alpha.,1b.beta.,4a.beta.,7a.alpha.,7b.alpha.,8.alph
a.,9.beta.,9a.alpha.)]-
##MOLFORM=C24H32O8
##CAS REGISTRY NO=77573-11-6
##MP= -300
##BP= -300
##MW= 448
##$RETENTION INDEX=0
##$CONDENSED SPECTRUM=NO
##NPOINTS= 387
##XYDATA=(XY..XY) 1 
    12         28
    13         31
    14        110
    15        355
    16         36
    17         25
    18         73
    19          4
    20          0
    21          0
    22          1
    24          8
    25         24
    26         73
    27        263
    28        546
    29        226
    30         16
    31         73
    32         25
    33          0
    34          0
    35         35
    36         11
    37         24
    38         49
    39        453
    40         85
    41        711
    42        220
    43        999
    44        233
    45        441
    46          8
    47         36
    48         21
    49        202
    50         67
    51        159
    52         85
    53        533
    54         92
    55        282
    56         37
    57        122
    58         26
    59         38
    60        220
    61         92
    62         20
    63         67
    64         25
    65        184
    66         73
    67        184
    68         37
    69        552
    70         73
    71         42
    72          6
    73         12
    74         15
    75         20
    76         17
    77        306
    78        122
    79        288
    80         67
    81        134
    82        122
    83        809
    84        122
    85         51
    86         79
    87         15
    88         13
    89         30
    90         14
    91        423
    92         73
    93        153
    94         53
    95        184
    96         61
    97         41
    98         18
    99         18
   100          8
   101         25
   102         23
   103         67
   104         36
   105        269
   106         73
   107        214
   108         79
   109        398
   110         79
   111         85
   112         41
   113         19
   114         73
   115        134
   116         50
   117         79
   118         26
   119        116
   120         79
   121        233
   122        141
   123        153
   124        128
   125        122
   126         15
   127         42
   128         92
   129         92
   130         33
   131         79
   132         35
   133         79
   134         49
   135         73
   136         58
   137         98
   138         61
   139         58
   140         16
   141         67
   142         44
   143         67
   144         34
   145         92
   146         45
   147         85
   148         52
   149         67
   150         39
   151         67
   152         59
   153         44
   154         23
   155         49
   156         52
   157         61
   158         60
   159        128
   160         51
   161         92
   162         50
   163         50
   164         30
   165         61
   166         37
   167         60
   168         34
   169         43
   170         28
   171         73
   172         51
   173         85
   174         45
   175         67
   176         49
   177         52
   178         36
   179        202
   180         46
   181         40
   182         21
   183         42
   184         27
   185         60
   186         57
   187         85
   188         50
   189         55
   190         30
   191         31
   192         23
   193         26
   194         15
   195         41
   196         32
   197         67
   198         44
   199         85
   200         48
   201         42
   202         24
   203         39
   204         30
   205         31
   206         20
   207         47
   208         85
   209         45
   210         58
   211         61
   212         37
   213         92
   214         61
   215         92
   216         42
   217         31
   218         14
   219         12
   220          7
   221         15
   222         15
   223         31
   224         20
   225         30
   226         18
   227         49
   228         39
   229         26
   230         14
   231         23
   232         14
   233         18
   234          7
   235         11
   236         10
   237         20
   238         10
   239         31
   240         18
   241         38
   242         20
   243         17
   244         12
   245         19
   246          9
   247          7
   248          4
   249         17
   250          9
   251         16
   252         11
   253         19
   254         15
   255         17
   256          9
   257         20
   258         10
   259         29
   260         10
   261          7
   262         10
   263         12
   264         15
   265         23
   266         14
   267         36
   268         15
   269         20
   270         17
   271         15
   272         14
   273          9
   274          6
   275          8
   276          3
   277         21
   278          5
   279         12
   280          9
   281         19
   282         44
   283         19
   284          9
   285         20
   286          9
   287          8
   288          6
   289          3
   290          3
   291          6
   292         30
   293         15
   294          6
   295         31
   296         11
   297         12
   298          9
   299         12
   300         26
   301         11
   302          3
   303          4
   304          2
   305          1
   306          1
   307          1
   308          7
   309         11
   310        116
   311         35
   312         12
   313         13
   314          6
   315          4
   316          4
   317          2
   318          2
   319          1
   320          0
   321          0
   322          0
   323          1
   324          2
   325          1
   326         10
   327         14
   328        104
   329         28
   330          9
   331          3
   332          1
   333          0
   334          0
   335          0
   336          0
   337          0
   338          0
   339          2
   340          3
   341          2
   342          4
   343          2
   344          5
   345          5
   346          6
   347          1
   348          0
   349          0
   350          0
   351          0
   352         11
   353          4
   354          1
   355          1
   356          2
   357          1
   358          2
   359          1
   360          3
   361          0
   362          1
   363          0
   364          0
   366          0
   368          1
   369          1
   370         61
   371         17
   372          4
   373          2
   374          1
   375          0
   376          0
   377          0
   384          0
   385          0
   386          5
   387          4
   388         20
   389          9
   390          2
   391          0
   392          0
   400          0
   402          1
   403          0
   404          0
   405          0
   406          1
   407          0
   412          0
   430          2
   431          0
   432          0
   446          0
   448          2
   449          0
   450          0