##TITLE=Library Entry 79015
##JCAMP-DX=Revision 4.10 
##DATA TYPE=MASS SPECTRUM
##SAMPLE DESCRIPTION=Institute of Organic Chemistry, Novosibirsk, USSR 1988
##NAMES=HP
##CAS NAME=4-Ethyl-5,6-dihydro-2-phenyl-4H-1,3-oxazin-5-one
##MOLFORM=C12H13NO2
##CAS REGISTRY NO=77580-75-7
##MP= -300
##BP= -300
##MW= 203
##$RETENTION INDEX=0
##$CONDENSED SPECTRUM=NO
##NPOINTS= 82
##XYDATA=(XY..XY) 1 
    26        156
    27        172
    28        100
    29        200
    30         34
    31         53
    37          9
    38         27
    39         91
    40         27
    41         59
    42         68
    43         14
    44         15
    45         15
    49         10
    50        107
    51        225
    52         35
    53         18
    54          4
    55         27
    56         27
    57        111
    58         29
    59          4
    61          4
    62         11
    63         33
    64          9
    65         11
    69          4
    70         17
    71          4
    72          4
    73          9
    74         29
    75         37
    76         97
    77        541
    78         50
    79          4
    82          9
    89         30
    90         11
    91         63
    92         17
    97         15
    98          4
    99          4
   100         19
   102         17
   103        171
   104        521
   105        999
   106         79
   107          4
   115          4
   116         10
   117         49
   118         37
   119         11
   120          4
   121         10
   122         38
   129          9
   130        233
   131         23
   144         17
   145         43
   146         99
   147         18
   148          4
   149          4
   160         10
   161         30
   162        171
   163         30
   174          9
   175          9
   202         21
   203         10