##TITLE=Library Entry 15416
##JCAMP-DX=Revision 4.10 
##DATA TYPE=MASS SPECTRUM
##SAMPLE DESCRIPTION=Institute of Organic Chemistry, Novosibirsk, USSR 1988
##NAMES=HP
##CAS NAME=5,6-Dihydro-2-(4-nitrophenyl)-4H-1,3-oxazin-5-one
##MOLFORM=C10H8N2O4
##CAS REGISTRY NO=77580-72-4
##MP= -300
##BP= -300
##MW= 220
##$RETENTION INDEX=0
##$CONDENSED SPECTRUM=NO
##NPOINTS= 105
##XYDATA=(XY..XY) 1 
    25         33
    26        140
    27         42
    28        110
    29         12
    30        563
    31        463
    33         49
    34         58
    35         31
    36         86
    37        104
    38        122
    39        427
    40        750
    41        665
    42        554
    43        954
    44        999
    45        358
    46         60
    47         31
    48         20
    49         19
    50        360
    51        215
    52         48
    53         95
    54         51
    55        341
    56        137
    57        424
    58         50
    59         84
    60         84
    61         32
    62         32
    63         86
    64         21
    65        153
    66         15
    67         48
    68         19
    69        137
    70         33
    71        102
    75         48
    76         77
    77         51
    89        113
    90         39
    91         73
    97        134
    98        430
    99         71
   100         32
   101         81
   102         31
   103        118
   104        204
   105        134
   106         23
   109        153
   110         49
   111        102
   113         64
   115         64
   116        424
   117         73
   118         29
   119         84
   120        154
   121        225
   122         61
   123         81
   127         32
   128         71
   129         80
   133         51
   134         51
   135         57
   136         42
   137        119
   138         22
   139         74
   148         22
   149        112
   150        512
   151        108
   152         31
   160         32
   161         86
   162        904
   163        150
   164         49
   165         52
   166         71
   173         65
   190        307
   191         84
   192         96
   193         14
   203        102
   219         63
   220        140