##TITLE=Library Entry 80536
##JCAMP-DX=Revision 4.10 
##DATA TYPE=MASS SPECTRUM
##SAMPLE DESCRIPTION=Institute of Organic Chemistry, Novosibirsk, USSR 1988
##NAMES=HP
##CAS NAME=5,6-Dihydro-4-methyl-2-phenyl-4H-1,3-oxazin-5-one
##MOLFORM=C11H11NO2
##CAS REGISTRY NO=77580-74-6
##MP= -300
##BP= -300
##MW= 189
##$RETENTION INDEX=0
##$CONDENSED SPECTRUM=NO
##NPOINTS= 73
##XYDATA=(XY..XY) 1 
    25         80
    26        264
    27        249
    28         99
    29        128
    30         49
    31        102
    32         10
    37         18
    38         46
    39         93
    40         19
    41         30
    42        132
    43        223
    44         29
    45         26
    49          8
    50        190
    51        370
    52         50
    53         19
    54          4
    55          8
    56         13
    57          4
    59          5
    60          4
    61          9
    62         13
    63         26
    64         11
    65         12
    69          4
    70          4
    71          4
    73          4
    74         37
    75         49
    76        144
    77        562
    78          4
    87          4
    88          4
    89         23
    90         12
    91         43
   102         23
   103        378
   104        591
   105        999
   106         24
   116         10
   117         44
   118          8
   119          4
   120          4
   121          4
   122         24
   130        188
   131        249
   132         11
   136          4
   145         49
   146        106
   147         24
   148         30
   149         25
   160         24
   161         61
   162        134
   188         29
   189         44