##TITLE=Library Entry 79017
##JCAMP-DX=Revision 4.10 
##DATA TYPE=MASS SPECTRUM
##SAMPLE DESCRIPTION=Institute of Organic Chemistry, Novosibirsk, USSR 1988
##NAMES=HP
##CAS NAME=4-Benzyl-5,6-dihydro-2-phenyl-4H-1,3-oxazin-5-one
##MOLFORM=C17H15NO2
##CAS REGISTRY NO=77580-76-8
##MP= -300
##BP= -300
##MW= 265
##$RETENTION INDEX=0
##$CONDENSED SPECTRUM=NO
##NPOINTS= 64
##XYDATA=(XY..XY) 1 
    25          8
    26         86
    28        314
    29        100
    37          9
    38         24
    39        153
    40          8
    41         17
    42         49
    43         28
    50        141
    51        337
    52         69
    53         10
    62         18
    63         79
    64         40
    65        121
    74         21
    75         28
    76         88
    77        570
    78          9
    88          9
    89         78
    90         59
    91        498
    92         18
   102         49
   103        218
   104        555
   105        999
   106         20
   115          9
   116         58
   117         47
   118        147
   119         49
   120         60
   121         22
   122         23
   128          9
   130         49
   131         11
   132         10
   144         22
   145         23
   146        190
   147         11
   161          9
   162        161
   163         11
   164         19
   165         11
   173         21
   174        190
   175          9
   179         29
   206         59
   223         20
   224         10
   264         13
   265         29