##TITLE=Library Entry 16265
##JCAMP-DX=Revision 4.10 
##DATA TYPE=MASS SPECTRUM
##SAMPLE DESCRIPTION=R.S.BANDURSKI MICHIGAN STATE UNIV., EAST LANSING, MICH.
, USA
##NAMES=HP
##CAS NAME=1H-Indole-3-ethanamine, 6-fluoro-.beta.-methyl-
##MOLFORM=C11H13FN2
##CAS REGISTRY NO=77590-52-4
##MP= -300
##BP= -300
##MW= 192
##$RETENTION INDEX=0
##$CONDENSED SPECTRUM=NO
##NPOINTS= 101
##XYDATA=(XY..XY) 1 
    31          3
    32          1
    35          7
    36         70
    37          4
    38         31
    39          6
    40          1
    41          8
    42         22
    43         12
    44        999
    45         19
    50          6
    51         11
    52          4
    53          1
    54          1
    55          1
    56          4
    57          7
    60          1
    61          1
    62          3
    63          6
    64          2
    65          1
    68          1
    69          3
    70          4
    71          1
    73          2
    74          9
    75         23
    76          4
    77          6
    78          2
    79          1
    80          1
    81          4
    82          1
    83          2
    86          1
    87          3
    88          6
    89          4
    92          1
    93          3
    94         10
    95         16
    96          4
    98          1
    99          6
   100          5
   101         73
   102          7
   103          2
   105          1
   106          1
   107          6
   108          6
   109          2
   119          4
   120         31
   121         11
   122          3
   125          1
   126          3
   127          2
   128         21
   129          3
   130          3
   131          3
   132          1
   133          5
   134          2
   135          9
   136          2
   145          2
   146         18
   147         21
   148        291
   149        421
   150         47
   151          2
   158          1
   159          1
   160          2
   161          4
   162          1
   172          2
   173          2
   174          4
   175          6
   176          6
   177          4
   189          1
   190          3
   191          2
   192         14
   193          2