##TITLE=Library Entry 96469
##JCAMP-DX=Revision 4.10 
##DATA TYPE=MASS SPECTRUM
##SAMPLE DESCRIPTION=R.S.BANDURSKI MICHIGAN STATE UNIV., EAST LANSING, MICH.
, USA
##NAMES=HP
##CAS NAME=1H-Indole-3-ethanamine, 5-fluoro-.alpha.-methyl-N,1-bis(trimethyl
silyl)-
##MOLFORM=C17H29FN2Si2
##CAS REGISTRY NO=77590-54-6
##MP= -300
##BP= -300
##MW= 336
##$RETENTION INDEX=0
##$CONDENSED SPECTRUM=NO
##NPOINTS= 89
##XYDATA=(XY..XY) 1 
    30          1
    31          1
    32          1
    41          1
    42          4
    43         12
    44         69
    45         41
    46          4
    47          5
    51          1
    57          2
    58          6
    59         24
    60          4
    61          1
    63          1
    70          2
    71          1
    72          7
    73        411
    74         31
    75         13
    76          1
    77          6
    84          1
    86          8
    87          1
    93          1
   100         30
   101         10
   102          3
   114          6
   115          6
   116        999
   117         96
   118         31
   119          2
   120          3
   127          1
   128          3
   129          2
   130          1
   133          1
   146          2
   147          3
   148          5
   149          1
   154          1
   162          1
   163          6
   164          1
   172          1
   174          1
   175          1
   176          1
   178          2
   186          3
   187          1
   188          2
   190          4
   192          1
   200          1
   202          4
   203          1
   204          5
   205          2
   206          8
   207          1
   216          1
   217          1
   218          5
   219          2
   220         41
   221         97
   222         17
   223          4
   229          5
   230          1
   232          1
   233          1
   246          1
   247          2
   248          1
   249          1
   264          1
   321         14
   322          4
   323          1