##TITLE=Library Entry 42321
##JCAMP-DX=Revision 4.10 
##DATA TYPE=MASS SPECTRUM
##SAMPLE DESCRIPTION=R.S.BANDURSKI MICHIGAN STATE UNIV., EAST LANSING, MICH.
, USA
##NAMES=HP
##CAS NAME=D-Glucose, 3,4,5,6-tetrakis-O-(trimethylsilyl)-, O-methyloxime, 2
-(1H-indole-3-acetate)
##MOLFORM=C29H54N2O7Si4
##CAS REGISTRY NO=77590-68-2
##MP= -300
##BP= -300
##MW= 654
##$RETENTION INDEX=0
##$CONDENSED SPECTRUM=NO
##NPOINTS= 212
##XYDATA=(XY..XY) 1 
    32          7
    36          3
    38          3
    39         14
    40         26
    41         65
    42         15
    43         20
    44         43
    45         58
    47         31
    48          5
    49          9
    50         11
    51         12
    52         17
    53         15
    55         16
    57         17
    58         22
    59         41
    60          1
    61         17
    62         11
    63         26
    64          6
    65          9
    66          7
    67         23
    68         80
    69         23
    70         10
    71         15
    72         11
    73        999
    74         83
    75        208
    76         17
    77         47
    78          5
    79         21
    81         16
    82          8
    83         17
    84         10
    85         13
    87          7
    88          7
    89         39
    91         11
    93         45
    95         10
    97         10
    99          9
   100         15
   101          7
   102         31
   103        236
   104         27
   105         17
   106         10
   107          6
   111         11
   112          5
   113          8
   114          6
   116         11
   117         85
   118         15
   119          8
   125          8
   127         16
   128         19
   129        128
   130        971
   131        101
   132         19
   133         72
   134         10
   135          7
   137          8
   139          6
   142         23
   143          3
   144         11
   145         19
   146         15
   147        234
   148         62
   149         60
   151         10
   154          3
   156         18
   157        884
   158        143
   159         19
   160         23
   161          3
   163          6
   169         11
   170         11
   171         13
   172         18
   173         45
   174         66
   175         27
   180          7
   186          5
   187          8
   188         14
   189         12
   190         31
   191         40
   192         12
   193          3
   204         46
   205        179
   206         44
   207         35
   214         21
   215         11
   216          9
   217        193
   218         42
   219         30
   220          3
   221          4
   227          9
   228          4
   231          4
   232         31
   233          8
   234          7
   242         22
   243          7
   244         54
   247        102
   248         34
   249         15
   256          3
   259         10
   260          8
   269         11
   273          6
   274        115
   275         35
   276         17
   277         13
   278          9
   282          8
   286         23
   287          6
   288         11
   289          7
   290          3
   291         30
   292          5
   293         11
   295         22
   300          6
   305         30
   306          8
   307         93
   308         33
   309          9
   315         11
   316         12
   317          8
   319         46
   320         15
   321         11
   322          7
   327          5
   329          5
   341         13
   342          1
   343         10
   347         35
   349          3
   350          7
   355         29
   360          6
   376          8
   390         20
   391         12
   393          6
   401         11
   408          4
   415          7
   416          6
   417          6
   422          3
   433          7
   440          3
   443          6
   444          6
   448          5
   449         45
   450         10
   452          3
   465          5
   473          6
   476          5
   480         27
   481         12
   489          4
   505          3
   532          4
   545          4
   565          4
   622          3
   654          6