##TITLE=Library Entry 42322
##JCAMP-DX=Revision 4.10 
##DATA TYPE=MASS SPECTRUM
##SAMPLE DESCRIPTION=R.S.BANDURSKI MICHIGAN STATE UNIV., EAST LANSING, MICH.
, USA
##NAMES=HP
##CAS NAME=D-Glucose, 2,3,4,5-tetrakis-O-(trimethylsilyl)-, O-methyloxime, 6
-(1H-indole-3-acetate)
##MOLFORM=C29H54N2O7Si4
##CAS REGISTRY NO=77590-70-6
##MP= -300
##BP= -300
##MW= 654
##$RETENTION INDEX=0
##$CONDENSED SPECTRUM=NO
##NPOINTS= 197
##XYDATA=(XY..XY) 1 
    38          4
    39         22
    40         18
    41         82
    42          9
    43         39
    44         35
    45         66
    46         16
    47         29
    49          5
    50         12
    51          8
    52          7
    53          7
    54          9
    55         22
    57         14
    58         14
    59         53
    60          9
    63         12
    65          5
    67         16
    68         80
    69         17
    73        999
    74         92
    75        206
    76         23
    77         48
    78          4
    79         17
    81         15
    82         12
    83          9
    85          7
    89         46
    90          5
    91          8
    93         47
    95         23
    96          8
    98          2
    99          5
   100          9
   101         43
   103        100
   104         13
   105         31
   107          7
   110          4
   111          5
   113          9
   114         15
   116          9
   117         68
   119          5
   127          8
   128         17
   129        126
   130        916
   131        124
   133         59
   134         12
   135          5
   142          8
   143         17
   144          8
   145         26
   146         10
   147        276
   148         47
   149         27
   150          5
   155          7
   156         17
   157        550
   158         80
   159         13
   160        180
   161         18
   163         10
   168          7
   169          8
   170          4
   173         18
   174         17
   175         21
   181          4
   184          7
   185          7
   187          9
   188          6
   189         29
   190         13
   191          4
   193          5
   197          6
   199          6
   200         12
   201         13
   202         53
   203         32
   204         55
   205         40
   206          8
   208          8
   214          4
   215         14
   216         12
   217        239
   218         64
   219         47
   220          9
   221         31
   222          6
   223          5
   227          4
   229         41
   230         23
   232         32
   234          9
   237          6
   243         16
   244         12
   245         18
   246         26
   247         45
   248         19
   252          4
   259          5
   262         18
   264          4
   268          4
   270          9
   274         20
   275          5
   277          5
   281         16
   282          1
   283          9
   289          7
   290        362
   291          7
   292         26
   293          9
   295          9
   302         13
   304          8
   305         25
   306         13
   307         11
   314         28
   315          7
   318          4
   319         17
   320         19
   325          7
   326          4
   327          2
   332          5
   334          4
   341          4
   342          7
   355         21
   356         13
   357          8
   361          9
   364          7
   365          6
   369          4
   372          4
   376          9
   390          6
   404         78
   405         45
   406         11
   407          4
   417          4
   429         11
   430         11
   431          6
   437          4
   474          4
   477          4
   492          4
   503          7
   505          5
   506          6
   550          4
   564         20
   592          4
   623         18
   645          4
   654          8
   655          6