##TITLE=Library Entry 114737
##JCAMP-DX=Revision 4.10 
##DATA TYPE=MASS SPECTRUM
##SAMPLE DESCRIPTION=R.S.BANDURSKI MICHIGAN STATE UNIV., EAST LANSING, MICH.
, USA
##NAMES=HP
##CAS NAME=D-Glucose, 2,3,5,6-tetrakis-O-(trimethylsilyl)-, O-methyloxime, 4
-(1H-indole-3-acetate)
##MOLFORM=C29H54N2O7Si4
##CAS REGISTRY NO=77590-69-3
##MP= -300
##BP= -300
##MW= 654
##$RETENTION INDEX=0
##$CONDENSED SPECTRUM=NO
##NPOINTS= 118
##XYDATA=(XY..XY) 1 
    30          5
    31         10
    40         25
    41         36
    43         44
    44         16
    45         40
    47         18
    51          8
    54          8
    55          9
    56          1
    57          5
    59         24
    63         13
    65         18
    67         18
    68         56
    69          5
    73        838
    74         51
    75        190
    76         14
    77         26
    84          8
    93         30
    95          8
    96          8
    99          8
   100          9
   101          9
   102         18
   103         53
   104         14
   105          8
   108          6
   117         17
   129         91
   130        999
   131        132
   132         10
   133         24
   143          8
   144         10
   145          9
   147         92
   148         16
   155          8
   156         10
   157        447
   158         54
   159         13
   160         65
   161         18
   163         16
   167          5
   171         12
   172         13
   173         38
   174         64
   175         34
   188          6
   189         12
   191          5
   204         26
   205        107
   206         44
   210         10
   217        127
   218         30
   219         26
   221         25
   228         13
   232         49
   240          5
   243         16
   244         34
   245          8
   247         32
   248         16
   260          6
   268          8
   271          8
   274         16
   275          8
   277          5
   281         28
   290          5
   300         22
   319         53
   320         37
   321         10
   339          5
   341          6
   343          8
   352          6
   356          8
   362         53
   363         16
   366          6
   369         12
   376         17
   390          1
   401          5
   404         17
   431          8
   432          8
   449         17
   461          6
   494         47
   495         20
   537          5
   564         14
   565          8
   622          8
   624          6
   628          5
   654         56