##TITLE=Library Entry 58997
##JCAMP-DX=Revision 4.10 
##DATA TYPE=MASS SPECTRUM
##SAMPLE DESCRIPTION=J.T. CLERC, ORGANIC CHEM. LAB., ETH, ZURICH, SWITZ.
##NAMES=HP
##CAS NAME=Benzene, [[(1-ethenyl-1,5-dimethyl-4-hexenyl)oxy]methyl]-
##MOLFORM=C17H24O
##CAS REGISTRY NO=77611-58-6
##MP= -300
##BP= -300
##MW= 244
##$RETENTION INDEX=0
##$CONDENSED SPECTRUM=NO
##NPOINTS= 63
##XYDATA=(XY..XY) 1 
    28         21
    29        107
    38          8
    39        188
    40         42
    41        562
    42         34
    43        240
    50         21
    51         68
    52         21
    53         98
    54          8
    55        231
    56          8
    57          8
    59          8
    63         30
    64         12
    65        171
    66         21
    67        107
    68        137
    69        223
    70         21
    71         60
    77        111
    78         21
    79         90
    80        223
    81        103
    82         64
    83         55
    89         21
    90         21
    91        999
    92        210
    93        403
    94         51
    95         81
    96         21
   104         12
   105         47
   106         12
   107         51
   108         25
   109         21
   117         17
   121        115
   122         17
   123         25
   128         25
   131         17
   135         17
   136         73
   137         12
   138         25
   153         17
   161         42
   179         21
   211         21
   229         21
   244         21