##TITLE=Library Entry 86390
##JCAMP-DX=Revision 4.10 
##DATA TYPE=MASS SPECTRUM
##SAMPLE DESCRIPTION=Div. of Experiment Therapeutics WRAIR, WRAMC, Washingto
n DC 20307
##NAMES=HP
##CAS NAME=2-Oxo-3-[4-fluorophenyl]propanoic acid
##MOLFORM=C9H7FO3
##CAS REGISTRY NO=7761-30-0
##MP= -300
##BP= -300
##MW= 182
##$RETENTION INDEX=0
##$CONDENSED SPECTRUM=NO
##NPOINTS= 100
##XYDATA=(XY..XY) 1 
    42         10
    43         11
    44         36
    45        115
    46         10
    47          2
    49          9
    50         48
    51         43
    52          5
    53         10
    54         51
    56         14
    57        117
    58          8
    59         27
    61         23
    62         53
    63         85
    64          8
    65          4
    66          2
    68         63
    69         17
    70         11
    71          2
    73          9
    74         21
    75         31
    76          7
    77         15
    78          2
    79          2
    80         10
    81         57
    82         24
    83        191
    84         12
    85          8
    86         12
    87         13
    88          9
    89         45
    90          7
    91          3
    92          3
    93          4
    94          8
    95         21
    96         10
    97         18
    98          3
    99          6
   100          1
   101          4
   103          0
   104          0
   105          9
   107        252
   108        510
   109        999
   110         71
   111          3
   112          0
   117          2
   118          0
   119          5
   120          5
   121          3
   123         22
   124          2
   125         29
   126          2
   127          3
   129          0
   133          1
   135          5
   136        553
   137        128
   138         10
   139          2
   140          1
   147          3
   149          2
   152          2
   153          3
   154          4
   155          0
   163          2
   164          0
   165          2
   166          2
   168          0
   169          2
   170          1
   171          1
   181          1
   182        275
   183         26
   184          3