##TITLE=Library Entry 36052
##JCAMP-DX=Revision 4.10 
##DATA TYPE=MASS SPECTRUM
##SAMPLE DESCRIPTION=J.Westmore ET AL, J.ASMS. 9, 29 (1998)
##NAMES=HP
##CAS NAME=1,3-Butanedione, 4,4,4-trifluoro-1-(3-thienyl)-
##MOLFORM=C8H5F3O2S
##CAS REGISTRY NO=77611-51-9
##MP= -300
##BP= -300
##MW= 222
##$RETENTION INDEX=0
##$CONDENSED SPECTRUM=NO
##NPOINTS= 52
##XYDATA=(XY..XY) 1 
    31         11
    32         45
    34         11
    37         26
    38         64
    39        381
    40         18
    41         26
    42         22
    44         11
    45        184
    46         22
    47         22
    48         11
    49         18
    50         41
    51         22
    52         11
    53         56
    55         11
    57         71
    58         67
    59         11
    62         18
    63         33
    65         41
    69        999
    70         52
    71         16
    77         52
    81         41
    82         45
    83        109
    84         41
    85         75
    91         11
    95         18
    96         30
    97         37
   108         37
   109         33
   111        709
   112         37
   113         37
   115         11
   139         11
   153        705
   154         56
   155         30
   222        486
   223         26
   224         15