##TITLE=Library Entry 10421
##JCAMP-DX=Revision 4.10 
##DATA TYPE=MASS SPECTRUM
##SAMPLE DESCRIPTION=J.T. CLERC, ORGANIC CHEM. LAB., ETH, ZURICH, SWITZ.
##NAMES=HP
##CAS NAME=2-Nonenal, 8-oxo-
##MOLFORM=C9H14O2
##CAS REGISTRY NO=77611-52-0
##MP= -300
##BP= -300
##MW= 154
##$RETENTION INDEX=0
##$CONDENSED SPECTRUM=NO
##NPOINTS= 47
##XYDATA=(XY..XY) 1 
    27        263
    28        123
    29        254
    39        388
    40         80
    41        580
    42        138
    43        999
    44        178
    45         62
    51         49
    53        151
    54         80
    55        522
    56         71
    57        209
    58        611
    59         89
    65         53
    66        142
    67        714
    68        312
    69        214
    70        245
    71        232
    77         80
    79        214
    81        236
    82         62
    83        366
    84        165
    85         71
    91         67
    93        205
    94        218
    95        446
    96        758
    97        468
    98         67
   108         71
   110         62
   111        191
   112         31
   121         62
   126        102
   136         75
   154         67