##TITLE=Library Entry 93190
##JCAMP-DX=Revision 4.10 
##DATA TYPE=MASS SPECTRUM
##SAMPLE DESCRIPTION=C.A. TSIPIS, DEP. INORG. CHEM., THESSALONIKI UNIV., GRE
ECE
##NAMES=HP
##CAS NAME=cis-2,5-Dihydroxy-2,5-dimethyl-3-(triethylsilyl)-hex-3-ene
##MOLFORM=C14H30O2Si
##CAS REGISTRY NO=77612-12-5
##MP= -300
##BP= -300
##MW= 258
##$RETENTION INDEX=0
##$CONDENSED SPECTRUM=NO
##NPOINTS= 16
##XYDATA=(XY..XY) 1 
    43        150
    47        160
    59        410
    67        240
    75        540
    87        740
   103        660
   109        450
   115        999
   153        210
   154        270
   182         80
   211        260
   225        520
   240         50
   243         30