##TITLE=Library Entry 2533
##JCAMP-DX=Revision 4.10 
##DATA TYPE=MASS SPECTRUM
##SAMPLE DESCRIPTION=CARL DJERASSI DEPT OF CHEM STANFORD UNIV STANFORD CALIF
 94305
##NAMES=HP
##CAS NAME=5.alpha.-Androstan-3.beta.-ol, 4,4-dimethyl-, acetate
##MOLFORM=C23H38O2
##CAS REGISTRY NO=7761-08-2
##MP= -300
##BP= -300
##MW= 346
##$RETENTION INDEX=0
##$CONDENSED SPECTRUM=NO
##NPOINTS= 145
##XYDATA=(XY..XY) 1 
    41        999
    42         80
    43        999
    44         84
    45         24
    50          8
    51         16
    52         12
    53        144
    54         40
    55        560
    56         40
    57         84
    58          8
    59         16
    60          8
    61         12
    65         48
    66         28
    67        424
    68         92
    69        416
    70         28
    71         52
    72         32
    73          4
    77        104
    78         24
    79        240
    80         64
    81        480
    82         68
    83        116
    84         12
    85         24
    86          8
    87          4
    91        144
    92         40
    93        284
    94         92
    95        680
    96         92
    97         56
    98          8
    99          8
   100          4
   101          4
   103          8
   104          4
   105        104
   106         28
   107        212
   108         92
   109        260
   110        160
   111         36
   112          4
   113          4
   114          4
   115         12
   116          4
   117         16
   118          4
   119         68
   120         36
   121        252
   122         84
   123        100
   124         28
   125         12
   127          8
   128          8
   129          8
   130          4
   131         28
   132          8
   133         76
   134         36
   135        212
   136        116
   137         72
   138         12
   139          8
   145         20
   146          4
   147         76
   148        108
   149        164
   150         56
   151         24
   159         16
   160          8
   161         72
   162         44
   163         44
   164          8
   165          4
   173         24
   174          8
   175        168
   176         48
   177         80
   178         12
   187         20
   188         12
   189        104
   190         20
   191         28
   192          4
   201         52
   202         56
   203        152
   204         84
   205         16
   215         24
   216         56
   217         80
   218         16
   229         16
   230         20
   231        316
   232         60
   233          4
   241          8
   242          4
   243        132
   244         28
   245         12
   247         12
   256          8
   257         28
   258         12
   259          8
   269         20
   270          4
   271        264
   272         56
   273          4
   274          8
   284          8
   285          8
   286        204
   287         52
   346        124