##TITLE=Library Entry 54150
##JCAMP-DX=Revision 4.10 
##DATA TYPE=MASS SPECTRUM
##SAMPLE DESCRIPTION=Chemical Concepts
##NAMES=HP
##CAS NAME=2-Pyrrolidinone, 3-(1-hydroxyethyl)-4-methyl-
##MOLFORM=C7H13NO2
##CAS REGISTRY NO=77610-20-9
##MP= -300
##BP= -300
##MW= 143
##$RETENTION INDEX=0
##$CONDENSED SPECTRUM=NO
##NPOINTS= 67
##XYDATA=(XY..XY) 1 
    26          3
    27         37
    28         57
    29         47
    30         77
    31          8
    38          5
    39         64
    40         13
    41        146
    42         29
    43        107
    44         22
    45         73
    50          2
    51          6
    52          4
    53         24
    54         12
    55         63
    56         39
    57         58
    58         15
    59          6
    65          7
    66          5
    67         68
    68         23
    69        154
    70         21
    71         52
    72          3
    73          2
    74          5
    77          2
    78          3
    79          5
    80          6
    81         12
    82         47
    83         31
    84        999
    85        144
    86         49
    95          3
    96         21
    97         12
    98         62
    99        608
   100         56
   101         39
   102          4
   109          2
   110         15
   111         10
   112          5
   114          5
   124          4
   125        186
   126         43
   127          5
   128        141
   129         13
   142         16
   143         85
   144         35
   145          2