##TITLE=Library Entry 86271
##JCAMP-DX=Revision 4.10 
##DATA TYPE=MASS SPECTRUM
##SAMPLE DESCRIPTION=R. GREENHALGH, AGRIC. CAN., PLANT RES. CENT., OTTAWA, C
AN.
##NAMES=HP
##CAS NAME=4,15-Diacetyl-7-deoxynivalenol
##MOLFORM=C19H24O8
##CAS REGISTRY NO=77620-47-4
##MP= -300
##BP= -300
##MW= 380
##$RETENTION INDEX=0
##$CONDENSED SPECTRUM=NO
##NPOINTS= 43
##XYDATA=(XY..XY) 1 
    55        575
    69        452
    77        449
    79        388
    91        639
    95        514
   107        283
   109        999
   120        495
   121        976
   124        627
   125        552
   137        242
   138        349
   147        320
   159        274
   161        382
   173        517
   175        279
   187        221
   189        440
   201        276
   205        186
   218        178
   219        113
   229         79
   233         50
   247        152
   248         76
   261         29
   277         50
   278        207
   292        151
   293         29
   303          9
   306         18
   320         20
   321          7
   338         13
   339          4
   354          3
   380        185
   381         41