##TITLE=Library Entry 62408
##JCAMP-DX=Revision 4.10 
##DATA TYPE=MASS SPECTRUM
##SAMPLE DESCRIPTION=M. ODA,DEP. CHEM.,FAC. SCI.,OSAKA UNIV.,TOYONAKA,OSAKA,
JAPAN
##NAMES=HP
##CAS NAME=7-Methylbicyclo[4.2.0]octa-1(6),3-diene-2,5-dione
##MOLFORM=C9H8O2
##CAS REGISTRY NO=77627-50-0
##MP= -300
##BP= -300
##MW= 148
##$RETENTION INDEX=0
##$CONDENSED SPECTRUM=NO
##NPOINTS= 15
##XYDATA=(XY..XY) 1 
    28        100
    39        190
    40        125
    54        220
    55        125
    65        250
    66        210
    82        230
    91        999
    92        190
   105        110
   119        210
   120        340
   147        420
   148        505