##TITLE=Library Entry 3776
##JCAMP-DX=Revision 4.10 
##DATA TYPE=MASS SPECTRUM
##SAMPLE DESCRIPTION=R.E.Ardrey ET AL.Pharmaceutical Mass Spectra,L.,1985
##NAMES=HP
##CAS NAME=Methyl-3-phenylaziridine, 2-
##MOLFORM=C9H11N
##CAS REGISTRY NO=7763-71-5
##MP= -300
##BP= -300
##MW= 133
##$RETENTION INDEX=0
##$CONDENSED SPECTRUM=NO
##NPOINTS= 48
##XYDATA=(XY..XY) 1 
    38         20
    39        110
    40         30
    41        999
    42        140
    43        110
    44         80
    45         20
    50         50
    51         90
    52         30
    54         20
    55         50
    56         40
    57         80
    58         30
    60         30
    62         20
    63         50
    64         20
    65         80
    69         40
    71         30
    73         20
    76         20
    77        110
    78         30
    79         40
    83         20
    86         20
    89         50
    90         50
    91        300
    92        120
   103         20
   104         70
   105        140
   106         40
   115         40
   116         50
   117         80
   118         70
   122         20
   130         30
   131         50
   132        260
   133         80
   134         30