##TITLE=Library Entry 67985
##JCAMP-DX=Revision 4.10 
##DATA TYPE=MASS SPECTRUM
##SAMPLE DESCRIPTION=Japan AIST/NIMC Database- Spectrum MS-IW-6282
##NAMES=HP
##CAS NAME=Cyclohexanone, 2-methyl-5-(1-methylethenyl)-
##MOLFORM=C10H16O
##CAS REGISTRY NO=7764-50-3
##MP= -300
##BP= -300
##MW= 152
##$RETENTION INDEX=0
##$CONDENSED SPECTRUM=NO
##NPOINTS= 92
##XYDATA=(XY..XY) 1 
    14          1
    15          6
    26          7
    27        132
    28         48
    29         91
    30          2
    31          1
    37          1
    38          9
    39        235
    40         74
    41        472
    42         73
    43         68
    44          2
    45          3
    46          1
    47          1
    50         10
    51         34
    52         22
    53        180
    54         77
    55        363
    56        118
    57         15
    58          5
    59          5
    60          1
    61          1
    62          3
    63          9
    64          2
    65         46
    66         33
    67        926
    68        701
    69        447
    70         62
    71         12
    72          4
    74          1
    75          1
    77         45
    78          9
    79        112
    80         97
    81        520
    82        604
    83        110
    84         28
    85          3
    89          1
    91         28
    92          9
    93         98
    94         39
    95        999
    96        193
    97        154
    98         15
    99          1
   103          1
   105          9
   106          7
   107         17
   108        271
   109        426
   110        285
   111         50
   112          4
   119         15
   120          2
   121         10
   122          2
   123         61
   124         38
   125          4
   133          1
   134          4
   135          4
   136          2
   137        173
   138         17
   139          1
   149          2
   150          3
   151          9
   152        462
   153         60
   154          5