##TITLE=Library Entry 9665
##JCAMP-DX=Revision 4.10 
##DATA TYPE=MASS SPECTRUM
##SAMPLE DESCRIPTION=DKFZ HD SCHMIDT, HEIDELBERG, GERMANY, F.R.G.
##NAMES=HP
##CAS NAME=5H-Cyclopropa[3,4]benz[1,2-e]azulen-5-one, 9,9a-bis(acetyloxy)-3-
[(acetyloxy)methyl]-1,1a,1b,2,3,4,4a,7a,7b,8,9,9a-dodecahydro-2,3,4a,7b-tetr
ahydroxy-1,1,6,8-tetramethyl-, [1ar-(1a.alpha.,1b.beta.,2.alpha.,3.alpha.,4a
.beta.,7a.alpha.,7b.alpha.,8.a
##MOLFORM=C26H36O11
##CAS REGISTRY NO=77646-82-3
##MP= -300
##BP= -300
##MW= 524
##$RETENTION INDEX=0
##$CONDENSED SPECTRUM=NO
##NPOINTS= 416
##XYDATA=(XY..XY) 1 
    12          1
    13          2
    14         12
    15         69
    16          4
    17          6
    18         21
    19          1
    20          0
    22          0
    24          0
    25          1
    26          7
    27         39
    28        195
    29         58
    30          2
    31         28
    32         36
    34          0
    35          1
    36          3
    37          2
    38          4
    39         60
    40         14
    41        195
    42         38
    43        999
    44         48
    45         47
    46          0
    47          2
    49          0
    50          5
    51         21
    52         12
    53        123
    54         21
    55        123
    56         14
    57         72
    58         10
    59         24
    60         28
    61         26
    62          2
    63          7
    64          3
    65         41
    66         15
    67         67
    68         12
    69        257
    70         20
    71         52
    72          5
    73         50
    74          7
    75          4
    76          3
    77         90
    78         23
    79         94
    80         22
    81         76
    82         46
    83        402
    84         27
    85         35
    86          4
    87          7
    88          1
    89          6
    90          3
    91        100
    92         16
    93         57
    94         18
    95         90
    96         50
    97         49
    98         20
    99         10
   100          5
   101         74
   102          6
   103         15
   104          6
   105         67
   106         15
   107         80
   108         90
   109        206
   110         42
   111         57
   112         15
   113         15
   114        123
   115         37
   116         13
   117         25
   118          8
   119         38
   120         17
   121         82
   122         50
   123         61
   124         65
   125        154
   126         16
   127         17
   128         20
   129         26
   130         10
   131         26
   132         13
   133         56
   134         22
   135         65
   136         21
   137         44
   138         22
   139         27
   140         10
   141         25
   142         14
   143         22
   144         11
   145         36
   146         18
   147         41
   148         32
   149        123
   150         59
   151         63
   152         22
   153         25
   154          9
   155         16
   156         59
   157         25
   158         15
   159         38
   160         19
   161         73
   162         23
   163         41
   164         21
   165         47
   166         25
   167         37
   168         15
   169         18
   170         10
   171         21
   172         15
   173         42
   174         31
   175         68
   176         27
   177        102
   178         45
   179         56
   180         14
   181         19
   182         10
   183         26
   184         14
   185         41
   186         21
   187         37
   188         20
   189         30
   190         15
   191         25
   192         13
   193         20
   194         10
   195         30
   196         14
   197         26
   198         20
   199         29
   200         14
   201         42
   202         21
   203         35
   204         15
   205         19
   206         10
   207         16
   208         14
   209         21
   210         12
   211         28
   212         22
   213         56
   214         24
   215         44
   216         15
   217         21
   218         11
   219         22
   220         14
   221         18
   222         10
   223         17
   224         13
   225         32
   226         25
   227         37
   228         15
   229         34
   230         26
   231         32
   232          9
   233         12
   234          6
   235         12
   236          8
   237         35
   238         24
   239         45
   240         24
   241         35
   242         21
   243         30
   244         16
   245         19
   246          7
   247         13
   248         10
   249         18
   250         12
   251         20
   252         22
   253         24
   254         19
   255         75
   256         23
   257         40
   258         23
   259         16
   260          8
   261         16
   262         11
   263         12
   264          8
   265         23
   266         12
   267         35
   268         18
   269         26
   270         27
   271         17
   272          8
   273         20
   274          8
   275         17
   276          7
   277          8
   278          5
   279         25
   280         24
   281         17
   282          7
   283         18
   284         10
   285         25
   286         13
   287         13
   288         12
   289         12
   290         24
   291         18
   292          6
   293         17
   294          5
   295         18
   296          8
   297         36
   298         25
   299         12
   300          5
   301          9
   302          5
   303         22
   304          9
   305          3
   306          5
   307         11
   308         46
   309         20
   310          6
   311         11
   312          7
   313         19
   314          6
   315         10
   316          9
   317         18
   318          5
   319          3
   320          1
   321          2
   322          1
   323          1
   324          1
   325         15
   326         43
   327         19
   328          6
   329         10
   330         12
   331         11
   332          3
   333          2
   334          2
   335         11
   336          2
   337          1
   338          0
   339          6
   340          5
   341          3
   342          1
   343         13
   344         26
   345         11
   346          3
   347          4
   348          2
   349          1
   350          2
   351          2
   352          1
   353          2
   354          1
   355          3
   356          1
   357         11
   358          7
   359          3
   360          2
   361          5
   362          3
   363          2
   364          1
   365          0
   366          0
   367          2
   368         20
   369         10
   370          2
   371          8
   372          3
   373          2
   374          0
   375          2
   376          5
   377          4
   378          1
   379          0
   380          0
   381          0
   382          0
   384          0
   385          4
   386         69
   387         20
   388          4
   389         15
   390          3
   391          1
   392          0
   393          0
   401          0
   402          0
   403          3
   404         31
   405         10
   406          2
   407          0
   408          1
   409          0
   410          0
   411          0
   415          0
   417          0
   418          0
   419          0
   421          1
   422          1
   423          0
   428          3
   429          1
   430          0
   431          0
   433          0
   435          0
   436          0
   445          0
   446         15
   447          5
   448          1
   449          5
   450          1
   451          0
   463          0
   464          2
   465          2
   466          0
   488          0
   506          0
   507          0