##TITLE=Library Entry 9660
##JCAMP-DX=Revision 4.10 
##DATA TYPE=MASS SPECTRUM
##SAMPLE DESCRIPTION=DKFZ HD SCHMIDT, HEIDELBERG, GERMANY, F.R.G.
##NAMES=HP
##CAS NAME=4H-Cyclopropa[5',6']benz[1',2':7,8]azuleno[5,6-b]oxiren-4-one, 8-
(acetyloxy)-1,1a,1b,1c,2a,3,3a,6a,6b,7,8,8a-dodecahydro-3a,6b,8a-trihydroxy-
2a-(hydroxymethyl)-1,1,5,7-tetramethyl-, (1a.alpha.,1b.beta.,1c.beta.,2a.bet
a.,3a.beta.,6a.alpha.,6b.alpha
##MOLFORM=C22H30O8
##CAS REGISTRY NO=77646-23-2
##MP= -300
##BP= -300
##MW= 422
##$RETENTION INDEX=0
##$CONDENSED SPECTRUM=NO
##NPOINTS= 389
##XYDATA=(XY..XY) 1 
    12          2
    13          4
    14         10
    15         53
    16          4
    17          5
    18         15
    19          0
    24          0
    25          1
    26          5
    27         31
    28         76
    29         37
    30          2
    31         17
    32         10
    35          1
    36          6
    37          2
    38          3
    39         59
    40         14
    41        142
    42         34
    43        999
    44         26
    45         76
    46          1
    47          1
    49          0
    50          3
    51         15
    52         13
    53        112
    54         15
    55         76
    56          8
    57         36
    58          7
    59         18
    60         41
    61         15
    62          1
    63          7
    64          3
    65         29
    66         12
    67         47
    68         11
    69        177
    70         21
    71         19
    72          2
    73         14
    74          1
    75          2
    76          1
    77         71
    78         18
    79         65
    80         13
    81         46
    82         32
    83        307
    84         20
    85         26
    86          2
    87          4
    88          0
    89          3
    90          1
    91         71
    92         13
    93         31
    94         13
    95         65
    96         34
    97         30
    98          9
    99          8
   100          2
   101         20
   102          4
   103         13
   104          6
   105         45
   106          9
   107         43
   108         39
   109        142
   110         26
   111         27
   112         10
   113          9
   114         50
   115         21
   116          9
   117         17
   118          5
   119         26
   120         15
   121         43
   122         22
   123         49
   124         44
   125         55
   126          7
   127         11
   128         15
   129         20
   130          6
   131         18
   132         11
   133         30
   134         14
   135         36
   136         16
   137         34
   138         21
   139         14
   140          7
   141         20
   142         11
   143         17
   144          9
   145         27
   146         14
   147         29
   148         18
   149         46
   150         30
   151         43
   152         14
   153         15
   154          8
   155         13
   156         31
   157         19
   158         15
   159         36
   160         19
   161         47
   162         23
   163         27
   164         18
   165         32
   166         20
   167         26
   168         12
   169         14
   170          8
   171         22
   172         15
   173         37
   174         27
   175         52
   176         24
   177         54
   178         24
   179         38
   180         11
   181         15
   182          8
   183         22
   184         11
   185         37
   186         23
   187         42
   188         21
   189         36
   190         16
   191         24
   192         12
   193         18
   194          9
   195         23
   196         13
   197         28
   198         23
   199         30
   200         15
   201         43
   202         24
   203         40
   204         15
   205         20
   206         11
   207         17
   208         14
   209         20
   210         13
   211         37
   212         17
   213         50
   214         22
   215         38
   216         16
   217         21
   218         10
   219         20
   220         11
   221         17
   222          8
   223         15
   224         11
   225         28
   226         26
   227         33
   228         15
   229         35
   230         21
   231         29
   232         10
   233         11
   234          5
   235         11
   236          7
   237         23
   238         13
   239         30
   240         15
   241         27
   242         13
   243         31
   244         17
   245         19
   246          8
   247         16
   248          9
   249         14
   250          7
   251         14
   252         12
   253         17
   254         10
   255         27
   256         14
   257         31
   258         15
   259         14
   260          6
   261         14
   262          8
   263         33
   264         14
   265         19
   266          8
   267         24
   268         13
   269         20
   270         21
   271         17
   272          9
   273         18
   274          7
   275         15
   276          8
   277          7
   278          4
   279         11
   280         13
   281         10
   282          7
   283         15
   284          7
   285         17
   286         11
   287         10
   288         10
   289          7
   290         10
   291          9
   292          5
   293         12
   294          3
   295         14
   296          8
   297         13
   298         13
   299          8
   300          4
   301          7
   302          4
   303          9
   304          5
   305          2
   306          1
   307          4
   308         18
   309          9
   310          7
   311          9
   312          3
   313         21
   314          8
   315          7
   316          5
   317          5
   318          2
   319          2
   320          0
   321          2
   322          1
   323          0
   324          1
   325          4
   326         24
   327         12
   328          6
   329          8
   330         52
   331         23
   332          5
   333          3
   334          1
   335          7
   336          1
   337          0
   338          0
   339          4
   340          3
   341          1
   342          1
   343          5
   344         16
   345          8
   346          3
   347          1
   348          2
   349          1
   350          1
   351          1
   352          1
   353          1
   354          0
   355          4
   356          2
   357          1
   358          1
   359          1
   360          1
   361          3
   362          4
   363          1
   364          0
   365          0
   366          0
   367          0
   368          5
   369          1
   370          2
   371          3
   372          1
   373          7
   374          1
   375          1
   376          1
   377          0
   378          0
   380          1
   381          0
   382          0
   384          0
   385          0
   386         10
   387          4
   388          1
   389          2
   390          1
   391          1
   392          0
   393          0
   394          0
   400          0
   402          0
   403          0
   404          8
   405         21
   406          5
   407          1
   408          0
   418          1
   419          0
   420          0
   421          1
   422          1
   423          0
   424          0