##TITLE=Library Entry 9664
##JCAMP-DX=Revision 4.10 
##DATA TYPE=MASS SPECTRUM
##SAMPLE DESCRIPTION=DKFZ HD SCHMIDT, HEIDELBERG, GERMANY, F.R.G.
##NAMES=HP
##CAS NAME=5H-Cyclopropa[3,4]benz[1,2-e]azulen-5-one, 9,9a-bis(acetyloxy)-3-
[(acetyloxy)methyl]-1,1a,1b,4,4a,7a,7b,8,9,9a-decahydro-4,4a,7b-trihydroxy-1
,1,6,8-tetramethyl-
##MOLFORM=C26H34O10
##CAS REGISTRY NO=77646-80-1
##MP= -300
##BP= -300
##MW= 506
##$RETENTION INDEX=0
##$CONDENSED SPECTRUM=NO
##NPOINTS= 405
##XYDATA=(XY..XY) 1 
    12          1
    13          3
    14         11
    15         62
    16          2
    17          2
    18          6
    19          0
    24          0
    25          1
    26          5
    27         25
    28         56
    29         43
    30          1
    31         10
    32          2
    35          6
    36          2
    37          2
    38          3
    39         56
    40         12
    41        143
    42         33
    43        999
    44         30
    45         68
    46          1
    47         14
    48          6
    49          5
    50          3
    51         15
    52         11
    53        156
    54         20
    55        106
    56          8
    57         68
    58          6
    59         18
    60         37
    61         21
    62          1
    63          6
    64          3
    65         62
    66         23
    67         81
    68          9
    69        275
    70         20
    71         14
    72          1
    73          3
    74          1
    75          2
    76          1
    77         93
    78         22
    79         87
    80         15
    81         50
    82         43
    83        356
    84         21
    85         40
    86          6
    87          6
    88          0
    89          5
    90          2
    91        143
    92         23
    93         81
    94         37
    95         81
    96         20
    97         21
    98          6
    99          6
   100          2
   101         11
   102          5
   103         22
   104         11
   105         87
   106         16
   107         62
   108         18
   109        206
   110         75
   111         81
   112         56
   113         13
   114         36
   115         43
   116         18
   117         43
   118         11
   119         68
   120         23
   121         68
   122         31
   123         50
   124         43
   125         68
   126          7
   127         16
   128         37
   129         36
   130         15
   131         43
   132         20
   133         50
   134         18
   135         50
   136         56
   137         56
   138         75
   139         36
   140         14
   141         26
   142         20
   143         28
   144         17
   145         62
   146         25
   147         50
   148         43
   149         56
   150         20
   151         43
   152         21
   153         25
   154         11
   155         20
   156         37
   157         31
   158         23
   159         62
   160         50
   161         68
   162         21
   163         31
   164         13
   165         37
   166         20
   167         28
   168         27
   169         23
   170         15
   171         43
   172         20
   173         47
   174         29
   175         48
   176         22
   177         44
   178         24
   179         56
   180         22
   181         22
   182          9
   183         21
   184         15
   185         50
   186         37
   187         87
   188         50
   189         87
   190         31
   191         22
   192         10
   193         14
   194          8
   195         23
   196         21
   197         37
   198         31
   199         37
   200         16
   201         34
   202         31
   203         43
   204         25
   205         25
   206         16
   207         20
   208         37
   209         31
   210         20
   211         43
   212         22
   213         56
   214         37
   215         93
   216         52
   217         56
   218         14
   219         15
   220          9
   221         15
   222         13
   223         26
   224         16
   225         31
   226         62
   227         30
   228         15
   229         37
   230         31
   231         37
   232         13
   233         28
   234         12
   235         15
   236         10
   237         29
   238         27
   239         37
   240         25
   241         43
   242         20
   243         27
   244         18
   245         14
   246          8
   247         16
   248          8
   249         15
   250         14
   251         31
   252         25
   253         21
   254          9
   255         24
   256         62
   257         37
   258         17
   259         10
   260          5
   261         13
   262         13
   263         21
   264         14
   265         43
   266         37
   267         24
   268         20
   269         31
   270         20
   271         18
   272          6
   273          8
   274          6
   275         20
   276          7
   277          5
   278          4
   279         37
   280         56
   281         31
   282         12
   283         37
   284         11
   285          9
   286         13
   287          6
   288          2
   289          8
   290         18
   291         18
   292          6
   293         35
   294          9
   295         11
   296          5
   297         31
   298         43
   299         15
   300          5
   301          7
   302          3
   303          5
   304          2
   305          1
   306          1
   307         15
   308        118
   309         56
   310         15
   311         26
   312          8
   313          3
   314          2
   315          6
   316          3
   317          3
   318          1
   319          1
   320          5
   321          1
   322          1
   323          2
   324          5
   325         23
   326        218
   327         62
   328         14
   329          5
   330          3
   331          1
   332          0
   333          1
   334          0
   335          1
   336          0
   337          0
   338          0
   339          2
   340          5
   341          2
   342          2
   343         11
   344         31
   345          8
   346          1
   347          0
   348          0
   349          0
   350          4
   351          3
   352          1
   353          3
   354          1
   355          1
   356          1
   357          2
   358          2
   359          1
   360          0
   361          1
   362          1
   363          0
   367          2
   368         81
   369         22
   370          5
   371          3
   372          1
   373          0
   374          0
   375          0
   376          0
   383          0
   384          1
   385          7
   386        112
   387         37
   388          6
   389          0
   395          0
   398          1
   399          0
   400          0
   401          0
   402          1
   403          9
   404         20
   405          5
   406          0
   410          0
   411          0
   412          0
   413          0
   414          0
   416          0
   417          0
   418          0
   420          0
   427          0
   428          9
   429          2
   430          0
   431          1
   432          0
   440          0
   444          0
   445          1
   446         16
   447         31
   448          7
   449          1
   458          1
   459          0
   462          0
   463          1
   464          0
   488          0
   489          0
   500          0
   506          3
   507          1