##TITLE=Library Entry 73297
##JCAMP-DX=Revision 4.10 
##DATA TYPE=MASS SPECTRUM
##SAMPLE DESCRIPTION=J.T. CLERC, ORGANIC CHEM. LAB., ETH, ZURICH, SWITZ.
##NAMES=HP
##CAS NAME=Proline, 3-hydroxy-4-methyl-
##MOLFORM=C6H11NO3
##CAS REGISTRY NO=77647-24-6
##MP= -300
##BP= -300
##MW= 145
##$RETENTION INDEX=0
##$CONDENSED SPECTRUM=NO
##NPOINTS= 26
##XYDATA=(XY..XY) 1 
    17         44
    18          2
    27         83
    28          4
    29         44
    30        272
    31         22
    39         50
    41        255
    42         72
    43         44
    44         16
    53         55
    55         55
    57         55
    59         72
    69        294
    70         38
    71         83
    74         72
    82         77
    87        394
    88         44
   100        999
   101         66
   145         61