##TITLE=Library Entry 52693
##JCAMP-DX=Revision 4.10 
##DATA TYPE=MASS SPECTRUM
##SAMPLE DESCRIPTION=DKFZ HD FUERSTENBERGER, HEIDELBERG, GERMANY, F.R.G.
##NAMES=HP
##CAS NAME=1H-Cyclopropa[3,4]benz[1,2-e]azulene-4a,5,7b,9,9a(1aH)-pentol, 3-
[(acetyloxy)methyl]-1b,4,5,7a,8,9-hexahydro-1,1,6,8-tetramethyl-, 9,9a-diace
tate, [1aR-(1a.alpha.,1b.beta.,4a.beta.,5.alpha.,7a.alpha.,7b.alpha.,8.alpha
.,9.beta.,9a.alpha.)]-
##MOLFORM=C26H36O9
##CAS REGISTRY NO=77646-24-3
##MP= -300
##BP= -300
##MW= 492
##$RETENTION INDEX=0
##$CONDENSED SPECTRUM=NO
##NPOINTS= 443
##XYDATA=(XY..XY) 1 
    12          3
    13          8
    15          5
    17          3
    18          0
    23          1
    24          1
    25          3
    26         73
    27         70
    28         34
    29        176
    30          4
    31         29
    32          1
    35          0
    36          6
    37          4
    38          7
    40         15
    41        200
    42         70
    43        367
    44        144
    45        100
    46          2
    47          1
    48          0
    49          1
    50          7
    51         23
    52         13
    53        176
    54         35
    55        470
    56         35
    57        135
    58         20
    59         38
    60        111
    61         32
    62          6
    63         20
    64          7
    65        111
    66        120
    67        176
    68         32
    69        764
    70         52
    71         73
    72          8
    73         11
    74          4
    75          7
    76          6
    77        235
    78         76
    79        352
    80         70
    81        129
    82         79
    83        999
    84         76
    85        129
    86         26
    87         11
    88          2
    89         11
    90          9
    91        352
    92         85
    93        235
    94        205
    95        382
    96        111
    97         67
    98         20
    99         23
   100          8
   101         35
   102         11
   103         55
   104         35
   105        323
   106         73
   107        252
   108        135
   109        247
   110         50
   111        558
   112        138
   113         52
   114        123
   115        114
   116         50
   117        117
   118         58
   119        182
   120        108
   121        276
   122        164
   123        191
   124         76
   125        211
   126         29
   127         50
   128         82
   129        129
   130         70
   131        208
   132         76
   133        167
   134         79
   135        144
   136        150
   137         85
   138         44
   139         88
   140         35
   141         73
   142         73
   143        211
   144         88
   145        211
   146         97
   147        205
   148         94
   149        150
   150         55
   151        188
   152         88
   153         61
   154         29
   155         85
   156        111
   157        147
   158        108
   159        294
   160        185
   161        205
   162         88
   163        129
   164         61
   165        105
   166         44
   167         61
   168         35
   169         70
   170         64
   171        161
   172        152
   173        382
   174        138
   175        150
   176         91
   177         82
   178         44
   179        102
   180         50
   181         79
   182         38
   183        105
   184         58
   185        111
   186         88
   187        144
   188        123
   189        144
   190         88
   191         79
   192         44
   193         50
   194         55
   195         73
   196         47
   197        108
   198        161
   199        264
   200        129
   201        194
   202         70
   203        123
   204         88
   205         64
   206         50
   207         55
   208         35
   209         70
   210         50
   211        264
   212        132
   213         82
   214         47
   215        123
   216        144
   217        105
   218         52
   219         70
   220         29
   221         44
   222         29
   223         79
   224         44
   225         97
   226         76
   227         79
   228         44
   229        120
   230         44
   231         35
   232         26
   233         91
   234         38
   235         55
   236         44
   237         58
   238         50
   239         79
   240         32
   241         64
   242         70
   243        144
   244         73
   245         41
   246         15
   247         35
   248         32
   249         44
   250         41
   251        114
   252         55
   253         79
   254         47
   255         58
   256         29
   257         23
   258         23
   259         50
   260         35
   261        141
   262         35
   263         26
   264         20
   265         79
   266        108
   267         58
   268         26
   269         76
   270         20
   271         47
   272         23
   273         12
   274          7
   275         23
   276        135
   277         73
   278         32
   279        100
   280         23
   281         41
   282         15
   283         58
   284         61
   285         32
   286         13
   287         15
   288          7
   289         10
   290          4
   291          6
   292          9
   293         58
   294        294
   295        117
   296         38
   297         44
   298         12
   299         13
   300          5
   301         14
   302         10
   303         35
   304          6
   305          4
   306         32
   307          8
   308          5
   309          6
   310         12
   311         67
   312        264
   313         85
   314         23
   315         10
   316          4
   317          4
   318          5
   319          5
   320          6
   321          7
   322          3
   323          5
   324          2
   325          8
   326         23
   327         12
   328          8
   329         55
   330         52
   331         15
   332          5
   333          1
   334          2
   335          2
   336         44
   337         20
   338          8
   339         11
   340          4
   341          6
   342          3
   343         13
   344         11
   345          5
   346          2
   347          6
   348          4
   349          1
   350          2
   351          1
   352          3
   353         11
   354        185
   355         76
   356         15
   357         23
   358          4
   359          3
   360          1
   361          3
   362          1
   363          0
   364          0
   365          3
   366          2
   367          1
   368          2
   369          2
   370          9
   371         29
   372        294
   373         76
   374         14
   375          2
   376          0
   377          0
   378          1
   379          1
   380          1
   381          1
   382          1
   383          1
   384          1
   385          2
   386          8
   387          4
   388          3
   389         20
   390         13
   391          3
   392          0
   393          0
   394          0
   395          1
   396         23
   397          7
   398          4
   399          2
   400          1
   401          1
   402          0
   403          5
   404          2
   406          0
   408          0
   410          0
   411          0
   412          3
   413          3
   414         32
   415         11
   416          2
   417          9
   418          2
   419          1
   420          0
   421          0
   422          0
   423          0
   425          0
   426          0
   427          0
   428          1
   429          0
   430          2
   431          4
   432         35
   433         38
   434          8
   435          2
   436          0
   438          1
   439          0
   440          0
   442          0
   443          0
   445          0
   446          0
   447          0
   448          0
   449          0
   450          0
   452          0
   453          0
   455          0
   456         11
   457          3
   458          2
   463          0
   464          0
   466          0
   469          0
   470          0
   472          0
   473          1
   474          2
   475          1
   476          0
   491          0
   492          5
   493          1
   494          0