##TITLE=Library Entry 8620
##JCAMP-DX=Revision 4.10 
##DATA TYPE=MASS SPECTRUM
##SAMPLE DESCRIPTION=DKFZ HD SCHMIDT, HEIDELBERG, GERMANY, F.R.G.
##NAMES=HP
##CAS NAME=5H-Cyclopropa[3,4]benz[1,2-e]azulen-5-one, 9,9a-bis(acetyloxy)-3-
[(acetyloxy)methyl]-1,1a,1b,2,4a,7a,7b,8,9,9a-decahydro-2,4a,7b-trihydroxy-1
,1,6,8-tetramethyl-, [1aR-(1a.alpha.,1b.beta.,2.beta.,4a.beta.,7a.alpha.,7b.
alpha.,8.alpha.,9.beta.,9a.alp
##MOLFORM=C26H34O10
##CAS REGISTRY NO=77646-21-0
##MP= -300
##BP= -300
##MW= 506
##$RETENTION INDEX=0
##$CONDENSED SPECTRUM=NO
##NPOINTS= 400
##XYDATA=(XY..XY) 1 
    12          2
    14         11
    15         18
    16          2
    17          2
    18          2
    24          0
    25          0
    26          2
    27         15
    28         67
    29         22
    30          0
    31          2
    32          6
    35          3
    36          1
    37          1
    38          3
    39         37
    40          8
    41        126
    42         32
    43        999
    44         33
    45         43
    46          0
    47          4
    49          1
    50          4
    51         11
    52          9
    53        106
    54         13
    55         74
    56          7
    57         37
    58          5
    59         87
    60         29
    61         22
    62          1
    63          6
    64          3
    65         30
    66         11
    67         53
    68         11
    69        310
    70         19
    71         14
    72          1
    73          2
    74          1
    75          1
    76          2
    77         87
    78         26
    79         70
    80         12
    81         44
    82         34
    83        155
    84          9
    85         25
    86          1
    87          2
    88          0
    89          4
    90          2
    91        116
    92         17
    93         47
    94         14
    95         61
    96         35
    97         31
    98          7
    99          6
   100          2
   101          6
   102          3
   103         27
   104         10
   105         76
   106         15
   107         52
   108         22
   109        155
   110         20
   111         22
   112          6
   113          6
   114         11
   115         32
   116         14
   117         27
   118          7
   119         36
   120         17
   121         78
   122         25
   123         41
   124         31
   125         57
   126          6
   127         13
   128         24
   129         30
   130         10
   131         33
   132         23
   133         57
   134         43
   135         46
   136         21
   137         41
   138         17
   139         12
   140          3
   141         19
   142         15
   143         22
   144         11
   145         45
   146         19
   147         38
   148         29
   149        116
   150         35
   151         60
   152         17
   153         14
   154          6
   155         15
   156         10
   157         22
   158         20
   159         42
   160         42
   161         77
   162         54
   163         47
   164         25
   165         57
   166         24
   167         24
   168          7
   169         14
   170          7
   171         31
   172         22
   173         33
   174         27
   175         53
   176         17
   177         53
   178         55
   179         60
   180         14
   181         14
   182          8
   183         17
   184         13
   185         33
   186         19
   187         38
   188         24
   189         34
   190         17
   191         23
   192         10
   193         18
   194          7
   195         15
   196         10
   197         26
   198         16
   199         33
   200         19
   201         33
   202         29
   203         35
   204         19
   205         16
   206          8
   207         11
   208         10
   209         18
   210         12
   211         32
   212         24
   213         41
   214         19
   215         28
   216         12
   217         20
   218         12
   219         18
   220          9
   221         12
   222         19
   223         31
   224         16
   225         29
   226         15
   227         32
   228         17
   229         37
   230         24
   231         27
   232          8
   233         10
   234          4
   235         11
   236          7
   237         20
   238         12
   239         38
   240         37
   241         52
   242         19
   243         19
   244          9
   245         16
   246          7
   247         17
   248          6
   249         11
   250         24
   251         29
   252         17
   253         22
   254          6
   255         19
   256         10
   257         34
   258         15
   259         12
   260         13
   261          9
   262         15
   263         17
   264          7
   265         25
   266          9
   267         26
   268         53
   269         81
   270         22
   271         13
   272          5
   273          4
   274          2
   275         11
   276          3
   277          5
   278          8
   279         21
   280         37
   281         27
   282          9
   283         25
   284          7
   285         22
   286         16
   287         16
   288          3
   289          8
   290         17
   291         15
   292          7
   293         28
   294          6
   295          9
   296          5
   297         17
   298         23
   299         20
   300          5
   301          4
   302          3
   303          3
   304          1
   305          1
   306          1
   307          9
   308         72
   309         80
   310         27
   311         25
   312          5
   313          4
   314          2
   315          4
   316          2
   317          2
   318          1
   319          0
   320          0
   321          1
   322          1
   323          1
   324          3
   325         25
   326         66
   327         55
   328         18
   329          9
   330          2
   331          0
   332          0
   333          1
   334          0
   335          2
   336          0
   337          0
   338          0
   339          2
   340          5
   341          4
   342          2
   343         11
   344         10
   345         25
   346          5
   347          1
   348          0
   349          0
   350          5
   351          5
   352          2
   353          3
   354          0
   355          1
   356          1
   357          3
   358          4
   359          2
   360          1
   361         13
   362          2
   363          0
   366          0
   367          1
   368         40
   369         59
   370         15
   371          5
   372          1
   373          1
   374          0
   375          0
   376          0
   381          0
   382          0
   383          0
   384          1
   385          9
   386         36
   387         55
   388         14
   389          2
   390          0
   395          0
   399          0
   400          1
   401          0
   402          1
   403          5
   404          4
   405          1
   406          0
   410          0
   411          1
   412          0
   413          0
   417          0
   418          2
   419          0
   427          0
   428         19
   429          6
   430          1
   431          1
   432          0
   433          0
   444          0
   445          0
   446          8
   447        233
   448         61
   449         10
   450          1
   463          8
   464          2
   465          0
   506          2
   507          0
   508          0