##TITLE=Library Entry 9682
##JCAMP-DX=Revision 4.10 
##DATA TYPE=MASS SPECTRUM
##SAMPLE DESCRIPTION=DKFZ HD SCHMIDT, HEIDELBERG, GERMANY, F.R.G.
##NAMES=HP
##CAS NAME=5H-Cyclopropa[3,4]benz[1,2-e]azulen-5-one, 2,9,9a-tris(acetyloxy)
-3-[(acetyloxy)methyl]-1,1a,1b,2,3,4,4a,7a,7b,8,9,9a-dodecahydro-3,4a,7b-tri
hydroxy-1,1,6,8-tetramethyl-, [1aR-(1a.alpha.,1b.beta.,2.alpha.,3.beta.,4a.b
eta.,7a.alpha.,7b.alpha.,8.alp
##MOLFORM=C28H38O12
##CAS REGISTRY NO=77646-81-2
##MP= -300
##BP= -300
##MW= 566
##$RETENTION INDEX=0
##$CONDENSED SPECTRUM=NO
##NPOINTS= 435
##XYDATA=(XY..XY) 1 
    12          3
    13          4
    14         17
    15         79
    16          5
    17          6
    18         29
    19          2
    22          0
    24          1
    25          2
    26          7
    27         53
    28        194
    29         67
    30         10
    31         58
    32         19
    35          3
    36          7
    37          2
    38          5
    39         73
    40         19
    41        313
    42         58
    43        999
    44         85
    45        102
    46          2
    47          5
    48          0
    49          1
    50          6
    51         25
    52         19
    53        223
    54         29
    55        164
    56         16
    57        126
    58         16
    59         31
    60         65
    61         40
    62          2
    63          8
    64          4
    65         55
    66         23
    67         98
    68         16
    69        477
    70         43
    71         68
    72          8
    73         31
    74          8
    75          4
    76          3
    77        134
    78         34
    79        164
    80         32
    81        116
    82         97
    83        850
    84         52
    85         80
    86          7
    87         11
    88          1
    89          6
    90          6
    91        149
    92         26
    93        105
    94         34
    95        179
    96        100
    97         82
    98         37
    99         17
   100         11
   101         70
   102          6
   103         22
   104         10
   105        102
   106         26
   107        164
   108        223
   109        522
   110         88
   111        107
   112         38
   113         35
   114        268
   115         49
   116         19
   117         35
   118         10
   119         76
   120         25
   121        144
   122         83
   123        119
   124        208
   125        358
   126         40
   127         29
   128         31
   129         41
   130         13
   131         41
   132         19
   133         94
   134         77
   135        126
   136         43
   137         89
   138         44
   139         55
   140         29
   141         53
   142         23
   143         35
   144         14
   145         56
   146         31
   147         74
   148         55
   149        164
   150         76
   151        111
   152         38
   153         40
   154         16
   155         23
   156        223
   157         53
   158         28
   159         65
   160         43
   161        147
   162         52
   163         79
   164         59
   165         82
   166         61
   167         74
   168         34
   169         28
   170         16
   171         37
   172         29
   173         79
   174         46
   175        146
   176         50
   177        179
   178        100
   179        123
   180         26
   181         29
   182         19
   183         61
   184         25
   185         79
   186         43
   187         68
   188         41
   189         68
   190         32
   191         50
   192         25
   193         56
   194         23
   195         61
   196         28
   197         49
   198         40
   199         52
   200         29
   201        117
   202         49
   203         74
   204         28
   205         43
   206         22
   207         29
   208         20
   209         32
   210         19
   211         46
   212         34
   213         89
   214         55
   215         80
   216         37
   217         41
   218         31
   219         62
   220         55
   221        208
   222         44
   223         31
   224         19
   225         53
   226         65
   227         61
   228         26
   229         55
   230         40
   231         77
   232         26
   233         23
   234         14
   235         22
   236         16
   237         49
   238         31
   239         59
   240         37
   241         55
   242         31
   243         59
   244         83
   245         43
   246         17
   247         20
   248         19
   249         43
   250         22
   251         34
   252         32
   253         49
   254         37
   255         86
   256         37
   257         62
   258         34
   259         26
   260         13
   261         80
   262         38
   263         23
   264         11
   265         40
   266         22
   267         79
   268         47
   269         50
   270         46
   271         35
   272         23
   273         29
   274         17
   275         44
   276         16
   277         32
   278         23
   279         40
   280         35
   281         26
   282         13
   283         32
   284         16
   285         70
   286         34
   287         23
   288         16
   289         16
   290         22
   291         26
   292         10
   293         28
   294          8
   295         79
   296         52
   297         61
   298         43
   299         22
   300         10
   301         19
   302          8
   303         22
   304         31
   305          8
   306          8
   307         22
   308         85
   309         46
   310         14
   311         23
   312         13
   313        104
   314         46
   315         31
   316         20
   317         20
   318          7
   319          6
   320          2
   321          7
   322          4
   323          3
   324         13
   325         32
   326        153
   327         68
   328         20
   329         25
   330         28
   331         32
   332         10
   333          6
   334          4
   335          8
   336          3
   337          3
   338          1
   339          3
   340          5
   341          3
   342          4
   343         35
   344        131
   345         44
   346         14
   347         10
   348          4
   349          2
   350          4
   351          3
   352          1
   353          3
   354          1
   355         20
   356         16
   357         10
   358          8
   359          8
   360         31
   361         19
   362         17
   363          5
   364          1
   365          1
   366          5
   367          3
   368         22
   369         11
   370          5
   371          8
   372          6
   373         40
   374         11
   375          6
   376          6
   377          7
   378          2
   379          1
   380          0
   381          2
   382          0
   384          1
   385          8
   386        111
   387         40
   388         10
   389         22
   390          6
   391          5
   392          1
   393          0
   394          0
   395          0
   397          0
   398          0
   400          0
   401          0
   402          4
   403         13
   404        153
   405         64
   406         13
   407          3
   408          1
   410          0
   413          0
   414          0
   415          3
   416          1
   417          0
   418          0
   419          1
   420          2
   421          4
   422          5
   423          2
   424          0
   428          6
   429          2
   430          1
   431          1
   432          0
   433          2
   434          1
   435          1
   436          0
   438          0
   444          0
   445          0
   446         43
   447         13
   448          2
   449          8
   450          2
   451          0
   462          1
   463          1
   464         29
   465         14
   466          3
   467          0
   475          0
   480          0
   481          0
   482          0
   488          1
   489          0
   506          2
   507          0
   524          0