##TITLE=Library Entry 2882
##JCAMP-DX=Revision 4.10 
##DATA TYPE=MASS SPECTRUM
##SAMPLE DESCRIPTION=NIST Mass Spectrometry Data Center, 1994
##NAMES=HP
##CAS NAME=2,4-Undecadien-1-ol
##MOLFORM=C11H20O
##CAS REGISTRY NO=77657-78-4
##MP= -300
##BP= -300
##MW= 168
##$RETENTION INDEX=0
##$CONDENSED SPECTRUM=NO
##NPOINTS= 69
##XYDATA=(XY..XY) 1 
    15         14
    18          4
    26         16
    27        375
    28         59
    29        452
    30         13
    31        116
    38         19
    39        410
    40         77
    41        999
    42        129
    43        392
    44         28
    50         19
    51         76
    52         41
    53        165
    54        150
    55        576
    56        179
    57        162
    58          9
    62          5
    63         19
    64          7
    65        100
    66         77
    67        380
    68        122
    69        231
    70        260
    71         30
    77        159
    78         51
    79        313
    80        115
    81        187
    82        134
    83        489
    84        417
    85         44
    86          5
    91         61
    92          9
    93         54
    94         19
    95        106
    96         73
    97        116
    98         88
    99          5
   105          5
   107         14
   108          7
   109         17
   110          4
   111         21
   112          8
   113         19
   121         10
   124         37
   125          9
   139          3
   150         30
   151          7
   168         57
   169          7