##TITLE=Library Entry 62409
##JCAMP-DX=Revision 4.10 
##DATA TYPE=MASS SPECTRUM
##SAMPLE DESCRIPTION=Japan AIST/NIMC Database- Spectrum MS-NW-2530
##NAMES=HP
##CAS NAME=Chloroacetyl-dl-phenylalanine
##MOLFORM=C11H12ClNO3
##CAS REGISTRY NO=7765-11-9
##MP= -300
##BP= -300
##MW= 241
##$RETENTION INDEX=0
##$CONDENSED SPECTRUM=NO
##NPOINTS= 107
##XYDATA=(XY..XY) 1 
    14          3
    15          6
    17          3
    18         10
    26          2
    27         10
    28         60
    29          4
    30          5
    31          1
    35          4
    36         43
    37          2
    38         12
    39         41
    40          5
    41         15
    42         21
    43         46
    44          9
    45          7
    46          7
    48          1
    49         37
    50         11
    51         34
    52          8
    53          3
    55          2
    56          1
    57          1
    58          2
    59          3
    60          2
    61          2
    62          7
    63         21
    64          7
    65         97
    66          7
    69          2
    70          1
    73          4
    74        107
    75          6
    76          5
    77         42
    78         11
    79         13
    80          1
    84          1
    86          2
    87          4
    88          1
    89         22
    90         23
    91        999
    92        100
    93          9
    94          7
    96          3
   101          1
   102         13
   103         37
   104         13
   105          5
   106          1
   107          7
   108          1
   115          3
   116         10
   117         76
   118         29
   119         19
   120        101
   121          9
   127          1
   128          4
   130         11
   131         26
   132          9
   133          1
   145          2
   146          7
   147        181
   148        699
   149         73
   150          7
   152          1
   159          3
   160          3
   161          3
   162         14
   163          2
   164          1
   187         16
   188          3
   189          1
   195          4
   196         10
   197          3
   198          3
   205         14
   206          3
   223          2
   241          6
   243          2