##TITLE=Library Entry 73919
##JCAMP-DX=Revision 4.10 
##DATA TYPE=MASS SPECTRUM
##SAMPLE DESCRIPTION=A. Brossi, LC, NIDDK, NIH, Bethesda, MD 20892
##NAMES=HP
##CAS NAME=4-Amino-1,5-pentandioic acid
##MOLFORM=C7H13NO4
##CAS REGISTRY NO=7766-85-0
##MP= -300
##BP= -300
##MW= 175
##$RETENTION INDEX=0
##$CONDENSED SPECTRUM=NO
##NPOINTS= 137
##XYDATA=(XY..XY) 1 
    41        136
    42         82
    43        145
    44        217
    45        239
    46         32
    47          5
    48          7
    49          6
    50         17
    51         37
    52         15
    53         25
    54         25
    55        319
    56        152
    57         87
    58         12
    59         17
    60         29
    61          9
    62          5
    63          9
    64          4
    65         13
    66          7
    67         24
    68         19
    69         49
    70         23
    71         39
    72         20
    73        260
    74        127
    75         11
    76         11
    77         80
    78        106
    79         19
    80         10
    81         21
    82         33
    83         57
    84        211
    85         35
    86         10
    87          9
    88          3
    89          5
    90          1
    91         10
    92          5
    93          8
    94          7
    95         19
    96         16
    97         42
    98         30
    99         18
   100         70
   101        999
   102         45
   103         17
   104          6
   105          9
   106          7
   107         15
   108          5
   109         10
   110         28
   111         93
   112         31
   113         10
   114          7
   115          9
   116          5
   117          5
   118          5
   119         16
   120          5
   121         19
   122         12
   123          9
   124          8
   125          3
   126          6
   127          6
   128         11
   129         45
   130          5
   131          3
   132          2
   133          2
   134          3
   135          4
   136          2
   137          3
   138          2
   139          3
   140          3
   141          2
   142          3
   143          2
   144          1
   145          1
   146          1
   147          2
   148          1
   149          2
   150          1
   151          2
   152          2
   153          1
   154          2
   155          1
   156          2
   157          1
   158          1
   159          1
   160          1
   161          3
   162          1
   163          1
   164          1
   165          1
   166          1
   167          2
   168          2
   169          1
   171          2
   172          2
   173          6
   174         31
   175         59
   176         13
   177          2
   178          6