##TITLE=Library Entry 21699
##JCAMP-DX=Revision 4.10 
##DATA TYPE=MASS SPECTRUM
##SAMPLE DESCRIPTION=Japan AIST/NIMC Database- Spectrum MS-IW-2704
##NAMES=HP
##CAS NAME=2-Propenamide, N-(4-nitrophenyl)-
##MOLFORM=C9H8N2O3
##CAS REGISTRY NO=7766-38-3
##MP= -300
##BP= -300
##MW= 192
##$RETENTION INDEX=0
##$CONDENSED SPECTRUM=NO
##NPOINTS= 96
##XYDATA=(XY..XY) 1 
    26          7
    27        122
    28         11
    29          1
    30         25
    37          5
    38         15
    39         24
    40          4
    41          7
    42          2
    43          3
    44          1
    50         21
    51         11
    52         19
    53         13
    54          6
    55        999
    56         41
    57          6
    61          5
    62         14
    63         51
    64         44
    65         51
    66          6
    67          2
    69          2
    70          1
    71          3
    73          1
    74          8
    75         16
    76         19
    77          4
    78          4
    79          3
    80          8
    81          3
    82          1
    83          2
    85          2
    87          1
    88          2
    89          6
    90         16
    91         19
    92         44
    93          6
    95          1
    96          1
    97          3
    99          1
   103          1
   104          1
   105          3
   106          3
   107          9
   108         36
   109          4
   110          1
   111          1
   116          3
   117          8
   118         10
   119          4
   120          2
   121          1
   122         49
   123          5
   125          1
   128          1
   134          2
   135          1
   137          1
   138        302
   139         25
   140          2
   144          2
   145          8
   146          4
   147         20
   148          2
   149          3
   151          2
   162          8
   163          1
   164         30
   165          8
   174          1
   175          3
   176          4
   192        422
   193         45
   194          5