##TITLE=Library Entry 19326
##JCAMP-DX=Revision 4.10 
##DATA TYPE=MASS SPECTRUM
##SAMPLE DESCRIPTION=Chemical Concepts
##NAMES=HP
##CAS NAME=11-Bromoundec-1-ene
##MOLFORM=C11H21Br
##CAS REGISTRY NO=7766-50-9
##MP= -300
##BP= -300
##MW= 232
##$RETENTION INDEX=0
##$CONDENSED SPECTRUM=NO
##NPOINTS= 142
##XYDATA=(XY..XY) 1 
    24          1
    25          2
    26         18
    27        253
    28         96
    29        307
    30          7
    31          7
    32         22
    36          2
    37          5
    38          6
    39        249
    40         48
    41        904
    42        189
    43        324
    44         11
    45          1
    49          0
    50          5
    51         16
    52          9
    53         92
    54        168
    55        999
    56        249
    57        174
    58          7
    59          0
    62          1
    63          3
    64          1
    65         14
    66         13
    67        158
    68        128
    69        763
    70        142
    71         48
    72          2
    73          1
    74          1
    75          1
    76          0
    77         15
    78          4
    79         20
    80         13
    81         99
    82        132
    83        380
    84         53
    85         11
    86          0
    89          1
    91         10
    92          2
    93          8
    94          2
    95         53
    96         36
    97        263
    98         36
    99          3
   101          0
   102          0
   103          2
   104          1
   105          7
   106          1
   107         25
   108          2
   109         60
   110         16
   111         80
   112          8
   113          0
   115          3
   116          1
   117          3
   118          0
   119          2
   120          5
   121         11
   122          5
   123         19
   124          9
   125         13
   126          2
   127          0
   128          1
   129          2
   130          0
   131          1
   132          1
   133          2
   134         16
   135         51
   136         17
   137         50
   138          2
   139          0
   141          0
   143          1
   144          1
   145          1
   147          3
   148        207
   149         22
   150        204
   151         19
   152          3
   153          1
   159          1
   160          0
   161          4
   162         69
   163          9
   164         66
   165          6
   174          0
   175          3
   176         10
   177          4
   178          9
   179          1
   188          1
   189          2
   190         14
   191          3
   192         12
   193          1
   202          0
   203          2
   204          4
   205          3
   206          4
   232         10
   233          1
   234         10
   235          1