##TITLE=Library Entry 84249
##JCAMP-DX=Revision 4.10 
##DATA TYPE=MASS SPECTRUM
##SAMPLE DESCRIPTION=Japan AIST/NIMC Database- Spectrum MS-NW-7408
##NAMES=HP
##CAS NAME=Benzeneethanol, 2-hydroxy-
##MOLFORM=C8H10O2
##CAS REGISTRY NO=7768-28-7
##MP= -300
##BP= -300
##MW= 138
##$RETENTION INDEX=1410
##$CONDENSED SPECTRUM=NO
##NPOINTS= 83
##XYDATA=(XY..XY) 1 
    15          1
    18          2
    26          6
    27         31
    28         28
    29         15
    30          2
    31         29
    32          7
    37          6
    38         15
    39         79
    40         11
    41         10
    42          3
    43          9
    44          4
    45          5
    46          3
    49          3
    50         30
    51         71
    52         35
    53         45
    54          5
    55         14
    56          1
    57          1
    58          1
    59          4
    60          2
    61          6
    62         14
    63         38
    64         13
    65         49
    66         11
    67          3
    68          3
    69          2
    73          2
    74          9
    75          9
    76          7
    77        285
    78         63
    79        152
    80         22
    81          8
    82          1
    85          1
    86          3
    87          2
    88          1
    89         30
    90         48
    91        172
    92         47
    93          8
    94         13
    95          3
   101          4
   102          4
   103          6
   104          1
   105          9
   106          6
   107        999
   108        214
   109         17
   110          2
   118          5
   119         72
   120        337
   121         35
   122          3
   134          5
   135          1
   136          4
   137          2
   138        377
   139         36
   140          2