##TITLE=Library Entry 9656
##JCAMP-DX=Revision 4.10 
##DATA TYPE=MASS SPECTRUM
##SAMPLE DESCRIPTION=DKFZ HD FUERSTENBERGER, HEIDELBERG, GERMANY, F.R.G.
##NAMES=HP
##CAS NAME=1H-Cyclopropa[3,4]benz[1,2-e]azulene-4a,5,7b,9,9a(1aH)-pentol, 3-
[(acetyloxy)methyl]-1b,4,5,7a,8,9-hexahydro-1,1,6,8-tetramethyl-, 5,9,9a-tri
acetate, [1aR-(1a.alpha.,1b.beta.,4a.beta.,5.beta.,7a.alpha.,7b.alpha.,8.alp
ha.,9.beta.,9a.alpha.)]-
##MOLFORM=C28H38O10
##CAS REGISTRY NO=77698-37-4
##MP= -300
##BP= -300
##MW= 534
##$RETENTION INDEX=0
##$CONDENSED SPECTRUM=NO
##NPOINTS= 449
##XYDATA=(XY..XY) 1 
    12          1
    13          3
    14          0
    15          1
    16          0
    17          4
    18          0
    25          0
    26          2
    27          8
    28         15
    29         50
    30          0
    31         11
    32          3
    36          0
    37          1
    38          1
    39         47
    40          7
    41         89
    42         38
    43        999
    44         87
    45         29
    46          1
    47          1
    49          0
    50          2
    51         16
    52          5
    53         65
    54          6
    55        152
    56         10
    57         72
    58          5
    59         17
    60         20
    61         17
    62          2
    63          5
    64          2
    65         60
    66         48
    67        104
    68         10
    69        305
    70         17
    71         16
    72          2
    73         23
    74          2
    75          2
    76          2
    77        117
    78         38
    79        147
    80         31
    81         50
    82         21
    83        341
    84         18
    85         48
    86          4
    87          9
    88          0
    89          5
    90          3
    91        188
    92         36
    93        116
    94        100
    95        188
    96        116
    97         28
    98          4
    99          5
   100          3
   101         17
   102          5
   103         23
   104         15
   105        152
   106         37
   107        120
   108         48
   109         87
   110         20
   111        117
   112         28
   113         14
   114         37
   115         55
   116         27
   117         56
   118         25
   119         90
   120         49
   121         88
   122         72
   123         94
   124         28
   125         80
   126          9
   127         21
   128         44
   129         70
   130         40
   131        100
   132         38
   133         77
   134         29
   135         58
   136         44
   137         32
   138         14
   139         28
   140         10
   141         37
   142         47
   143        109
   144         55
   145        100
   146         36
   147         83
   148         37
   149         62
   150         20
   151         69
   152         36
   153         32
   154         21
   155         44
   156         47
   157         85
   158         47
   159        106
   160         65
   161         75
   162         34
   163         60
   164         29
   165         54
   166         21
   167         28
   168         14
   169         36
   170         35
   171         82
   172         69
   173        141
   174         38
   175         48
   176         24
   177         25
   178         17
   179         38
   180         21
   181         43
   182         25
   183         67
   184         30
   185         49
   186         29
   187         47
   188         43
   189         48
   190         35
   191         36
   192         21
   193         32
   194         28
   195         48
   196         30
   197         54
   198         60
   199        101
   200         49
   201         70
   202         23
   203         22
   204         31
   205         21
   206         12
   207         25
   208         20
   209         45
   210         30
   211         87
   212         32
   213         41
   214         18
   215         38
   216         22
   217         36
   218         17
   219         24
   220         14
   221         21
   222         17
   223         37
   224         20
   225         48
   226         31
   227         42
   228         22
   229         23
   230         14
   231         17
   232         11
   233         42
   234         11
   235         32
   236         21
   237         30
   238         25
   239         29
   240         14
   241         27
   242         22
   243         40
   244         16
   245         24
   246          7
   247         15
   248         18
   249         27
   250         28
   251         48
   252         17
   253         38
   254         24
   255         27
   256         11
   257         10
   258          9
   259         16
   260         11
   261         45
   262         12
   263         24
   264         10
   265         32
   266         36
   267         29
   268         23
   269         23
   270          8
   271         20
   272          9
   273          7
   274          3
   275         15
   276         56
   277         40
   278         48
   279         41
   280         12
   281         23
   282          8
   283         24
   284         17
   285         15
   286          7
   287          8
   288          4
   289          3
   290          3
   291          3
   292          3
   293         30
   294         92
   295         57
   296         47
   297         23
   298          8
   299          7
   300          4
   301          5
   302          3
   303          8
   304          2
   305          2
   306          2
   307          2
   308          5
   309          5
   310          6
   311         29
   312         31
   313         24
   314         16
   315          9
   316          2
   317          2
   318          3
   319          5
   320          8
   321          9
   322          2
   323          4
   324          2
   325          9
   326         14
   327          8
   328          6
   329          8
   330          4
   331          3
   332          1
   333          0
   334          1
   335          3
   336         25
   337         15
   338         57
   339         23
   340          5
   341          7
   342          3
   343          3
   344          3
   345          3
   346          1
   347          0
   348          4
   349          1
   350          1
   351          0
   352          2
   353         11
   354         77
   355         31
   356         45
   357         12
   358          3
   359          1
   360          0
   361          0
   362          0
   363          0
   364          0
   365          1
   366          0
   367          1
   368          2
   369          1
   370          2
   371         15
   372         18
   373         12
   374          5
   375          1
   376          0
   377          0
   378          3
   379          2
   380         23
   381          7
   382          2
   383          1
   384          2
   385          2
   386          4
   387          2
   388          1
   389          1
   390          1
   391          0
   392          0
   394          0
   395          1
   396         30
   397         10
   398          8
   399          5
   400          2
   401          1
   402          0
   403          0
   404          0
   406          0
   410          0
   411          0
   412          1
   413          3
   414         56
   415         18
   416          7
   417          5
   418          1
   419          0
   423          2
   424          0
   425          0
   426          0
   427          0
   428          1
   429          0
   430          1
   431          5
   432          3
   433          1
   434          0
   435          0
   438         10
   439          2
   440          2
   441          0
   442          0
   443          0
   444          0
   445          0
   446          0
   447          0
   448          0
   454          0
   455          0
   456         12
   457          4
   458          2
   459          2
   460          0
   461          0
   462          0
   470          0
   471          0
   472          0
   473          0
   474          7
   475         10
   476          4
   477          1
   486          0
   488          1
   489          0
   490          0
   492          0
   493          0
   498          1
   499          0
   500          0
   516          1
   517          0
   518          0
   530          0
   534          1
   535          0