##TITLE=Library Entry 43119
##JCAMP-DX=Revision 4.10 
##DATA TYPE=MASS SPECTRUM
##SAMPLE DESCRIPTION=Exported from NIST MS Search
##NAMES=HP
##CAS NAME=Silane, trimethyl(4-phenylbutyl)-
##MOLFORM=C13H22Si
##CAS REGISTRY NO=777-82-2
##MP= -300
##BP= -300
##MW= 206
##$RETENTION INDEX=0
##$CONDENSED SPECTRUM=NO
##NPOINTS= 31
##XYDATA=(XY..XY) 1 
    72         31
    73        999
    74         87
    75         41
    77         31
    78         15
    79         12
    82         15
    83        125
    84         12
    87         56
    91        187
    92         59
    97         22
   103         16
   104         34
   105         16
   115         12
   119         22
   121         19
   129         28
   131         22
   132        187
   133         22
   135         31
   189         47
   191        344
   192         66
   193         16
   206         72
   207         16