##TITLE=Library Entry 19796
##JCAMP-DX=Revision 4.10 
##DATA TYPE=MASS SPECTRUM
##SAMPLE DESCRIPTION=Exported from NIST MS Search
##NAMES=HP
##CAS NAME=1,6-Dioxacyclododecane-7,12-dione
##MOLFORM=C10H16O4
##CAS REGISTRY NO=777-95-7
##MP= -300
##BP= -300
##MW= 200
##$RETENTION INDEX=0
##$CONDENSED SPECTRUM=NO
##NPOINTS= 139
##XYDATA=(XY..XY) 1 
    14         24
    15         74
    16         10
    19          4
    20          1
    22          1
    24          1
    25          3
    26         63
    27        424
    28        402
    29        294
    30         27
    31         76
    33          1
    34          1
    35          1
    36          1
    37          6
    38         13
    39        214
    40         56
    41        471
    42        331
    43        206
    44         83
    45         44
    46          2
    47          1
    48          2
    49          2
    50          6
    51         10
    52          7
    53         43
    54        640
    55        999
    56        256
    57         44
    58         31
    59         59
    60         21
    61          7
    62          1
    63          1
    64          2
    65          1
    66          2
    67          9
    68         84
    69         88
    70         18
    71        190
    72         16
    73        184
    74         14
    75          2
    76          1
    77          2
    78          2
    79          3
    80          3
    81          9
    82         28
    83        111
    84        427
    85         55
    86         16
    87         57
    88          3
    89          2
    91          2
    92          1
    93          2
    94          3
    95          9
    96         10
    97          9
    98          6
    99         18
   100        276
   101        112
   102          9
   103          2
   104          6
   105          1
   106          1
   107          1
   108          1
   109          2
   110         17
   111         76
   112         31
   113          5
   114         25
   115          5
   116          3
   117          1
   122          1
   123          1
   124          1
   125          1
   126          2
   127         13
   128         20
   129        160
   130         11
   131          2
   132          1
   133          1
   136          1
   137          1
   139          1
   140          3
   141         11
   142          7
   143          1
   144          3
   145          1
   146          1
   147          1
   149          1
   152          2
   153          1
   154          2
   155          1
   156          1
   158          1
   159          1
   167          1
   170          6
   171          1
   172         31
   173          3
   174          1
   182          4
   183          1
   200          4
   201          1