##TITLE=Library Entry 80680
##JCAMP-DX=Revision 4.10 
##DATA TYPE=MASS SPECTRUM
##SAMPLE DESCRIPTION=C.E.A., C.E.N., GRENOBLE, FRANCE
##NAMES=HP
##CAS NAME=Benzene, (1-methylheptyl)-
##MOLFORM=C14H22
##CAS REGISTRY NO=777-22-0
##MP= -300
##BP= -300
##MW= 190
##$RETENTION INDEX=1358
##$CONDENSED SPECTRUM=NO
##NPOINTS= 67
##XYDATA=(XY..XY) 1 
    27         25
    28          6
    29         21
    39         16
    40          2
    41         35
    42          4
    43         20
    44          1
    50          3
    51         12
    52          3
    53          5
    54          1
    55         10
    56          2
    57          3
    63          3
    64          1
    65          9
    66          1
    67          1
    69          2
    70          1
    71          1
    75          1
    76          2
    77         44
    78         16
    79         43
    80          3
    83          1
    89          2
    90          1
    91        115
    92         10
    93          1
    95          1
   101          1
   102          3
   103         28
   104         39
   105        999
   106        122
   107          2
   115          8
   116          3
   117          8
   118          5
   119         12
   120          3
   127          1
   128          2
   129          1
   130          1
   131          2
   132          1
   133          4
   134          1
   147          2
   148          1
   161          1
   175          6
   176          1
   190        100
   191         15
   192          1