##TITLE=Library Entry 46087
##JCAMP-DX=Revision 4.10 
##DATA TYPE=MASS SPECTRUM
##SAMPLE DESCRIPTION=Japan AIST/NIMC Database- Spectrum MS-NW-7471
##NAMES=HP
##CAS NAME=4-Nitrophenyl phosphorodichloridate
##MOLFORM=C6H4Cl2NO4P
##CAS REGISTRY NO=777-52-6
##MP= -300
##BP= -300
##MW= 255
##$RETENTION INDEX=0
##$CONDENSED SPECTRUM=NO
##NPOINTS= 156
##XYDATA=(XY..XY) 1 
    25          2
    26         27
    27          4
    28         28
    29          5
    30        215
    31          4
    32          1
    35          9
    36         30
    37         30
    38        141
    39         25
    40          3
    41          2
    42          2
    46          5
    47        134
    48          1
    49          9
    50        147
    51         52
    52         45
    53         25
    54         22
    55          3
    56          1
    57          7
    60          3
    61         30
    62         93
    63        408
    64        284
    65         16
    66          8
    67          2
    68          8
    69          3
    73         14
    74        101
    75        999
    76        133
    77          9
    78          3
    79         35
    80         32
    81          3
    82          8
    83         13
    84          2
    85          2
    87          3
    88          2
    89          5
    90          1
    91         16
    92        169
    93         11
    94          2
    95          1
    96          2
    97          1
    98          1
    99        156
   100          9
   101         52
   102          3
   103         33
   104          4
   105          5
   106          4
   107         40
   108         12
   109          2
   110          2
   111         80
   112          6
   113         23
   114          1
   115          2
   117        240
   118          2
   119        150
   121         23
   122         25
   123          2
   126          2
   127        218
   128         15
   129         69
   130          5
   135          5
   137          3
   139         22
   140          2
   141          1
   143          2
   145          5
   146          1
   147          2
   153          5
   155          7
   161          6
   163          2
   169          3
   171          3
   173         12
   174         57
   175          8
   176         18
   177          1
   181         47
   182          3
   183         29
   184          2
   185          6
   189          4
   191          1
   197         80
   198          5
   199         58
   200          4
   201          9
   202          1
   203          2
   204          1
   208          2
   209        167
   210         13
   211        112
   212          8
   213         18
   214          1
   220         62
   221          4
   222         20
   223          2
   224          1
   225        432
   226         28
   227        280
   228         19
   229         48
   230          3
   239         24
   240          2
   241         15
   242          2
   243          3
   254          1
   255        537
   256         40
   257        343
   258         24
   259         59
   260          5