##TITLE=Library Entry 73001
##JCAMP-DX=Revision 4.10 
##DATA TYPE=MASS SPECTRUM
##SAMPLE DESCRIPTION=A.A.Kutin, Moscow, Russia
##NAMES=HP
##CAS NAME=Benzothiazol-2(3H)-one, 3-(4-morpholylmethyl)-
##MOLFORM=C12H14N2O2S
##CAS REGISTRY NO=77708-55-5
##MP= -300
##BP= -300
##MW= 250
##$RETENTION INDEX=0
##$CONDENSED SPECTRUM=NO
##NPOINTS= 136
##XYDATA=(XY..XY) 1 
    33          1
    34          1
    35          0
    36          1
    37          4
    38          8
    39         25
    40         17
    41         53
    42        126
    43         23
    44         28
    45         32
    47          3
    48          0
    49          1
    50         11
    51         21
    52          9
    53          3
    54         15
    55         16
    56        175
    57         22
    58          8
    59          2
    60          1
    61          2
    62          5
    63         11
    64          6
    65         33
    66          3
    68          8
    69         33
    70         54
    71         13
    72         21
    74          4
    75          4
    76          5
    77         11
    78          9
    79          1
    80          1
    81          3
    82          8
    83          4
    84          2
    85          2
    86          4
    87          2
    88          1
    89          0
    90          2
    91          2
    92          1
    93          4
    94          2
    95          7
    96         16
    97          4
    98         13
   100        999
   101         51
   102          4
   104          2
   105          1
   106          6
   107          2
   108         10
   109         36
   110          4
   111          2
   112          1
   113          0
   114          0
   115          0
   116          3
   117          0
   118          0
   119          0
   120          0
   121          1
   122          6
   123         10
   124          1
   125          1
   126          0
   127          0
   128          1
   129          0
   131          0
   132          0
   133          0
   134          1
   135          5
   136         34
   137          3
   138          2
   139          0
   140          0
   143          0
   144          0
   148          0
   149          1
   150          5
   151         14
   152          3
   153          1
   154          0
   157          0
   159          0
   162          0
   163          0
   164          5
   165          1
   166          0
   167          0
   170          0
   171          2
   172          0
   175          0
   177          0
   178          0
   179          0
   181          0
   189          0
   190          0
   191          0
   192          0
   221          0
   248          0
   250          8
   251          1
   252          0