##TITLE=Library Entry 70815
##JCAMP-DX=Revision 4.10 
##DATA TYPE=MASS SPECTRUM
##SAMPLE DESCRIPTION=A.A.Kutin, Moscow, Russia
##NAMES=HP
##CAS NAME=Benzothiazol-2(3H)-one, 3-(1-piperidylmethyl)-
##MOLFORM=C13H16N2OS
##CAS REGISTRY NO=77708-54-4
##MP= -300
##BP= -300
##MW= 248
##$RETENTION INDEX=0
##$CONDENSED SPECTRUM=NO
##NPOINTS= 106
##XYDATA=(XY..XY) 1 
    33          1
    34          1
    35          0
    36          1
    37          5
    38         11
    39         54
    40         22
    41        165
    42        169
    43         27
    44         62
    45         28
    47          3
    48          0
    49          1
    50         11
    51         21
    52         11
    53         10
    54         18
    55         90
    56         27
    57         12
    58          6
    59          1
    60          2
    61          4
    62          6
    63         12
    64          7
    65         28
    66          3
    67          6
    68         14
    69         59
    70         47
    71          6
    72          0
    73          0
    74          2
    75          3
    76          6
    77          9
    78         11
    79          3
    80          2
    81          4
    82         11
    83          8
    84         16
    85          4
    86          0
    87          0
    88          0
    89          0
    90          2
    91          2
    92          1
    93          3
    94          3
    95         10
    96         50
    98        999
    99         69
   100          3
   101          0
   102          0
   103          0
   104          1
   105          0
   106          7
   107          2
   108          9
   109         32
   110          3
   111          1
   112          1
   113          0
   114          0
   118          0
   119          0
   120          1
   122         11
   123         20
   124          4
   125          1
   127          0
   128          0
   133          0
   134          1
   135          4
   136         32
   137          3
   138          1
   139          0
   150          9
   151         29
   152          4
   153          1
   164          4
   165          0
   171          0
   219          0
   248          3
   249          0