##TITLE=Library Entry 107708
##JCAMP-DX=Revision 4.10 
##DATA TYPE=MASS SPECTRUM
##SAMPLE DESCRIPTION=T. OTA, DEP. APPL. CHEM., FAC. ENG., TOKUSHIMA UNIV., J
APAN
##NAMES=HP
##CAS NAME=6,8-Diazabicyclo[3.2.1]oct-6-ene-6-oxide, 8-hydroxy-1,4,5,7-tetra
methyl-
##MOLFORM=C10H18N2O2
##CAS REGISTRY NO=77719-84-7
##MP= -300
##BP= -300
##MW= 198
##$RETENTION INDEX=0
##$CONDENSED SPECTRUM=NO
##NPOINTS= 41
##XYDATA=(XY..XY) 1 
    39        156
    41        257
    42        351
    43        179
    53        195
    54         85
    55        218
    67        156
    68        109
    69         85
    70         70
    73         85
    77         62
    79         78
    81         93
    82        117
    83         78
    84         54
    86        125
    87         70
    94         78
    95        164
    96        132
    98        179
   107         85
   108        109
   109        156
   110        117
   112        109
   122        179
   123         70
   124        999
   125        109
   136         93
   140        140
   151        117
   153         70
   168         70
   181        109
   198        312
   199        140