##TITLE=Library Entry 7416
##JCAMP-DX=Revision 4.10 
##DATA TYPE=MASS SPECTRUM
##SAMPLE DESCRIPTION=MUS14 A. Mujsce, AT&T Bell Labs., Murray Hill, N.J., US
A
##NAMES=HP
##CAS NAME=1-Docosanethiol
##MOLFORM=C22H46S
##CAS REGISTRY NO=7773-83-3
##MP= -300
##BP= -300
##MW= 342
##$RETENTION INDEX=0
##$CONDENSED SPECTRUM=NO
##NPOINTS= 167
##XYDATA=(XY..XY) 1 
    26          3
    27         49
    29        161
    30          5
    33          3
    35         11
    39         53
    40         16
    41        679
    42        171
    43        999
    44         47
    45         29
    46         10
    47        117
    50          2
    51          7
    53         46
    54         82
    55        929
    56        326
    58         47
    59         18
    60         38
    61         95
    62          7
    63          8
    65         10
    66         14
    67        167
    68        252
    69        747
    70        268
    71        431
    72         21
    73         17
    74          6
    75         14
    77         12
    79         19
    80          8
    81        109
    82        340
    83        834
    84        216
    85        266
    86         23
    87         63
    88         63
    89        221
    90         17
    91         16
    93          6
    94          4
    95         56
    96        233
    97        847
    98        171
    99         78
   101         27
   102          9
   103         26
   104          4
   107          4
   109         22
   110         79
   111        468
   112        117
   113         50
   114          5
   115          9
   117         10
   122          5
   123         22
   124         72
   125        281
   126         80
   127         27
   128          4
   129          7
   131          5
   133          3
   134          2
   136          4
   137         16
   138         60
   139        132
   140         58
   141         25
   143          6
   147          5
   149          3
   152         45
   153         82
   154         42
   155         21
   157          3
   165          5
   166         26
   167         46
   168         33
   169         11
   170          2
   179          4
   180         24
   181         30
   182         31
   183          8
   187          4
   194         21
   195         32
   196         21
   197          7
   207         17
   208         26
   209         23
   210         15
   211          7
   219          2
   221          3
   222         16
   223         19
   224         15
   225          6
   227          4
   229          2
   235          3
   236         18
   237         15
   238         12
   242          4
   243          4
   250         11
   251         11
   252         16
   255          3
   257          3
   261          2
   264          6
   265         12
   266          9
   267          5
   269          4
   270          3
   271          3
   275          2
   278          7
   279         14
   280         55
   281         17
   283          2
   285          2
   292          3
   297          3
   299          2
   300          3
   308        242
   309         57
   310          8
   313          5
   316          3
   324          3
   327          3
   341         54
   342        192
   343         44
   344         14