##TITLE=Library Entry 12141
##JCAMP-DX=Revision 4.10 
##DATA TYPE=MASS SPECTRUM
##SAMPLE DESCRIPTION=Insect Chem. Ecol. Lab., USDA, Beltsville, MD 20705
##NAMES=HP
##CAS NAME=Propanoic acid, 2-methyl-, 1-methyl-1-(4-methyl-3-cyclohexen-1-yl
)ethyl ester
##MOLFORM=C14H24O2
##CAS REGISTRY NO=7774-65-4
##MP= -300
##BP= -300
##MW= 224
##$RETENTION INDEX=1465
##$CONDENSED SPECTRUM=NO
##NPOINTS= 135
##XYDATA=(XY..XY) 1 
    41        332
    43        999
    44         46
    45          7
    47          6
    48          1
    52          8
    53         73
    54         12
    55        140
    56         17
    57         38
    58          2
    59        187
    60          6
    61          1
    62          0
    63          3
    65         29
    66         15
    67        121
    68         60
    69        164
    71        555
    72         19
    73          6
    74          0
    75          5
    77         84
    79        243
    80         57
    81        349
    82         49
    83         47
    87          3
    88          5
    89         26
    91        110
    92        156
    93        713
    94        373
    95        303
    96         27
    97         61
    98          8
    99          4
   100          1
   101          1
   102          0
   103          5
   104          1
   105         37
   106          7
   107        169
   108         68
   109        454
   110        162
   111         60
   112          9
   113          3
   114          0
   115          6
   116          1
   117          5
   118          1
   119         99
   121        711
   122         39
   123         92
   124         18
   125         13
   126         12
   127          7
   129         35
   130          2
   131          2
   132          4
   133         12
   134         96
   135        304
   136        788
   137        478
   138         48
   139         13
   140          3
   141          2
   142          0
   143          1
   145          0
   147          7
   148          5
   149          6
   150         48
   151         40
   152        209
   153         71
   154          9
   155          4
   157          8
   159          1
   161          0
   163          1
   164          3
   165          3
   166          6
   167          6
   168         11
   169         12
   170          4
   171          3
   173          2
   175          0
   177          1
   178          1
   179          2
   180          1
   181          1
   182          1
   183          1
   184          2
   185          3
   187          0
   193          0
   194          0
   195          0
   207          0
   208          0
   209         10
   210          1
   221          0
   222          1
   223          2
   224          9
   225          4
   226          2