##TITLE=Library Entry 51615
##JCAMP-DX=Revision 4.10 
##DATA TYPE=MASS SPECTRUM
##SAMPLE DESCRIPTION=Japan AIST/NIMC Database- Spectrum MS-NW- 32
##NAMES=HP
##CAS NAME=Cyclohexyl isovalerate
##MOLFORM=C11H20O2
##CAS REGISTRY NO=7774-44-9
##MP= -300
##BP= -300
##MW= 184
##$RETENTION INDEX=1264
##$CONDENSED SPECTRUM=NO
##NPOINTS= 78
##XYDATA=(XY..XY) 1 
    14          1
    15          9
    17          1
    18          4
    26          5
    27        105
    28         80
    29        156
    30          4
    31          9
    37          1
    38          4
    39        122
    40         20
    41        422
    42         53
    43        163
    44         20
    45         13
    50          4
    51          8
    52          5
    53         36
    54        178
    55        420
    56         53
    57        758
    58         34
    59         34
    60        190
    61         71
    62          3
    65          7
    66          9
    67        624
    68         34
    69         27
    70          7
    71         53
    72         11
    73          4
    74          6
    77          8
    78          2
    79         17
    80          8
    81        106
    82        999
    83        475
    84         32
    85        898
    86         52
    87        114
    88          8
    89         50
    90          2
    94          1
    95          2
    96          1
    97          3
    98          5
    99         67
   100         50
   101         18
   102        223
   103        961
   104         54
   105          5
   109          2
   111          1
   113          6
   114          4
   124          6
   127         19
   128          2
   141         40
   142         13
   143          1