##TITLE=Library Entry 96414
##JCAMP-DX=Revision 4.10 
##DATA TYPE=MASS SPECTRUM
##SAMPLE DESCRIPTION=G.A.M.S., PARIS, FRANCE.
##NAMES=HP
##CAS NAME=3-Thiophenethiol
##MOLFORM=C4H4S2
##CAS REGISTRY NO=7774-73-4
##MP= -300
##BP= -300
##MW= 116
##$RETENTION INDEX=980
##$CONDENSED SPECTRUM=NO
##NPOINTS= 97
##XYDATA=(XY..XY) 1 
    24          1
    25          4
    26         11
    27         11
    28          7
    29          2
    30          0
    31          0
    32         26
    33         11
    34          8
    35          1
    36          6
    37         30
    38         42
    39        123
    40         26
    41          7
    42          2
    43          5
    44         52
    45        323
    46         23
    47         17
    48          4
    49         12
    50         23
    51         20
    52         19
    53          2
    54          1
    55          4
    56         17
    57         69
    58        121
    59         22
    60          6
    61          3
    62          2
    63          4
    64         24
    65          9
    66          8
    67          2
    68         20
    69        132
    70         48
    71        809
    72        125
    73         40
    74          6
    75          1
    76         54
    77         11
    78          6
    79          1
    80          6
    81         33
    82         37
    83         27
    84         43
    85          4
    86          2
    87          0
    88         87
    89         38
    90         23
    91         55
    92         35
    93          3
    94          0
    95          1
    96          0
    97          7
    98          1
    99          0
   100          2
   101          5
   102          0
   103          0
   104          0
   105          0
   106          0
   107          0
   108          1
   109          3
   110         14
   111          1
   112          2
   113          0
   114          3
   115         89
   116        999
   117         67
   118         90
   119          5
   120          3