##TITLE=Library Entry 45925
##JCAMP-DX=Revision 4.10 
##DATA TYPE=MASS SPECTRUM
##SAMPLE DESCRIPTION=Chemical Concepts
##NAMES=HP
##CAS NAME=Heptanoic acid, 7-t-butyldimethylsilyloxy-
##MOLFORM=C13H28O3Si
##CAS REGISTRY NO=77744-45-7
##MP= -300
##BP= -300
##MW= 260
##$RETENTION INDEX=0
##$CONDENSED SPECTRUM=NO
##NPOINTS= 162
##XYDATA=(XY..XY) 1 
    26          2
    27         54
    28          1
    29         82
    30          1
    31         12
    38          1
    39         46
    40          9
    41        194
    42         23
    43         76
    44          7
    45         77
    46          4
    47         43
    48          1
    49          2
    50          1
    51          4
    52          1
    53         17
    54          9
    55        258
    56         36
    57         83
    58         41
    59        112
    60         63
    61         51
    62          4
    63          3
    64          1
    65          4
    66          2
    67         29
    68         10
    69        128
    70         14
    71         20
    72         10
    73        239
    74         33
    75        999
    76         73
    77         75
    78          4
    79          7
    80          1
    81         26
    82          7
    83        238
    84         21
    85         26
    86          4
    87         36
    88         16
    89         45
    90          4
    91         12
    92          1
    93         46
    94          3
    95          5
    96          3
    97          9
    98          4
    99         30
   100          6
   101         51
   102          6
   103         13
   104          1
   105         30
   106          3
   107          2
   108          1
   109          4
   110          2
   111         63
   112          5
   113         22
   114          3
   115         38
   116          8
   117         12
   118          1
   119          8
   120          2
   121          1
   122          0
   123          1
   124          0
   125          1
   126          1
   127          5
   128          3
   129         29
   130          4
   131          9
   132          4
   133          3
   134          2
   135          1
   137          0
   139          0
   140          0
   141         18
   142          2
   143         22
   144          2
   145          5
   146          1
   147          0
   148          0
   149          8
   150          1
   151          2
   152          0
   153          0
   154          1
   155          8
   156          2
   157          5
   158          0
   159          2
   160          0
   161          2
   162          0
   163          0
   164          0
   165          1
   166          0
   167          6
   168          2
   169         13
   170          2
   171          2
   172          1
   173          1
   183          2
   184          2
   185        774
   186        119
   187         63
   188          6
   189          1
   190          0
   203        173
   204         26
   205          8
   206          0
   207          0
   227         30
   228          5
   229          3
   230          0
   243          2
   244          1
   245          5
   246          0
   259          1