##TITLE=Library Entry 17722
##JCAMP-DX=Revision 4.10 
##DATA TYPE=MASS SPECTRUM
##SAMPLE DESCRIPTION=A.A.Kutin, Moscow, Russia
##NAMES=HP
##CAS NAME=3-(3-Methyl-2-thienyl)acrylic acid
##MOLFORM=C8H8O2S
##CAS REGISTRY NO=77741-66-3
##MP= -300
##BP= -300
##MW= 168
##$RETENTION INDEX=0
##$CONDENSED SPECTRUM=NO
##NPOINTS= 113
##XYDATA=(XY..XY) 1 
    33          7
    34          5
    35          2
    36          7
    37         39
    38         76
    39        339
    40         40
    41         44
    42          9
    43         29
    45        999
    46         28
    47         54
    48          5
    49         20
    50        110
    51        205
    52         65
    53        143
    54         18
    55         43
    56         11
    57         46
    58         97
    59         54
    60         53
    61        100
    62         96
    63        157
    64         29
    65         75
    66         15
    67         21
    69        261
    70         79
    71         78
    72         11
    73         18
    74         31
    75         36
    77        294
    78        127
    79        335
    80         26
    81         29
    82         39
    83         37
    84         43
    85         26
    86          9
    87         13
    88          3
    89         31
    90         11
    91         27
    92          8
    93         26
    94         10
    95         40
    96         68
    97        234
    98         32
    99         16
   100          3
   101          2
   103          1
   105          7
   106          6
   107         27
   108         32
   109         16
   111        112
   112         11
   113         11
   114          4
   115          3
   116          2
   117          3
   118          2
   119          4
   121        334
   122        569
   123        817
   124        106
   125         84
   126         61
   127         17
   128          5
   129          1
   132          0
   133         10
   135         92
   136          8
   137          5
   139         22
   140         68
   141          7
   142          4
   147          0
   150        167
   151        243
   152         37
   153        128
   154         11
   155          6
   164          0
   165          4
   168        948
   169         87
   170         45
   171          5
   172          0