##TITLE=Library Entry 45670
##JCAMP-DX=Revision 4.10 
##DATA TYPE=MASS SPECTRUM
##SAMPLE DESCRIPTION=NIST Mass Spectrometry Data Center
##NAMES=HP
##CAS NAME=2-Penten-1-ol, (Z)-, TMS derivative
##MOLFORM=C8H18OSi
##CAS REGISTRY NO=77745-40-5
##MP= -300
##BP= -300
##MW= 158
##$RETENTION INDEX=909
##$CONDENSED SPECTRUM=NO
##NPOINTS= 95
##XYDATA=(XY..XY) 1 
    15          4
    26          3
    27         28
    28          9
    29         26
    30          1
    31          6
    37          1
    38          3
    39         60
    40         10
    41        104
    42         15
    43         62
    44         23
    45        166
    46         12
    47         77
    48          4
    49          4
    50          4
    51          9
    52          4
    53         36
    54          9
    55         38
    56          7
    57         23
    58         39
    59        100
    60         21
    61         71
    62          6
    63          5
    64          4
    65          7
    66          4
    67         60
    68        106
    69         24
    70          6
    71         13
    72         16
    73        872
    74         90
    75        999
    76         76
    77         38
    78          1
    79          1
    81          1
    83          9
    84          2
    85         32
    86          3
    87          9
    88         18
    89          8
    90          1
    91          3
    95          2
    96          1
    97          8
    98          2
    99         45
   100          5
   101        102
   102         11
   103         17
   104          1
   105          1
   109          1
   111          9
   112          1
   113         44
   114          6
   115        155
   116         21
   117          7
   118          1
   125          2
   127          5
   129        983
   130        121
   131         42
   132          3
   141          1
   143        243
   144         32
   145         10
   146          1
   157          7
   158         30
   159          4
   160          1