##TITLE=Library Entry 54850
##JCAMP-DX=Revision 4.10 
##DATA TYPE=MASS SPECTRUM
##SAMPLE DESCRIPTION=Chemical Concepts
##NAMES=HP
##CAS NAME=2-Octyn-1-ol, 7-[(tetrahydro-2H-pyran-2-yl)oxy]-
##MOLFORM=C13H22O3
##CAS REGISTRY NO=77758-37-3
##MP= -300
##BP= -300
##MW= 226
##$RETENTION INDEX=0
##$CONDENSED SPECTRUM=NO
##NPOINTS= 144
##XYDATA=(XY..XY) 1 
    26          3
    27         53
    28         31
    29        134
    30          4
    31         28
    38          3
    39         82
    40         15
    41        209
    42         20
    43        186
    44         15
    45         23
    46          0
    47          3
    50          4
    51         13
    52         20
    53         41
    54         20
    55        293
    56        117
    57        152
    58          9
    59         18
    60          1
    61          0
    62          0
    63          3
    64          1
    65         25
    66         11
    67        197
    68         25
    69         43
    70         10
    71         16
    72          2
    73          3
    74          5
    75          1
    76          0
    77         29
    78         10
    79        159
    80         25
    81        141
    82         22
    83         54
    84         40
    85        999
    86         62
    87          5
    88          0
    89          0
    90          0
    91        113
    92         20
    93         41
    94          7
    95         70
    96         15
    97         22
    98          5
    99          2
   100          8
   101         84
   102         13
   103          4
   104          1
   105         32
   106         11
   107        117
   108         25
   109         19
   110          5
   111         35
   112          4
   113          3
   114          0
   115          1
   117          1
   118          0
   119          3
   120          2
   121          6
   122          3
   123          5
   124         13
   125        122
   126         13
   127          5
   128          1
   129         28
   130          2
   131          1
   132          1
   133          2
   134          0
   135          3
   136          1
   137          7
   138          1
   139          2
   140          0
   141          2
   142          3
   143          1
   147          2
   148          0
   149          6
   150          3
   151          4
   152          3
   153          3
   154          3
   155          1
   163          0
   164          0
   165          3
   166          1
   167          1
   168          1
   169          0
   177          0
   178          0
   179          0
   180          0
   181          0
   182          0
   193          0
   194          0
   195         10
   196          1
   197          0
   210          0
   211          0
   212          0
   223          0
   224          0
   225          0
   226          0
   227          0