##TITLE=Library Entry 32450
##JCAMP-DX=Revision 4.10 
##DATA TYPE=MASS SPECTRUM
##SAMPLE DESCRIPTION=Chemical Concepts
##NAMES=HP
##CAS NAME=12-Hydroxy-14-methyl-oxa-cyclotetradec-6-en-2-one
##MOLFORM=C14H24O3
##CAS REGISTRY NO=77761-61-6
##MP= -300
##BP= -300
##MW= 240
##$RETENTION INDEX=0
##$CONDENSED SPECTRUM=NO
##NPOINTS= 191
##XYDATA=(XY..XY) 1 
    26         13
    27        242
    28         83
    29        293
    30         14
    31         65
    36         22
    37          5
    38         13
    39        291
    40         70
    41        869
    42        193
    43        590
    44         94
    45        364
    46         14
    47         10
    48          7
    49          8
    50         12
    51         37
    52         30
    53        220
    54        437
    55        769
    56        109
    57        250
    58        101
    59         40
    60         87
    61         14
    62          6
    63         18
    64          7
    65         73
    66         90
    67        999
    68        376
    69        324
    70        150
    71        385
    72         34
    73        134
    74         26
    75          8
    76          6
    77        102
    78         61
    79        557
    80        720
    81        785
    82        353
    83        327
    84        709
    85        216
    86         38
    87         56
    88         16
    89          9
    90          6
    91        167
    92        143
    93        424
    94        700
    95        571
    96        366
    97        459
    98        563
    99        141
   100         32
   101         50
   102         37
   103         13
   104         26
   105        129
   106         84
   107        293
   108        281
   109        323
   110        144
   111        209
   112        185
   113         72
   114         54
   115         35
   116         35
   117         35
   118         46
   119        106
   120        299
   121        295
   122        222
   123        215
   124        114
   125        121
   126        262
   127         87
   128         19
   129         39
   130         20
   131         26
   132         16
   133        139
   134        122
   135        320
   136        444
   137        149
   138        141
   139        121
   140        249
   141         42
   142         25
   143         30
   144         34
   145         44
   146         24
   147         60
   148         30
   149        149
   150         86
   151         79
   152        118
   153         73
   154        160
   155         43
   156          8
   157         47
   158         10
   159          9
   160         20
   161         75
   162        113
   163         96
   164         45
   165         39
   166         57
   167         74
   168         61
   169         18
   170         11
   171         25
   172         10
   173          6
   175         44
   176         22
   177         12
   178        101
   179         86
   180        289
   181        146
   182         36
   183         44
   184         10
   185          7
   186         21
   187         10
   189         22
   190          5
   191          4
   193         89
   194         61
   195         15
   196        143
   197         30
   198         15
   199         12
   200          5
   201          4
   203          6
   204         58
   205         18
   206          6
   207         45
   208         10
   209          5
   210          6
   211          4
   212          5
   219          5
   220          5
   221          7
   222        180
   223         54
   224         13
   225         16
   226          5
   239          4
   240         60
   241         21
   242          5