##TITLE=Library Entry 100878
##JCAMP-DX=Revision 4.10 
##DATA TYPE=MASS SPECTRUM
##SAMPLE DESCRIPTION=L.F.ZERILLI RES. LABS., GRUPPO LEPETIT S.P.A., MILAN, I
TALY
##NAMES=HP
##CAS NAME=1,2,4-Oxadiazole, 5-(2-chlorophenyl)-3-phenyl-
##MOLFORM=C14H9ClN2O
##CAS REGISTRY NO=77774-27-7
##MP= -300
##BP= -300
##MW= 256
##$RETENTION INDEX=0
##$CONDENSED SPECTRUM=NO
##NPOINTS= 46
##XYDATA=(XY..XY) 1 
    18         10
    27         10
    28         10
    38         10
    39         50
    41         15
    43          5
    50         40
    51         50
    52         10
    62         20
    63         80
    64        100
    65         20
    73         10
    74         20
    75         80
    76         40
    77         40
    85         10
    86         10
    87         10
    88         15
    89         90
    90         20
    91        170
    92         10
   102         20
   103         40
   111         70
   112         10
   113         30
   119        999
   120         90
   121         10
   123         10
   128         20
   129         10
   138          5
   139         50
   140          5
   141         10
   256        410
   257         70
   258        140
   259         20