##TITLE=Library Entry 9209
##JCAMP-DX=Revision 4.10 
##DATA TYPE=MASS SPECTRUM
##SAMPLE DESCRIPTION=LAC, NIDDK, NIH, Bethesda, MD 20892
##NAMES=HP
##CAS NAME=d-Glycero-d-galacto-heptose
##MOLFORM=C7H14O7
##CAS REGISTRY NO=77770-51-5
##MP= -300
##BP= -300
##MW= 210
##$RETENTION INDEX=0
##$CONDENSED SPECTRUM=NO
##NPOINTS= 128
##XYDATA=(XY..XY) 1 
    41        156
    42        344
    43        999
    44        388
    45        349
    46         44
    47         61
    49         42
    50          5
    51         11
    52          6
    53         37
    54         36
    55        208
    56        225
    57        355
    58         82
    59         56
    60        601
    61        504
    62         31
    63          5
    64          1
    65          5
    66          4
    67         10
    68         32
    69        137
    70         48
    71        279
    72        169
    73        932
    74        204
    75         23
    76         27
    77         42
    78          3
    79         11
    80          2
    81         23
    82         11
    83         29
    84         36
    85        136
    86         85
    87         47
    88          9
    89         46
    90         60
    91         49
    92          2
    93          2
    94          2
    95         12
    96         11
    97         67
    98         35
    99         26
   100         10
   101         77
   102         49
   103        104
   104         14
   105          3
   106          1
   107         10
   108          1
   109         10
   110          7
   111         11
   112          7
   113         23
   114         23
   115         42
   116         22
   117          5
   118          1
   119         27
   120          6
   121          4
   122          1
   123          6
   124          3
   125         18
   126         12
   127         17
   128          7
   129          4
   130          4
   131         55
   132         21
   133         65
   134          4
   135          2
   136          2
   137          4
   138          2
   139          6
   140          4
   141          5
   142          2
   143         15
   144          7
   145          8
   146          3
   147          2
   149         34
   150          3
   151          2
   152          1
   156          4
   157          8
   158          1
   160          0
   161         19
   162          4
   163          7
   164          1
   173          1
   174          6
   175          1
   176          0
   177          1
   179         15
   180          1
   192          1
   193          4
   210          1