##TITLE=Library Entry 29543
##JCAMP-DX=Revision 4.10 
##DATA TYPE=MASS SPECTRUM
##SAMPLE DESCRIPTION=Chuck Anderson, Aldrich Chemical Co.
##NAMES=HP
##CAS NAME=Propane, 1,2-dimethoxy-
##MOLFORM=C5H12O2
##CAS REGISTRY NO=7778-85-0
##MP= -300
##BP= -300
##MW= 104
##$RETENTION INDEX=635
##$CONDENSED SPECTRUM=NO
##NPOINTS= 41
##XYDATA=(XY..XY) 1 
    14          3
    15         64
    16          1
    17          0
    26          6
    27         33
    28         17
    29        223
    30          9
    31        204
    32          2
    33         10
    37          1
    38          4
    39         41
    40          8
    41        109
    42         43
    43        101
    44          7
    45        204
    46          5
    47          5
    53          1
    55          3
    56          4
    57         12
    58         91
    59        999
    60         33
    61          2
    71         14
    72          7
    73         21
    74          3
    75          0
    87          0
    89          6
   103          0
   104         11
   105          0