##TITLE=Library Entry 79832
##JCAMP-DX=Revision 4.10 
##DATA TYPE=MASS SPECTRUM
##SAMPLE DESCRIPTION=LAC, NIDDK, NIH, Bethesda, MD 20892
##NAMES=HP
##CAS NAME=Triphenylmethyl ethenyl ester
##MOLFORM=C21H18O
##CAS REGISTRY NO=77790-65-9
##MP= -300
##BP= -300
##MW= 286
##$RETENTION INDEX=0
##$CONDENSED SPECTRUM=NO
##NPOINTS= 180
##XYDATA=(XY..XY) 1 
    41         19
    42        101
    43         13
    44         58
    45          3
    47         15
    48          7
    49         70
    50         56
    51        285
    52         32
    53          9
    54          4
    55          7
    56         36
    57         16
    58         18
    59          0
    60          0
    62          7
    63         26
    64          4
    65         22
    66          3
    67          2
    68          1
    69          2
    70          8
    71          3
    72          6
    73          6
    74         13
    75         20
    76         34
    77        874
    78         47
    79         25
    80          2
    81          1
    82          9
    84         40
    86         29
    87         11
    88         12
    89         19
    91         84
    92          2
    94         21
    97          0
    98          2
    99          3
   100          4
   101         12
   102         11
   103          7
   104        126
   105        999
   106        245
   107          7
   108          3
   110          1
   111          2
   112          2
   113         18
   114          4
   115         61
   116         11
   117          4
   119         37
   120         13
   121          0
   122          0
   123          0
   124          0
   126         14
   127         13
   128         12
   129          4
   130          2
   131          0
   132          5
   133          1
   134          1
   135          2
   137          4
   138          3
   139         39
   140          5
   141          8
   142          1
   143          0
   144          1
   149          3
   150          9
   151         20
   152         60
   153         37
   154        162
   155        110
   156         13
   157          0
   158          5
   161          1
   162          0
   163         36
   165        727
   166         87
   167         14
   168          1
   174          1
   175          2
   176          9
   177          4
   178          7
   179          1
   180         17
   181         45
   182        126
   183        533
   184         67
   185          4
   186          1
   187          6
   188          5
   189         14
   190          3
   191          2
   192          1
   193          1
   194          3
   195          0
   197          2
   198          0
   199          0
   200          8
   201          8
   202         27
   203          8
   204          1
   208          1
   210         25
   211         85
   212         15
   213         20
   215         69
   216         13
   217          2
   222          3
   223          0
   224          3
   225          4
   226         31
   227         22
   228         55
   229         10
   230          1
   235          0
   236          2
   237         13
   238         53
   239         77
   240         28
   241         54
   243        823
   244        407
   245          8
   246          1
   254          0
   255          0
   256          1
   257          1
   258          5
   259          2
   260        160
   261         28
   262          2
   285          0
   286         15
   287          3
   288          0