##TITLE=Library Entry 9844
##JCAMP-DX=Revision 4.10 
##DATA TYPE=MASS SPECTRUM
##SAMPLE DESCRIPTION=Japan AIST/NIMC Database- Spectrum MS-IW-6320
##NAMES=HP
##CAS NAME=Butanoic acid, 3-oxo-, 2-methylpropyl ester
##MOLFORM=C8H14O3
##CAS REGISTRY NO=7779-75-1
##MP= -300
##BP= -300
##MW= 158
##$RETENTION INDEX=1586
##$CONDENSED SPECTRUM=NO
##NPOINTS= 61
##XYDATA=(XY..XY) 1 
    15         37
    26          8
    27         79
    28         36
    29        164
    30          5
    31         34
    32          1
    33         29
    37          2
    38          5
    39         64
    40         12
    41        276
    42        102
    43        999
    44         37
    45          8
    50          1
    51          1
    53          5
    54          2
    55         34
    56        553
    57        453
    58        126
    59         14
    60        119
    61         30
    62          1
    67          1
    68          1
    69         45
    70          9
    71         23
    72          3
    73         68
    74         10
    75          1
    83          4
    84         95
    85        701
    86         33
    87         29
    88          5
    98          1
   100          2
   101          9
   102         88
   103        410
   104         18
   105          3
   115         21
   116         15
   117          1
   125          1
   126          1
   127          1
   143          3
   158         17
   159          9