##TITLE=Library Entry 100424
##JCAMP-DX=Revision 4.10 
##DATA TYPE=MASS SPECTRUM
##SAMPLE DESCRIPTION=RADIAN CORP
##NAMES=HP
##CAS NAME=Benzoic acid, 2-amino-, cyclohexyl ester
##MOLFORM=C13H17NO2
##CAS REGISTRY NO=7779-16-0
##MP= -300
##BP= -300
##MW= 219
##$RETENTION INDEX=0
##$CONDENSED SPECTRUM=NO
##NPOINTS= 49
##XYDATA=(XY..XY) 1 
    26          1
    27         30
    28         12
    29         31
    38          8
    39         86
    40         10
    41        121
    42         15
    43         12
    44          3
    50          5
    51          8
    52         21
    53         23
    54         19
    55         95
    56          6
    57          3
    62          4
    63         23
    64         33
    65        177
    66         25
    67         19
    75          1
    76          4
    77          8
    78          1
    79         10
    80          4
    81          8
    82          2
    83          6
    90          8
    91         31
    92        228
    93         36
    94          3
   119        999
   120        242
   121         22
   132          2
   137        673
   138         56
   139          5
   158          4
   219        109
   220         16