##TITLE=Library Entry 25954
##JCAMP-DX=Revision 4.10 
##DATA TYPE=MASS SPECTRUM
##SAMPLE DESCRIPTION=Dr. Jiri Zamecnik, DCIEM, North York, Canada, GP Librar
y
##NAMES=HP
##CAS NAME=Butanoic acid, 3-methyl-, 1,7,7-trimethylbicyclo[2.2.1]hept-2-yl
 ester, exo-
##MOLFORM=C15H26O2
##CAS REGISTRY NO=7779-73-9
##MP= -300
##BP= -300
##MW= 238
##$RETENTION INDEX=1523
##$CONDENSED SPECTRUM=NO
##NPOINTS= 50
##XYDATA=(XY..XY) 1 
    39        107
    41        570
    42         50
    43        236
    53         79
    55        194
    57        999
    58         45
    67        163
    68         59
    69        194
    71         28
    77         63
    79         88
    80         95
    81        235
    82         66
    85        953
    91         59
    92        113
    93        374
    94         69
    95        631
    96         54
   105         17
   107         90
   108        366
   109        363
   110        248
   111         57
   119          7
   121        327
   122         36
   123         21
   125          7
   129          6
   135         36
   136        739
   137        244
   138         23
   139         16
   140          2
   152         14
   153         40
   154        111
   155         15
   156          2
   223          7
   238         50
   239         11