##TITLE=Library Entry 45197
##JCAMP-DX=Revision 4.10 
##DATA TYPE=MASS SPECTRUM
##SAMPLE DESCRIPTION=W.Jennings, T.Shibamoto
##NAMES=HP
##CAS NAME=Decanal dimethyl acetal
##MOLFORM=C12H26O2
##CAS REGISTRY NO=7779-41-1
##MP= -300
##BP= -300
##MW= 202
##$RETENTION INDEX=1366
##$CONDENSED SPECTRUM=NO
##NPOINTS= 62
##XYDATA=(XY..XY) 1 
    23         19
    26          7
    27          7
    29        129
    30         19
    31        199
    33          7
    36         28
    39          7
    40         28
    41        141
    42         19
    43        231
    45        399
    46         19
    47        444
    48          7
    49         49
    53          7
    54         59
    55        472
    56         28
    57        353
    58        509
    59        199
    60          7
    65         47
    67        129
    68        191
    69        471
    70         48
    71        488
    72         59
    73          7
    74         19
    75        999
    76        339
    77        111
    80          7
    81        129
    82        178
    83        491
    84         99
    85        111
    95        103
    96         91
    97        321
    98         39
    99          7
   109         39
   110         49
   111          7
   113         28
   127         19
   138         59
   139         19
   170         19
   171        262
   172         72
   174          1
   201         19
   202          2