##TITLE=Library Entry 85790
##JCAMP-DX=Revision 4.10 
##DATA TYPE=MASS SPECTRUM
##SAMPLE DESCRIPTION=NIST Mass Spectrometry Data Center
##NAMES=HP
##CAS NAME=2-Propenoic acid, 2-methyl-, 3,3,5-trimethylcyclohexyl ester
##MOLFORM=C13H22O2
##CAS REGISTRY NO=7779-31-9
##MP= -300
##BP= -300
##MW= 210
##$RETENTION INDEX=0
##$CONDENSED SPECTRUM=NO
##NPOINTS= 81
##XYDATA=(XY..XY) 1 
    12          2
    13          2
    15         19
    16          2
    17          1
    18          8
    19          1
    26          6
    27         81
    28         24
    29        127
    30          2
    31          7
    37          4
    38         16
    39        295
    40         75
    41        894
    42         60
    43        124
    44         10
    45          9
    50          2
    51          8
    52          5
    53         71
    54         15
    55        222
    56         56
    57         66
    58          8
    59          9
    63          2
    65         22
    66         13
    67        211
    68        332
    69        918
    70         56
    71         17
    77         22
    78          4
    79         35
    80         24
    81        181
    82        313
    83        191
    84         17
    85          9
    86          8
    87         80
    88          4
    89          1
    90          1
    91         17
    92          2
    93         20
    95        239
    96         50
    97          7
    98          1
   105          2
   106          1
   107         12
   109        999
   110         93
   111          7
   112          1
   113          1
   121          3
   124        566
   125         76
   126          3
   127          1
   136          2
   137          1
   141          4
   149          1
   153          1
   154          1
   195          1