##TITLE=Library Entry 73258
##JCAMP-DX=Revision 4.10 
##DATA TYPE=MASS SPECTRUM
##SAMPLE DESCRIPTION=NIST Mass Spectrometry Data Center
##NAMES=HP
##CAS NAME=2-Butenoic acid, 2-methyl-, 2-methylpropyl ester, (Z)-
##MOLFORM=C9H16O2
##CAS REGISTRY NO=7779-81-9
##MP= -300
##BP= -300
##MW= 156
##$RETENTION INDEX=1045
##$CONDENSED SPECTRUM=NO
##NPOINTS= 55
##XYDATA=(XY..XY) 1 
    26          5
    27         75
    28         21
    29        139
    30          5
    31          4
    37          2
    38          9
    39        170
    40         22
    41        221
    42         17
    43         46
    44          3
    45         11
    49          1
    50         12
    51         22
    52         12
    53         88
    54         86
    55        697
    56        166
    57        308
    58         17
    59          2
    60          1
    65          1
    66          1
    68          1
    69          7
    72          7
    73         14
    74          1
    81          5
    82        189
    83        897
    84         54
    85        111
    86          5
    95          1
    97          1
    98          1
    99         24
   100        999
   101        163
   102         11
   103          1
   113          5
   114          1
   123          1
   126          2
   141          3
   156         34
   157          4