##TITLE=Library Entry 65086
##JCAMP-DX=Revision 4.10 
##DATA TYPE=MASS SPECTRUM
##SAMPLE DESCRIPTION=W.Jennings, T.Shibamoto
##NAMES=HP
##CAS NAME=Benzeneethanol, .alpha.-(2-methylpropyl)-
##MOLFORM=C12H18O
##CAS REGISTRY NO=7779-78-4
##MP= -300
##BP= -300
##MW= 178
##$RETENTION INDEX=1366
##$CONDENSED SPECTRUM=NO
##NPOINTS= 30
##XYDATA=(XY..XY) 1 
    31          8
    41        171
    43        593
    44         21
    45        572
    46         21
    57        114
    58          8
    65         19
    68          8
    69        655
    70         75
    71         41
    77          8
    79         31
    85         21
    86          8
    87        183
    88          8
    90         92
    91        565
    92        999
    93        357
    94          8
   103        125
   104         19
   117         33
   121        212
   122          8
   145         19