##TITLE=Library Entry 100233
##JCAMP-DX=Revision 4.10 
##DATA TYPE=MASS SPECTRUM
##SAMPLE DESCRIPTION=NIST Mass Spectrometry Data Center, 2010
##NAMES=HP
##CAS NAME=Benzoic acid, 2-amino-, 2-methylpropyl ester
##MOLFORM=C11H15NO2
##CAS REGISTRY NO=7779-77-3
##MP= -300
##BP= -300
##MW= 193
##$RETENTION INDEX=1598
##$CONDENSED SPECTRUM=NO
##NPOINTS= 80
##XYDATA=(XY..XY) 1 
    15          2
    26          3
    27         30
    28         16
    29         53
    30          3
    31          3
    33          1
    37          3
    38         12
    39         92
    40         10
    41         93
    42         12
    43         25
    44          4
    45          2
    46          2
    50          7
    51          8
    52         28
    53         11
    54          4
    55          9
    56          6
    57         28
    58          2
    59          1
    60          2
    61          2
    62          8
    63         34
    64         42
    65        209
    66         29
    67          2
    68          1
    72          1
    73          1
    74          3
    75          3
    76          5
    77          4
    78          2
    79          1
    80          3
    81          1
    88          1
    89          2
    90         11
    91         43
    92        289
    93         50
    94          3
   103          1
   104          1
   105          1
   106          1
   108          1
   117          1
   118          2
   119        999
   120        387
   121         31
   122          2
   130          1
   132          2
   136          8
   137        384
   138         30
   139          2
   146          5
   147          1
   150          1
   160          2
   178          1
   192          1
   193        190
   194         23
   195          2