##TITLE=Library Entry 22238
##JCAMP-DX=Revision 4.10 
##DATA TYPE=MASS SPECTRUM
##SAMPLE DESCRIPTION=Insect Chem. Ecol. Lab., USDA, Beltsville, MD 20705
##NAMES=HP
##CAS NAME=Heptanoic acid, 2-methylpropyl ester
##MOLFORM=C11H22O2
##CAS REGISTRY NO=7779-80-8
##MP= -300
##BP= -300
##MW= 186
##$RETENTION INDEX=1233
##$CONDENSED SPECTRUM=NO
##NPOINTS= 88
##XYDATA=(XY..XY) 1 
    41        565
    42        151
    43        703
    44         23
    45         23
    46          0
    47          0
    49          1
    50          1
    51          5
    52          2
    53         23
    55        211
    56        999
    57        630
    58         32
    60        283
    61         78
    62          2
    63          0
    65          2
    67         12
    68         22
    69         57
    70         56
    71         37
    73        141
    74         16
    75          5
    77          2
    78          1
    79          2
    81          6
    83         40
    84         44
    85        121
    87        142
    88          7
    89         23
    90          1
    91          1
    93          1
    94          4
    95         18
    97          9
    98          2
    99          4
   101         38
   102          3
   103          3
   104          2
   105          0
   106          0
   107          0
   108          0
   109          1
   110          4
   111         10
   113        702
   114         60
   116         70
   117          9
   118          0
   124          1
   125          0
   126          1
   127          5
   129         13
   130         69
   131        467
   132         35
   133          3
   135          0
   143         17
   144          2
   145          1
   156         10
   157          2
   159          1
   160          0
   171          4
   172          1
   173          0
   184          1
   185          7
   186         49
   187          5
   188          0