##TITLE=Library Entry 28368
##JCAMP-DX=Revision 4.10 
##DATA TYPE=MASS SPECTRUM
##SAMPLE DESCRIPTION=Chemical Concepts
##NAMES=HP
##CAS NAME=1,3,5-Triazine, 1,3,5-triethylhexahydro-
##MOLFORM=C9H21N3
##CAS REGISTRY NO=7779-27-3
##MP= -300
##BP= -300
##MW= 171
##$RETENTION INDEX=0
##$CONDENSED SPECTRUM=NO
##NPOINTS= 64
##XYDATA=(XY..XY) 1 
    18          1
    26          2
    27         18
    28         52
    29         46
    30         98
    31          1
    39          0
    40         11
    41         10
    42        202
    43         28
    44         61
    45          2
    46          3
    49          0
    51          0
    52          0
    53          0
    54          8
    55         11
    56        140
    57         74
    58        999
    59         65
    60          2
    64          8
    68          0
    69         69
    70          9
    71        303
    72         32
    73          1
    82          0
    83          1
    84          0
    85          7
    86          4
    87          1
    97          4
    98          0
    99         31
   100          3
   101          7
   111          0
   112          1
   113         62
   114        183
   115         48
   116          2
   123          0
   125          0
   126          2
   127          1
   128          1
   140          1
   141          0
   142          1
   143          0
   154          0
   170        160
   171        175
   172         21
   173          0