##TITLE=Library Entry 59341
##JCAMP-DX=Revision 4.10 
##DATA TYPE=MASS SPECTRUM
##SAMPLE DESCRIPTION=Japan AIST/NIMC Database- Spectrum MS-NW-3846
##NAMES=HP
##CAS NAME=Benzenesulfonic acid, 4-methyl-, butyl ester
##MOLFORM=C11H16O3S
##CAS REGISTRY NO=778-28-9
##MP= -300
##BP= -300
##MW= 228
##$RETENTION INDEX=0
##$CONDENSED SPECTRUM=NO
##NPOINTS= 113
##XYDATA=(XY..XY) 1 
    14          2
    15          8
    18          2
    26          7
    27         80
    28         62
    29         98
    30          3
    31          8
    32         14
    34          1
    36          1
    37          3
    38         10
    39        122
    40         14
    41        175
    42          9
    43         37
    44          5
    45          5
    46          1
    48          2
    49          2
    50         22
    51         42
    52         17
    53         13
    54          4
    55         38
    56        797
    57         71
    58          2
    60          1
    61          3
    62         12
    63         51
    64         16
    65        237
    66         14
    67          4
    68          1
    69          4
    70          1
    71          3
    73          5
    74          5
    75          5
    76          5
    77         41
    78         50
    79         38
    80         10
    81          3
    82          1
    83          1
    84          1
    85          1
    86          2
    87          3
    88          2
    89         58
    90         46
    91        999
    92        197
    93         27
    94          3
    95          1
    99          6
   100          1
   105          7
   106          3
   107         93
   108         81
   109         13
   110          2
   111          3
   117          1
   119          2
   121          2
   122          1
   123          2
   124          4
   131          1
   132          1
   137          1
   139         15
   140          3
   141          1
   146          1
   149          1
   154          1
   155        642
   156         66
   157         37
   158          3
   167          1
   170          2
   171          7
   172        180
   173        752
   174         74
   175         40
   176          4
   185          6
   186          1
   190          4
   192          1
   199          1
   226          1
   228         12
   229          2
   230          1