##TITLE=Library Entry 1390
##JCAMP-DX=Revision 4.10 
##DATA TYPE=MASS SPECTRUM
##SAMPLE DESCRIPTION=Chuck Anderson, Aldrich Chemical Co.
##NAMES=HP
##CAS NAME=4-Cyano-3-nitrobenzotrifluoride
##MOLFORM=C8H3F3N2O2
##CAS REGISTRY NO=778-94-9
##MP= -300
##BP= -300
##MW= 216
##$RETENTION INDEX=0
##$CONDENSED SPECTRUM=NO
##NPOINTS= 105
##XYDATA=(XY..XY) 1 
    17          1
    18          6
    26          7
    27          6
    28         10
    30        999
    31         41
    32          4
    33          2
    36          5
    37         35
    38         36
    39          9
    44          4
    46         67
    48          2
    49         14
    50        114
    51         37
    52         10
    56          9
    57         45
    60          2
    61         21
    62         26
    63         33
    64         25
    65          0
    68          8
    69        136
    70          4
    72          2
    73         19
    74         55
    75        215
    76         31
    77          3
    79          3
    80          5
    81         17
    82         19
    83          1
    85          5
    86         11
    87         25
    88         50
    89          9
    90          3
    92          5
    93         46
    94         19
    95         17
    98          4
    99        110
   100        180
   101         37
   102          3
   104          1
   105          7
   106         19
   107          6
   108         64
   109          5
   111          2
   112          8
   113          8
   117          8
   118          3
   119         27
   120        189
   121         13
   123         12
   124         37
   125         28
   126          7
   131         26
   132         14
   136          6
   138        103
   139         24
   140          5
   143        170
   144         69
   145          5
   150        105
   151         57
   152          4
   157          4
   158         77
   159          7
   167          8
   168          1
   169          0
   170        503
   171         41
   172         22
   186         40
   187          4
   197        106
   198          9
   200         12
   215          3
   216        430
   217         39
   218          2