##TITLE=Library Entry 10344
##JCAMP-DX=Revision 4.10 
##DATA TYPE=MASS SPECTRUM
##SAMPLE DESCRIPTION=V.Zaikin,Inst.Petrochem.Synth.,RAS,Moscow
##NAMES=HP
##CAS NAME=Hexanoic acid, phenyl ester
##MOLFORM=C12H16O2
##CAS REGISTRY NO=7780-16-7
##MP= -300
##BP= -300
##MW= 192
##$RETENTION INDEX=1223
##$CONDENSED SPECTRUM=NO
##NPOINTS= 67
##XYDATA=(XY..XY) 1 
    25          5
    26         68
    27        291
    28         33
    29        247
    30          9
    39        277
    40         83
    41        382
    42        179
    43        999
    44         42
    50         36
    51         91
    52         64
    53         33
    54         13
    55        425
    56         68
    57         63
    58          4
    59          3
    60        246
    61         30
    62         14
    63         34
    64         15
    65        103
    66         43
    67          7
    68          7
    69         64
    70         51
    71        407
    72         24
    73        111
    74         23
    75         10
    76          7
    77         81
    78         32
    79         73
    80         19
    81         14
    82          8
    83         21
    84          2
    85          3
    87         30
    89          3
    91         46
    92         13
    93         24
    94        711
    95         73
    96          4
    97          9
    98         52
    99        657
   100         43
   101         17
   102          6
   135          8
   136         10
   137          1
   192         75
   193         11