##TITLE=Library Entry 54146
##JCAMP-DX=Revision 4.10 
##DATA TYPE=MASS SPECTRUM
##SAMPLE DESCRIPTION=A.A.Kutin, Moscow, Russia
##NAMES=HP
##CAS NAME=4-Nitro-2-(piperidinomethyl)phenol
##MOLFORM=C12H16N2O3
##CAS REGISTRY NO=77802-91-6
##MP= -300
##BP= -300
##MW= 236
##$RETENTION INDEX=0
##$CONDENSED SPECTRUM=NO
##NPOINTS= 103
##XYDATA=(XY..XY) 1 
    33          1
    36          4
    38         59
    39        330
    40          9
    41        145
    42        212
    43         80
    44        192
    45         11
    46         11
    47          1
    48          1
    49          6
    50         53
    51        111
    52         87
    53        119
    54         46
    55        161
    56        144
    57         83
    58          6
    59          3
    60          4
    61         18
    62         41
    63         96
    64         46
    65        329
    66         47
    67          7
    69         27
    70         53
    71          9
    72          3
    76         22
    77         73
    78         90
    79         37
    80          2
    83         31
    84        999
    85        253
    86         28
    87          3
    91         12
    92         14
    93         84
    94         22
    95          5
    97         15
    98        400
    99         27
   100          1
   103          6
   104         13
   105         41
   106         87
   107         19
   109        138
   110         11
   111          2
   133         17
   134          7
   139        299
   140         20
   141          2
   142          0
   152        173
   153         14
   154          1
   155          1
   156          0
   161          4
   162          4
   163          9
   164          2
   165          7
   166          1
   179         19
   180          5
   181          9
   182          1
   193         25
   194          7
   195          9
   196          1
   205          1
   206          7
   207         11
   208          1
   209          0
   218          2
   219         35
   220         14
   221          9
   222          1
   235        359
   236        300
   237         39
   238          4
   239          0