##TITLE=Library Entry 85327
##JCAMP-DX=Revision 4.10 
##DATA TYPE=MASS SPECTRUM
##SAMPLE DESCRIPTION=Exported from NIST MS Search
##NAMES=HP
##CAS NAME=Pyrimidine, 2-ethoxy-4,6-dimethyl-
##MOLFORM=C8H12N2O
##CAS REGISTRY NO=7781-21-7
##MP= -300
##BP= -300
##MW= 152
##$RETENTION INDEX=0
##$CONDENSED SPECTRUM=NO
##NPOINTS= 36
##XYDATA=(XY..XY) 1 
    16         69
    18        120
    26         48
    27        202
    28        127
    29        123
    39        186
    40        130
    41        113
    42        281
    43         51
    52         46
    53         65
    54         93
    65         48
    66        137
    67        325
    68         53
    80         51
    81        158
    82         76
    93        232
    94         51
    95        116
    96        304
   107        186
   108        999
   109        302
   110         53
   124        320
   125         74
   137        223
   138         53
   151         48
   152        395
   153         53