##TITLE=Library Entry 97423
##JCAMP-DX=Revision 4.10 
##DATA TYPE=MASS SPECTRUM
##SAMPLE DESCRIPTION=D.HENNEBERG, MAX-PLANCK INSTITUTE, MULHEIM, WEST GERMAN
Y
##NAMES=HP
##CAS NAME=4,7-Methano-2,3,8-methenocyclopent[a]indene, 1,2,3,3a,3b,4,7,7a,8
,8a-decahydro-
##MOLFORM=C14H16
##CAS REGISTRY NO=7781-74-0
##MP= -300
##BP= -300
##MW= 184
##$RETENTION INDEX=0
##$CONDENSED SPECTRUM=NO
##NPOINTS= 115
##XYDATA=(XY..XY) 1 
    25          0
    27          9
    28          3
    29          0
    36          0
    37          0
    38          2
    39         46
    40          9
    41         18
    42          0
    43          0
    45          0
    47          0
    50          5
    51         29
    52          8
    53         13
    54          0
    58          0
    59          0
    61          0
    62          3
    63         16
    64         10
    65         41
    66        147
    67         17
    68          1
    69          0
    70          2
    71          2
    72          0
    73          0
    74          2
    75          5
    76          7
    77         54
    78         34
    79         27
    80         12
    81          1
    83          2
    86          0
    87          3
    88          2
    89         13
    90         11
    91        139
    92         27
    93         16
    94          1
    98          0
    99          0
   101          1
   102          8
   103         43
   104         28
   105         15
   106         40
   107          3
   108          0
   109          0
   111          3
   114          8
   115         94
   116        132
   117        999
   118        756
   119        106
   120          7
   123          0
   125          1
   126          4
   127          8
   128         24
   129         19
   130         12
   131          2
   132          0
   134          0
   139          2
   140          1
   141         13
   142         11
   143         13
   144          1
   148          0
   150          0
   151          2
   152          6
   153          5
   154          4
   155          7
   156          7
   157          0
   162          0
   163          1
   164          0
   165          6
   166          1
   167          3
   168          1
   169          7
   170          1
   171          0
   177          0
   178          2
   179          0
   181          0
   182          1
   183          1
   184         74
   185         13
   186          1