##TITLE=Library Entry 79407
##JCAMP-DX=Revision 4.10 
##DATA TYPE=MASS SPECTRUM
##SAMPLE DESCRIPTION=NIST Mass Spectrometry Data Center, 1994
##NAMES=HP
##CAS NAME=Benzeneacetic acid, .alpha.-methyl-, (R)-
##MOLFORM=C9H10O2
##CAS REGISTRY NO=7782-26-5
##MP= -300
##BP= -300
##MW= 150
##$RETENTION INDEX=0
##$CONDENSED SPECTRUM=NO
##NPOINTS= 48
##XYDATA=(XY..XY) 1 
    13          2
    14          4
    15          4
    17          3
    18          4
    26          7
    27         67
    28          6
    37          9
    38         21
    39         81
    40          5
    43         11
    44          5
    45         72
    50         82
    51        168
    52         36
    53         25
    55          5
    61          9
    62         25
    63         58
    64          9
    65         25
    66          4
    73          7
    74         15
    75         20
    76         21
    77        275
    78        106
    79        241
    80         16
    86          4
    87          3
    89         25
    90         10
    91        109
    92          9
    98          3
   102         19
   103        147
   105        999
   106        106
   107         13
   150        263
   151         26