##TITLE=Library Entry 37005
##JCAMP-DX=Revision 4.10 
##DATA TYPE=MASS SPECTRUM
##SAMPLE DESCRIPTION=Crystal Harrison, SCOTT SPECIALTY GASES Inc., NJ
##NAMES=HP
##CAS NAME=Chlorine
##MOLFORM=Cl2
##CAS REGISTRY NO=7782-50-5
##MP= -300
##BP= -300
##MW= 70
##$RETENTION INDEX=0
##$CONDENSED SPECTRUM=NO
##NPOINTS= 5
##XYDATA=(XY..XY) 1 
    35        828
    37        264
    70        999
    72        638
    74        102