##TITLE=Library Entry 1058
##JCAMP-DX=Revision 4.10 
##DATA TYPE=MASS SPECTRUM
##SAMPLE DESCRIPTION=G. Wolber, Eastman Kodak Company, Rochester, NY
##NAMES=HP
##CAS NAME=Nitrous acid
##MOLFORM=HNO2
##CAS REGISTRY NO=7782-77-6
##MP= -300
##BP= -300
##MW= 47
##$RETENTION INDEX=0
##$CONDENSED SPECTRUM=NO
##NPOINTS= 5
##XYDATA=(XY..XY) 1 
    28         15
    30        999
    31         19
    46         18
    47         93