##TITLE=Library Entry 30562
##JCAMP-DX=Revision 4.10 
##DATA TYPE=MASS SPECTRUM
##SAMPLE DESCRIPTION=Chemical Concepts
##NAMES=HP
##CAS NAME=3-(2-Hydroxy-2-methyl-propyl)-5,5-dimethyl-cyclohex-2-enone
##MOLFORM=C12H20O2
##CAS REGISTRY NO=77822-60-7
##MP= -300
##BP= -300
##MW= 196
##$RETENTION INDEX=0
##$CONDENSED SPECTRUM=NO
##NPOINTS= 95
##XYDATA=(XY..XY) 1 
    26          4
    27         53
    28         14
    29         76
    31         84
    37          2
    38          7
    39        152
    40         21
    41        176
    42         29
    43        406
    44         12
    45          7
    50          8
    51         28
    52         17
    53        111
    54        132
    55         97
    56         24
    57         24
    58         39
    59        999
    60         41
    61          3
    63          8
    64          5
    65         24
    66          8
    67         95
    68         14
    69         26
    70          5
    71          4
    74          2
    75          2
    77         61
    78         14
    79         92
    80         20
    81         68
    82        355
    83        113
    84          8
    85          3
    91         38
    92         10
    93         33
    94         36
    95        160
    96         59
    97         19
    98          3
   103          4
   104          3
   105         65
   106          7
   107         42
   108         11
   109         45
   110         67
   111          9
   113          2
   115          3
   117          4
   119          9
   120         10
   121         42
   122         15
   123        372
   124         31
   125         17
   126          2
   129          3
   131          2
   133          2
   135         23
   136          9
   137          8
   138        978
   139        202
   140         16
   141          4
   145          7
   163         46
   164          6
   165          5
   178         19
   179          8
   180          2
   181         36
   182          5
   196          2
   197          4