##TITLE=Library Entry 68666
##JCAMP-DX=Revision 4.10 
##DATA TYPE=MASS SPECTRUM
##SAMPLE DESCRIPTION=Chemical Concepts
##NAMES=HP
##CAS NAME=4,6-Heptadien-2-one, 3,6-dimethyl-3-(1-methylethyl)-, (E)-
##MOLFORM=C12H20O
##CAS REGISTRY NO=77822-50-5
##MP= -300
##BP= -300
##MW= 180
##$RETENTION INDEX=0
##$CONDENSED SPECTRUM=NO
##NPOINTS= 75
##XYDATA=(XY..XY) 1 
    26          5
    27         98
    28         22
    29         77
    30          4
    37          4
    38          7
    39        146
    40         22
    41        298
    42         24
    43        669
    44         26
    45          7
    50         11
    51         44
    52         22
    53        113
    54         14
    55        169
    56         14
    57        433
    58         25
    59          7
    60          5
    63         16
    65         57
    66         23
    67        172
    68         15
    69        100
    70         22
    71         11
    75          5
    77        113
    78         29
    79        123
    80         25
    81        291
    82         30
    83         26
    91        144
    92         21
    93         96
    94         31
    95        999
    96         88
    97         11
    98          6
   103         10
   105         47
   106         11
   107        110
   108         38
   109        110
   110         13
   111         13
   115          5
   119         10
   120          7
   121         42
   122         47
   123        151
   124         16
   125          8
   135         14
   136          9
   137        978
   138        160
   139         12
   140          5
   141          4
   165         16
   180        233
   181         34