##TITLE=Library Entry 1574
##JCAMP-DX=Revision 4.10 
##DATA TYPE=MASS SPECTRUM
##SAMPLE DESCRIPTION=D.HENNEBERG, MAX-PLANCK INSTITUTE, MULHEIM, WEST GERMAN
Y
##NAMES=HP
##CAS NAME=Oxygen
##MOLFORM=O2
##CAS REGISTRY NO=7782-44-7
##MP= -300
##BP= -300
##MW= 32
##$RETENTION INDEX=0
##$CONDENSED SPECTRUM=NO
##NPOINTS= 2
##XYDATA=(XY..XY) 1 
    16        218
    32        999