##TITLE=Library Entry 71246
##JCAMP-DX=Revision 4.10 
##DATA TYPE=MASS SPECTRUM
##SAMPLE DESCRIPTION=U.I.ZAHORSZKY KARLSRUHE UNIV., KARLSRUHE, GERMANY, F.R.
G.
##NAMES=HP
##CAS NAME=Butanedioic acid, 2,3-bis(1-piperidinylmethyl)-, diethyl ester
##MOLFORM=C20H36N2O4
##CAS REGISTRY NO=77828-46-7
##MP= -300
##BP= -300
##MW= 368
##$RETENTION INDEX=0
##$CONDENSED SPECTRUM=NO
##NPOINTS= 46
##XYDATA=(XY..XY) 1 
    27         20
    28         26
    29         40
    30         32
    35         10
    36        126
    38         42
    39         20
    41         45
    42         52
    43         23
    44         35
    51         13
    52         13
    53         10
    55         45
    56         30
    57         23
    69         15
    70         15
    83         15
    84        115
    85        145
    86         20
    98        999
    99         68
   110          3
   111          2
   124          2
   125          5
   136          5
   142          5
   154          3
   168          2
   183          6
   184          6
   185         66
   186          8
   198          2
   210          2
   238         10
   270          9
   283          2
   284          3
   323          2
   368          1