##TITLE=Library Entry 49479
##JCAMP-DX=Revision 4.10 
##DATA TYPE=MASS SPECTRUM
##SAMPLE DESCRIPTION=F.COLLONGES DEPT. ORG. CHEM., ESCIL, VILLEURBANNE, FRAN
CE
##NAMES=HP
##CAS NAME=6,8-Nonadien-2-one
##MOLFORM=C9H14O
##CAS REGISTRY NO=77828-54-7
##MP= -300
##BP= -300
##MW= 138
##$RETENTION INDEX=0
##$CONDENSED SPECTRUM=NO
##NPOINTS= 23
##XYDATA=(XY..XY) 1 
    39        120
    41        180
    44        500
    46         30
    50         10
    51         20
    52         30
    53         50
    54         30
    55         50
    58         50
    63         20
    65         50
    66         30
    67        110
    71         20
    77         70
    79        680
    80        999
    81        110
    95         70
   138        230
   139         20