##TITLE=Library Entry 82998
##JCAMP-DX=Revision 4.10 
##DATA TYPE=MASS SPECTRUM
##SAMPLE DESCRIPTION=R.SELF FOOD RESEARCH INSTITUTE, NORWICH, U.K.
##NAMES=HP
##CAS NAME=Acetamide, N-[4-(1-acetyl-2,5-dioxo-4-imidazolidinyl)butyl]-N-phe
nyl-, (.+/-.)-
##MOLFORM=C17H21N3O4
##CAS REGISTRY NO=77828-57-0
##MP= -300
##BP= -300
##MW= 331
##$RETENTION INDEX=0
##$CONDENSED SPECTRUM=NO
##NPOINTS= 40
##XYDATA=(XY..XY) 1 
    39         10
    41         14
    42         10
    43         26
    51         13
    55         13
    56          9
    65         12
    73         10
    77         62
    78         12
    79         17
    82         18
    91          9
    92          8
    93         95
    94         16
   104         21
   105         13
   106        999
   107        104
   118         14
   119         10
   120         36
   132         10
   135        226
   136         20
   148         49
   149          9
   153         21
   155         11
   162          7
   190         62
   191          9
   247         23
   288         11
   289        147
   290         23
   331         60
   332         13