##TITLE=Library Entry 3
##JCAMP-DX=Revision 4.10 
##DATA TYPE=MASS SPECTRUM
##SAMPLE DESCRIPTION=D.HENNEBERG, MAX-PLANCK INSTITUTE, MULHEIM, WEST GERMAN
Y
##NAMES=HP
##CAS NAME=Deuterium
##MOLFORM=D2
##CAS REGISTRY NO=7782-39-0
##MP= -300
##BP= -300
##MW= 4
##$RETENTION INDEX=0
##$CONDENSED SPECTRUM=NO
##NPOINTS= 2
##XYDATA=(XY..XY) 1 
     2         15
     4        999