##TITLE=Library Entry 10955
##JCAMP-DX=Revision 4.10 
##DATA TYPE=MASS SPECTRUM
##SAMPLE DESCRIPTION=Chemical Concepts
##NAMES=HP
##CAS NAME=Furan, 2,3-dihydro-2,2-dimethyl-3-(1-methylethenyl)-5-(1-methylet
hyl)-
##MOLFORM=C12H20O
##CAS REGISTRY NO=77822-49-2
##MP= -300
##BP= -300
##MW= 180
##$RETENTION INDEX=0
##$CONDENSED SPECTRUM=NO
##NPOINTS= 121
##XYDATA=(XY..XY) 1 
    26          9
    27        203
    28         32
    29        126
    30          4
    31         11
    37          6
    38         17
    39        327
    40         59
    41        518
    42         70
    43        999
    44         40
    45         13
    49          2
    50         25
    51         88
    52         44
    53        165
    54         22
    55        206
    56         25
    57         46
    58         16
    59         34
    60          4
    61          5
    62          9
    63         31
    64         12
    65        112
    66         46
    67        370
    68         49
    69        146
    70        102
    71        359
    72         23
    73          5
    74         11
    75         16
    76          5
    77        224
    78         53
    79        353
    80         96
    81        320
    82         66
    83         42
    84          8
    85         21
    86          4
    87          3
    89         10
    90          5
    91        544
    92        103
    93        147
    94         70
    95        289
    96         47
    97        162
    98         14
    99         11
   102          3
   103         23
   104         11
   105        180
   106         63
   107        865
   108        146
   109        526
   110         92
   111         13
   112          3
   113          2
   115          6
   116          3
   117          9
   118          2
   119         27
   120          9
   121         95
   122        112
   123        121
   124         41
   125         38
   126          5
   128          2
   129          3
   131          4
   133          6
   135         15
   136          7
   137        330
   138         57
   139        229
   140         22
   141          4
   145          3
   147         13
   148          4
   149         13
   150          9
   151        146
   152         29
   155          4
   161          2
   162          3
   163         14
   164          8
   165        308
   166         44
   167          5
   177          2
   178          4
   179         34
   180        466
   181         67
   182          6