##TITLE=Library Entry 14020
##JCAMP-DX=Revision 4.10 
##DATA TYPE=MASS SPECTRUM
##SAMPLE DESCRIPTION=JCPRB4, (4) 405(1977); G.D. MANNERS AND L. JURD
##NAMES=HP
##CAS NAME=1,4-Benzenediol, 2-[8-(acetyloxy)-3-[(acetyloxy)methyl]-7-methyl-
2,6-octadienyl]-, diacetate
##MOLFORM=C24H30O8
##CAS REGISTRY NO=77828-65-0
##MP= -300
##BP= -300
##MW= 446
##$RETENTION INDEX=0
##$CONDENSED SPECTRUM=NO
##NPOINTS= 14
##XYDATA=(XY..XY) 1 
    43        999
   119        370
   123        260
   161        260
   174        260
   242        380
   284         90
   302        100
   326        130
   343         27
   362          9
   386         10
   404          6
   446          5