##TITLE=Library Entry 42274
##JCAMP-DX=Revision 4.10 
##DATA TYPE=MASS SPECTRUM
##SAMPLE DESCRIPTION=R.W.THIES OREGON STATE UNIVERSITY, CORVALLIS, OREGON, U
SA
##NAMES=HP
##CAS NAME=Silane, 1-(3-cyclodecen-1-yloxy)trimethyl-, (E)-
##MOLFORM=C13H26OSi
##CAS REGISTRY NO=77828-41-2
##MP= -300
##BP= -300
##MW= 226
##$RETENTION INDEX=0
##$CONDENSED SPECTRUM=NO
##NPOINTS= 44
##XYDATA=(XY..XY) 1 
    59         85
    61         46
    67        127
    68        136
    69         32
    73        999
    74         86
    75        552
    76         52
    77         54
    79        113
    80        116
    81        106
    82         63
    91         50
    93         88
    94        120
    95         95
   101        121
   103         44
   107        127
   108         47
   110         28
   115         54
   116         74
   117         35
   121         92
   129        610
   130        260
   131         63
   135         46
   136        100
   143         64
   144         45
   155        122
   156         23
   169         81
   183        178
   184         40
   185         46
   211         55
   212         14
   225         41
   226         11