##TITLE=Library Entry 35605
##JCAMP-DX=Revision 4.10 
##DATA TYPE=MASS SPECTRUM
##SAMPLE DESCRIPTION=CBDCOM/ERDEC, Edgewood, MD
##NAMES=HP
##CAS NAME=Phosphorus trifluoride
##MOLFORM=F3P
##CAS REGISTRY NO=7783-55-3
##MP= -300
##BP= -300
##MW= 88
##$RETENTION INDEX=0
##$CONDENSED SPECTRUM=NO
##NPOINTS= 5
##XYDATA=(XY..XY) 1 
    19         39
    31         49
    50         89
    69        999
    88        429