##TITLE=Library Entry 32999
##JCAMP-DX=Revision 4.10 
##DATA TYPE=MASS SPECTRUM
##SAMPLE DESCRIPTION=Exported from NIST MS Search
##NAMES=HP
##CAS NAME=Thionyl fluoride
##MOLFORM=F2OS
##CAS REGISTRY NO=7783-42-8
##MP= -300
##BP= -300
##MW= 86
##$RETENTION INDEX=0
##$CONDENSED SPECTRUM=NO
##NPOINTS= 20
##XYDATA=(XY..XY) 1 
    16         33
    19         39
    24         39
    25          1
    32         76
    34          4
    35          7
    36          1
    48        233
    49          3
    50         12
    51         36
    53          1
    67        999
    68          9
    69         46
    70         17
    86        556
    87          5
    88         25