##TITLE=Library Entry 30927
##JCAMP-DX=Revision 4.10 
##DATA TYPE=MASS SPECTRUM
##SAMPLE DESCRIPTION=J.W.PINSON UNIV. S. MISSISSIPPI, HATTIESBURG, MISS., US
A
##NAMES=HP
##CAS NAME=Trisilane
##MOLFORM=H8Si3
##CAS REGISTRY NO=7783-26-8
##MP= -300
##BP= -300
##MW= 92
##$RETENTION INDEX=0
##$CONDENSED SPECTRUM=NO
##NPOINTS= 23
##XYDATA=(XY..XY) 1 
    27         72
    28         88
    29         18
    30         30
    56        139
    57        229
    58        566
    59        205
    60        999
    61        181
    62         60
    63          6
    84        107
    85        127
    86         46
    87         36
    88         49
    89         43
    90         59
    91         54
    92         48
    93         11
    94          5