##TITLE=Library Entry 1616
##JCAMP-DX=Revision 4.10 
##DATA TYPE=MASS SPECTRUM
##SAMPLE DESCRIPTION=Exported from NIST MS Search
##NAMES=HP
##CAS NAME=Hydrogen sulfide
##MOLFORM=H2S
##CAS REGISTRY NO=7783-06-4
##MP= -300
##BP= -300
##MW= 34
##$RETENTION INDEX=338
##$CONDENSED SPECTRUM=NO
##NPOINTS= 5
##XYDATA=(XY..XY) 1 
    32        444
    33        420
    34        999
    35         25
    36         42