##TITLE=Library Entry 1624
##JCAMP-DX=Revision 4.10 
##DATA TYPE=MASS SPECTRUM
##SAMPLE DESCRIPTION=Exported from NIST MS Search
##NAMES=HP
##CAS NAME=Oxygen difluoride
##MOLFORM=F2O
##CAS REGISTRY NO=7783-41-7
##MP= -300
##BP= -300
##MW= 54
##$RETENTION INDEX=0
##$CONDENSED SPECTRUM=NO
##NPOINTS= 6
##XYDATA=(XY..XY) 1 
    16        441
    19         97
    35        999
    36          1
    54        620
    55          1