##TITLE=Library Entry 27774
##JCAMP-DX=Revision 4.10 
##DATA TYPE=MASS SPECTRUM
##SAMPLE DESCRIPTION=J.T. CLERC, ORGANIC CHEM. LAB., ETH, ZURICH, SWITZ.
##NAMES=HP
##CAS NAME=2-Propen-1-one, 1-cyclopropyl-3-(dimethylamino)-2-methyl-
##MOLFORM=C9H15NO
##CAS REGISTRY NO=77846-87-8
##MP= -300
##BP= -300
##MW= 153
##$RETENTION INDEX=0
##$CONDENSED SPECTRUM=NO
##NPOINTS= 58
##XYDATA=(XY..XY) 1 
    26         26
    27         83
    28        156
    29         57
    30         83
    37          6
    38         32
    39        497
    40        109
    41        539
    42        710
    43        145
    44        228
    45         37
    46        135
    51         11
    52          6
    53         21
    54         16
    55         52
    56         32
    57         26
    58        999
    59         32
    65          6
    66         11
    67         32
    68         63
    69        259
    70         37
    71         63
    77          6
    79         16
    80          6
    81         21
    82        161
    83         21
    84         63
    94         16
    95         47
    96         32
    97          6
    98         16
   100          1
   107         26
   108        109
   109         52
   110        104
   111          1
   112         63
   124         47
   125          6
   136         68
   137         11
   138         89
   152         89
   153        140
   154         11