##TITLE=Library Entry 46314
##JCAMP-DX=Revision 4.10 
##DATA TYPE=MASS SPECTRUM
##SAMPLE DESCRIPTION=LRL 0008
##NAMES=HP
##CAS NAME=Arsine
##MOLFORM=AsH3
##CAS REGISTRY NO=7784-42-1
##MP= -300
##BP= -300
##MW= 78
##$RETENTION INDEX=0
##$CONDENSED SPECTRUM=NO
##NPOINTS= 10
##XYDATA=(XY..XY) 1 
     2         12
    35          1
    36          6
    37          1
    38         18
    39          1
    75        353
    76        999
    77        238
    78        722