##TITLE=Library Entry 18847
##JCAMP-DX=Revision 4.10 
##DATA TYPE=MASS SPECTRUM
##SAMPLE DESCRIPTION=J.T. CLERC, ORGANIC CHEM. LAB., ETH, ZURICH, SWITZ.
##NAMES=HP
##CAS NAME=2-Propen-1-one, 1-(2,2-dimethylcyclopropyl)-
##MOLFORM=C8H12O
##CAS REGISTRY NO=77846-92-5
##MP= -300
##BP= -300
##MW= 124
##$RETENTION INDEX=0
##$CONDENSED SPECTRUM=NO
##NPOINTS= 41
##XYDATA=(XY..XY) 1 
    26         73
    27        637
    28        140
    29        114
    37         16
    38         42
    39        482
    40         73
    41        487
    42         68
    43         63
    50         21
    51         47
    52         21
    53        130
    54         47
    55        999
    56         47
    65         16
    66          6
    67         78
    68         32
    69        301
    70         11
    77         16
    78          6
    79         32
    80         37
    81        145
    82         37
    83         37
    91         42
    93         11
    95         47
    96         68
    97         11
   106          6
   109        114
   110          6
   123          1
   124         21