##TITLE=Library Entry 91173
##JCAMP-DX=Revision 4.10 
##DATA TYPE=MASS SPECTRUM
##SAMPLE DESCRIPTION=Exported from NIST MS Search
##NAMES=HP
##CAS NAME=.alpha.-D-Glucopyranose, 2-(acetylamino)-2-deoxy-, 1,3,4,6-tetraa
cetate
##MOLFORM=C16H23NO10
##CAS REGISTRY NO=7784-54-5
##MP= -300
##BP= -300
##MW= 389
##$RETENTION INDEX=0
##$CONDENSED SPECTRUM=NO
##NPOINTS= 64
##XYDATA=(XY..XY) 1 
    72        212
    75          6
    77         13
    79          4
    80         30
    81         31
    83         28
    84        220
    85         49
    86          3
    88         18
    96        278
    97        118
    98         62
   100         36
   101        106
   102         69
   103         12
   108         65
   109         16
   110          4
   112         38
   113          7
   114        999
   115         40
   122         20
   124         27
   125         49
   126        132
   127          4
   130         10
   138        100
   139        230
   140         52
   142         15
   143          8
   144         28
   150         77
   154         30
   156        340
   157         20
   166         30
   167         32
   168         78
   181         95
   184          8
   186          5
   198         60
   199        111
   202          5
   210          5
   228          5
   241        210
   242         18
   244         15
   247         15
   260          5
   276         12
   277         10
   278          8
   318          1
   330         25
   331         10
   346         30