##TITLE=Library Entry 97452
##JCAMP-DX=Revision 4.10 
##DATA TYPE=MASS SPECTRUM
##SAMPLE DESCRIPTION=Chemical Concepts
##NAMES=HP
##CAS NAME=Deltacyclene
##MOLFORM=C9H10
##CAS REGISTRY NO=7785-10-6
##MP= -300
##BP= -300
##MW= 118
##$RETENTION INDEX=0
##$CONDENSED SPECTRUM=NO
##NPOINTS= 47
##XYDATA=(XY..XY) 1 
    26         15
    27         50
    28         11
    29         15
    31         29
    32         18
    37         11
    38         33
    39        162
    40         18
    41         12
    43          2
    45          1
    49          5
    50         50
    51         81
    52         30
    53         13
    57         18
    58         58
    61          9
    62         26
    63         62
    64         15
    65         85
    66         12
    74          9
    75          9
    76          9
    77         61
    78         59
    79          7
    86          3
    87          4
    89         44
    90         22
    91        271
    92         26
   101          2
   102         16
   103         75
   104          6
   115        305
   116         99
   117        999
   118        340
   119         29