##TITLE=Library Entry 72939
##JCAMP-DX=Revision 4.10 
##DATA TYPE=MASS SPECTRUM
##SAMPLE DESCRIPTION=NIST Mass Spectrometry Data Center
##NAMES=HP
##CAS NAME=2-Butenoic acid, 2-methyl-, pentyl ester, (Z)-
##MOLFORM=C10H18O2
##CAS REGISTRY NO=7785-63-9
##MP= -300
##BP= -300
##MW= 170
##$RETENTION INDEX=1190
##$CONDENSED SPECTRUM=NO
##NPOINTS= 43
##XYDATA=(XY..XY) 1 
    26          6
    27        103
    28         28
    29        159
    30          5
    31          6
    37          2
    38          6
    39        157
    40         22
    41        172
    42         88
    43        534
    44         22
    45         16
    50         12
    51         26
    52         13
    53         85
    54         89
    55        698
    56         64
    57         18
    58          6
    70         39
    71         46
    72          8
    73          6
    82        201
    83        450
    84         25
    85        105
    86          5
    98          5
    99         23
   100        999
   101        166
   102         12
   125          1
   128          2
   170         57
   171          6
   172          1