##TITLE=Library Entry 66241
##JCAMP-DX=Revision 4.10 
##DATA TYPE=MASS SPECTRUM
##SAMPLE DESCRIPTION=Japan AIST/NIMC Database- Spectrum MS-NW-9493
##NAMES=HP
##CAS NAME=(1R)-2,6,6-Trimethylbicyclo[3.1.1]hept-2-ene
##MOLFORM=C10H16
##CAS REGISTRY NO=7785-70-8
##MP= -300
##BP= -300
##MW= 136
##$RETENTION INDEX=929
##$CONDENSED SPECTRUM=NO
##NPOINTS= 74
##XYDATA=(XY..XY) 1 
    14          2
    15          2
    26          2
    27         60
    28         16
    29         44
    30          1
    38          4
    39         93
    40         15
    41        129
    42          8
    43         77
    44          2
    50          8
    51         34
    52         14
    53         62
    54          8
    55         57
    56          4
    57          3
    58          4
    59          2
    62          3
    63         10
    64          3
    65         40
    66         11
    67         79
    68         46
    69         15
    70          2
    74          1
    75          2
    76          1
    77        222
    78         32
    79        188
    80         90
    81         38
    82          7
    83          4
    84          1
    89          4
    90          1
    91        266
    92        321
    93        999
    94         98
    95         19
    96          2
    97          1
   102          1
   103         12
   104          4
   105         92
   106         25
   107         56
   108         13
   109          9
   110          1
   115          4
   116          1
   117          4
   119         19
   120          3
   121        139
   122         14
   123          1
   134          1
   135          2
   136         65
   137          9