##TITLE=Library Entry 53002
##JCAMP-DX=Revision 4.10 
##DATA TYPE=MASS SPECTRUM
##SAMPLE DESCRIPTION=NIST Mass Spectrometry Data Center, 2010
##NAMES=HP
##CAS NAME=n-Butyl tiglate
##MOLFORM=C9H16O2
##CAS REGISTRY NO=7785-66-2
##MP= -300
##BP= -300
##MW= 156
##$RETENTION INDEX=1134
##$CONDENSED SPECTRUM=NO
##NPOINTS= 72
##XYDATA=(XY..XY) 1 
    15          2
    26          7
    27         86
    28         29
    29        150
    30          4
    31          4
    37          1
    38          5
    39        102
    40         14
    41        122
    42          8
    43         25
    44          3
    45         17
    46          1
    49          1
    50          8
    51         17
    52          9
    53         70
    54         62
    55        599
    56        182
    57         85
    58          5
    59          4
    60          1
    67          4
    68          1
    69         15
    70          5
    71          4
    72          6
    73         23
    74          4
    81          6
    82        108
    83        999
    84         63
    85        109
    86          6
    87          4
    95          7
    96          3
    97          1
    98          3
    99         29
   100        232
   101        975
   102         55
   103          5
   109          4
   110          2
   111          4
   112          2
   113         12
   114         26
   115          2
   123          7
   124          1
   125          1
   127          6
   128          4
   138          2
   139          4
   141         94
   142          8
   143          1
   156         50
   157          6