##TITLE=Library Entry 52677
##JCAMP-DX=Revision 4.10 
##DATA TYPE=MASS SPECTRUM
##SAMPLE DESCRIPTION=NIST Mass Spectrometry Data Center, 2010
##NAMES=HP
##CAS NAME=Geranyl tiglate
##MOLFORM=C15H24O2
##CAS REGISTRY NO=7785-33-3
##MP= -300
##BP= -300
##MW= 236
##$RETENTION INDEX=1702
##$CONDENSED SPECTRUM=NO
##NPOINTS= 91
##XYDATA=(XY..XY) 1 
    15          1
    26          2
    27         45
    28         10
    29         62
    30          1
    31          1
    39         83
    40         22
    41        327
    42         21
    43         27
    44          2
    45          3
    50          5
    51         14
    52          9
    53        106
    54         28
    55        346
    56         19
    57          6
    58          1
    59          3
    63          2
    65         22
    66         10
    67        194
    68        535
    69        836
    70         47
    71          4
    73          1
    77         31
    78          6
    79         52
    80        266
    81         91
    83        999
    84         60
    85         11
    91         44
    92        140
    93        545
    94        107
    95         40
    96          4
    97          3
    98          1
    99          1
   100          4
   101         43
   102          3
   103          3
   105         21
   106          5
   107        100
   108         30
   109         10
   110          2
   111          2
   112          4
   115          1
   117          2
   119          9
   121        350
   122         40
   123         49
   124          5
   125         24
   126          2
   133          1
   134          1
   135          9
   136        283
   137         40
   138          3
   139          2
   141          1
   150          1
   151          1
   152          1
   153          3
   154          3
   165          1
   166          2
   167         29
   168          3
   193          1
   221          1
   236          2