##TITLE=Library Entry 72953
##JCAMP-DX=Revision 4.10 
##DATA TYPE=MASS SPECTRUM
##SAMPLE DESCRIPTION=NIST Mass Spectrometry Data Center
##NAMES=HP
##CAS NAME=Butyl angelate
##MOLFORM=C9H16O2
##CAS REGISTRY NO=7785-64-0
##MP= -300
##BP= -300
##MW= 156
##$RETENTION INDEX=1091
##$CONDENSED SPECTRUM=NO
##NPOINTS= 63
##XYDATA=(XY..XY) 1 
    26          6
    27         88
    28         29
    29        180
    30          5
    31          5
    37          2
    38          7
    39        144
    40         17
    41        207
    42         13
    43         28
    44          3
    45         15
    49          1
    50         11
    51         22
    52         12
    53         90
    54        101
    55        666
    56        115
    57        144
    58         10
    59          4
    60          2
    66          1
    72          8
    73          8
    74          2
    77          5
    78          1
    79          7
    80          1
    81          5
    82        258
    83        532
    84         31
    85        149
    86          7
    87          1
    93         14
    94          2
    98          2
    99         28
   100        999
   101        101
   102          8
   103          1
   105          4
   106          1
   107          3
   113          2
   114          1
   121         18
   122          2
   123          1
   127          1
   141          2
   156         99
   157         10
   158          1