##TITLE=Library Entry 30365
##JCAMP-DX=Revision 4.10 
##DATA TYPE=MASS SPECTRUM
##SAMPLE DESCRIPTION=J.T. CLERC, ORGANIC CHEM. LAB., ETH, ZURICH, SWITZ.
##NAMES=HP
##CAS NAME=1,3-Dioxolane-4,4-diacetic acid, 5-oxo-, dimethyl ester
##MOLFORM=C9H12O7
##CAS REGISTRY NO=77862-72-7
##MP= -300
##BP= -300
##MW= 232
##$RETENTION INDEX=0
##$CONDENSED SPECTRUM=NO
##NPOINTS= 65
##XYDATA=(XY..XY) 1 
    27        112
    28        147
    29        255
    30         39
    31        112
    32         39
    39        181
    40        112
    41        181
    42        324
    43        307
    44         21
    45        753
    46         17
    55         56
    56         73
    57        275
    58         17
    59        999
    60         39
    67         39
    68         73
    69        199
    71         90
    74        160
    84         73
    85         56
    87         56
    88         43
    98        147
    99        112
   100         73
   101        891
   102         77
   111         77
   112         60
   113         56
   114         21
   115        129
   116        186
   124         56
   125         56
   126        662
   127        181
   128        129
   129         39
   139        731
   140         73
   143        181
   153         73
   154        147
   156         95
   157         39
   158        129
   159        112
   171        623
   172         90
   175         39
   176         56
   185         34
   186         39
   201        199
   202         39
   215         17
   233         17