##TITLE=Library Entry 3213
##JCAMP-DX=Revision 4.10 
##DATA TYPE=MASS SPECTRUM
##SAMPLE DESCRIPTION=RESEARCH LABORATORY, STATE ALCOHOL MONOPOLY ALKO, HELSI
NKI, FINLAND; IRMA NYKANEN ET AL
##NAMES=HP
##CAS NAME=Cyclohexanol, 5-methyl-2-(1-methylethenyl)-
##MOLFORM=C10H18O
##CAS REGISTRY NO=7786-67-6
##MP= -300
##BP= -300
##MW= 154
##$RETENTION INDEX=0
##$CONDENSED SPECTRUM=NO
##NPOINTS= 82
##XYDATA=(XY..XY) 1 
    26          6
    27        200
    28          7
    29        227
    30          6
    31         57
    32          6
    38         13
    39        332
    40         94
    41        999
    42        128
    43        318
    44        101
    45         27
    50         13
    51         50
    52         27
    53        288
    54         67
    55        722
    56        525
    57        166
    58         27
    59         54
    63         10
    65         81
    66         40
    67        884
    68        718
    69        806
    70        200
    71        738
    72         91
    73          3
    77        128
    78         30
    79        396
    80        244
    81        837
    82        196
    83        335
    84        555
    85        155
    86         16
    91        118
    92        132
    93        566
    94        264
    95        562
    96        294
    97        183
    98        189
    99         33
   103          6
   105         40
   106         16
   107        230
   108         84
   109        200
   110        223
   111        325
   112        155
   119         10
   121        542
   122         61
   123         94
   124         13
   125         20
   126          6
   135          3
   136        240
   137         37
   138          3
   139        169
   140         20
   150          3
   151          3
   152         20
   153          3
   154         64
   155          6