##TITLE=Library Entry 3275
##JCAMP-DX=Revision 4.10 
##DATA TYPE=MASS SPECTRUM
##SAMPLE DESCRIPTION=FOOD RESEARCH REPORT 119, K.E. MURRAY & COLLEAGUES, DIV
. OF FOOD RESEARCH, CSIRO, AUSTRALIA
##NAMES=HP
##CAS NAME=2,6-Nonadien-1-ol
##MOLFORM=C9H16O
##CAS REGISTRY NO=7786-44-9
##MP= -300
##BP= -300
##MW= 140
##$RETENTION INDEX=1167
##$CONDENSED SPECTRUM=NO
##NPOINTS= 50
##XYDATA=(XY..XY) 1 
    26         30
    27        340
    29        240
    30         20
    31        120
    38         20
    39        340
    40         60
    41        999
    42         90
    43        210
    45         50
    46         30
    50         20
    51         60
    52         30
    53        150
    54        280
    55        200
    56         30
    57         70
    58         10
    63         20
    65         50
    66         60
    67        230
    68        300
    69        400
    70        100
    71         30
    73         10
    77        100
    78         60
    79        250
    80        100
    81         80
    82         40
    83         20
    85         10
    91         70
    92         20
    93        120
    94         40
    95         40
    96         20
    97         10
   105         10
   107         40
   109         30
   122         40