##TITLE=Library Entry 76562
##JCAMP-DX=Revision 4.10 
##DATA TYPE=MASS SPECTRUM
##SAMPLE DESCRIPTION=V.G. Zaikin, R.S.Borisov, TIPS RAS, Moscow, Russia
##NAMES=HP
##CAS NAME=Butanoic acid, 3-methyl-, octyl ester
##MOLFORM=C13H26O2
##CAS REGISTRY NO=7786-58-5
##MP= -300
##BP= -300
##MW= 214
##$RETENTION INDEX=1441
##$CONDENSED SPECTRUM=NO
##NPOINTS= 64
##XYDATA=(XY..XY) 1 
    26         12
    27         72
    29         96
    31          4
    35          2
    36         43
    38          4
    39         59
    40         16
    41        308
    42        157
    43        377
    44        105
    45          6
    48          2
    53         12
    54         28
    55        264
    56        279
    57        684
    58         30
    59         26
    60        112
    61        152
    63          1
    64          5
    66          1
    67         35
    68         78
    69        226
    70        411
    71        261
    72         10
    77          1
    81         10
    82        120
    83        377
    84        396
    85        718
    86         46
    87        116
    88          7
    93          8
    95          2
    97         40
   100         11
   101         11
   102         64
   103        999
   104         56
   105          3
   110          4
   111          8
   112        408
   113         36
   115          5
   116          6
   119          1
   127          5
   128          1
   129         10
   143          7
   157         16
   158         11