##TITLE=Library Entry 40392
##JCAMP-DX=Revision 4.10 
##DATA TYPE=MASS SPECTRUM
##SAMPLE DESCRIPTION=Darrick Lee, Cayman Chemical, Ann Arbor, MI
##NAMES=HP
##CAS NAME=4-hydroxy MET
##MOLFORM=C13H18N2O
##CAS REGISTRY NO=77872-41-4
##MP= -300
##BP= -300
##MW= 218
##$RETENTION INDEX=0
##$CONDENSED SPECTRUM=NO
##NPOINTS= 72
##XYDATA=(XY..XY) 1 
    41          3
    42         31
    43         10
    44        130
    45          3
    50          4
    51          9
    52          4
    53          3
    54          2
    56          9
    57          5
    58          7
    62          3
    63         13
    64          5
    65         16
    66          3
    70          5
    72        999
    73         51
    74          4
    75          5
    76          6
    77         19
    78         10
    79          3
    80          2
    87          2
    88          2
    89         21
    90         14
    91         21
    92          4
   101          5
   102          9
   103         12
   104          9
   105          3
   109          3
   113          3
   114          4
   115         21
   116         13
   117         38
   118         26
   119          3
   128          6
   129          6
   130         34
   131         11
   132          3
   133          4
   140          4
   141          2
   142          3
   143          2
   144          3
   145          8
   146         73
   147         11
   148          2
   157          3
   158          9
   159         32
   160         27
   161          3
   185          2
   216          2
   218        242
   219         35
   220          4