##TITLE=Library Entry 84708
##JCAMP-DX=Revision 4.10 
##DATA TYPE=MASS SPECTRUM
##SAMPLE DESCRIPTION=ASES Database, Dalian Institute, P.R. China
##NAMES=HP
##CAS NAME=Chloromethyl undecanoate
##MOLFORM=C12H23ClO2
##CAS REGISTRY NO=77877-96-4
##MP= -300
##BP= -300
##MW= 234
##$RETENTION INDEX=1583
##$CONDENSED SPECTRUM=NO
##NPOINTS= 50
##XYDATA=(XY..XY) 1 
    41        737
    43        950
    55        966
    57        538
    69        400
    71        359
    72        627
    73        108
    81        103
    82        126
    83        307
    84        289
    85        487
    86         29
    95        114
    96         60
    97        242
    98        433
    99         54
   108        999
   109        158
   110        312
   111        180
   112        523
   113         41
   121        449
   122         47
   123        132
   124        222
   125        114
   126        222
   127         42
   135         90
   137         54
   149         66
   150         60
   151         11
   163         60
   164          5
   165         12
   168         66
   169        470
   170         59
   177        151
   179         59
   191        118
   193         29
   205         11
   234        119
   236         29