##TITLE=Library Entry 41770
##JCAMP-DX=Revision 4.10 
##DATA TYPE=MASS SPECTRUM
##SAMPLE DESCRIPTION=NIST Mass Spectrometry Data Center, 1994
##NAMES=HP
##CAS NAME=.alpha.-Chloroethyltrimethylsilane
##MOLFORM=C5H13ClSi
##CAS REGISTRY NO=7787-87-3
##MP= -300
##BP= -300
##MW= 136
##$RETENTION INDEX=0
##$CONDENSED SPECTRUM=NO
##NPOINTS= 73
##XYDATA=(XY..XY) 1 
    14          4
    15         33
    16          0
    25          1
    26         16
    27         86
    28         37
    29         56
    30          7
    33          1
    35          1
    36          2
    37          1
    38          2
    39         10
    40          1
    41          9
    42         41
    43        182
    44         40
    45        184
    46         13
    47          5
    49          0
    51          0
    53         31
    54          8
    55         30
    56          5
    57         14
    58         36
    59         29
    60          3
    61          3
    62          0
    63         68
    64          9
    65         82
    66         11
    67         26
    68          2
    69          3
    70          3
    71          4
    73        999
    74         68
    75         30
    76          2
    77          5
    78         13
    79         35
    80          6
    81         12
    82          0
    83          1
    85          9
    86          2
    90          0
    91          1
    93        363
    94         30
    95        126
    96          8
    97          3
   105          3
   107          1
   108         12
   109          1
   110          4
   119          1
   121          2
   136          2
   138          1