##TITLE=Library Entry 90328
##JCAMP-DX=Revision 4.10 
##DATA TYPE=MASS SPECTRUM
##SAMPLE DESCRIPTION=RADIAN CORP
##NAMES=HP
##CAS NAME=Silane, dichloro(2-chloroethyl)methyl-
##MOLFORM=C3H7Cl3Si
##CAS REGISTRY NO=7787-85-1
##MP= -300
##BP= -300
##MW= 176
##$RETENTION INDEX=0
##$CONDENSED SPECTRUM=NO
##NPOINTS= 87
##XYDATA=(XY..XY) 1 
    15          7
    26         13
    27         37
    28         88
    29          5
    35          6
    36          2
    37          3
    38          1
    39          8
    41         12
    42         17
    43         24
    47          1
    48          1
    49         17
    51          5
    52          2
    53         27
    54          5
    55          4
    61          5
    62          7
    63        498
    64         38
    65        195
    66         16
    67          9
    69          6
    75          1
    76         12
    77         46
    78         56
    79         40
    80         21
    81         10
    88          5
    89          3
    90          5
    91          1
    92          3
    97         13
    98        112
    99         73
   100         87
   101         49
   102         18
   103         11
   105          2
   111          9
   112         78
   113        999
   114        119
   115        675
   116         50
   117        120
   118          7
   119          2
   122          2
   123          8
   124          4
   125         64
   126          7
   127         39
   128          3
   129          7
   133        525
   134         28
   135        515
   136         26
   137        173
   138          7
   139         24
   140          6
   141         27
   142          8
   143         18
   144          2
   145          3
   148         16
   150         15
   152          5
   161        128
   162          9
   163        122
   164          8
   165         44