##TITLE=Library Entry 33931
##JCAMP-DX=Revision 4.10 
##DATA TYPE=MASS SPECTRUM
##SAMPLE DESCRIPTION=S. HUENIG, INST. ORG. CHEM., WUERZBURG, W. GER.
##NAMES=HP
##CAS NAME=Tetrakis(3,4,4,5-tetramethyl-2,5-cyclohexadien-1-ylidene)cyclobut
ane
##MOLFORM=C44H56
##CAS REGISTRY NO=77873-06-4
##MP= -300
##BP= -300
##MW= 584
##$RETENTION INDEX=0
##$CONDENSED SPECTRUM=NO
##NPOINTS= 16
##XYDATA=(XY..XY) 1 
    68        999
   119        350
   133        310
   147        420
   157        230
   247        350
   262        940
   277        270
   301        190
   435        310
   524        270
   539        670
   554        140
   569        710
   570        340
   584        200