##TITLE=Library Entry 85346
##JCAMP-DX=Revision 4.10 
##DATA TYPE=MASS SPECTRUM
##SAMPLE DESCRIPTION=E.Stenhagen,Z.Anal.Chem, 8,109(1964)
##NAMES=HP
##CAS NAME=Methyl 2-chloroheptadecanoate
##MOLFORM=C18H35ClO2
##CAS REGISTRY NO=77877-99-7
##MP= -300
##BP= -300
##MW= 318
##$RETENTION INDEX=2160
##$CONDENSED SPECTRUM=NO
##NPOINTS= 148
##XYDATA=(XY..XY) 1 
    17         17
    18         76
    19          4
    27         10
    28         17
    29         31
    39         10
    41        105
    42         21
    43        168
    44         23
    53          9
    54          9
    55        139
    56         35
    57        139
    58          2
    59         64
    67         34
    68         17
    69         79
    70         21
    71         76
    73          2
    74         47
    75         13
    79          5
    81         53
    82         17
    83         58
    84         36
    85         51
    87        222
    88         15
    89          8
    91          5
    93          4
    94          2
    95         71
    96         50
    97         77
    98         72
    99         19
   100          8
   101         43
   102          2
   103          9
   105          6
   107          8
   108        999
   109         84
   110        423
   111         56
   112         23
   113         68
   114         13
   115         23
   116          5
   117          6
   121        360
   122         10
   123        154
   124         24
   125         25
   126          8
   127         53
   128         21
   129         39
   130         34
   131         12
   133          5
   135         16
   137         34
   138         20
   139         15
   140          5
   141         46
   142          5
   143         92
   144          8
   145          6
   147          8
   148          2
   149         28
   150         56
   151         28
   152         45
   153         12
   155         19
   157         34
   158          2
   159          4
   161          5
   163        505
   164         47
   165        184
   166         56
   167         10
   169         10
   171         19
   172          4
   175          4
   177        472
   178         34
   179        159
   180          8
   183          4
   185        114
   186         19
   191         10
   193          4
   199        106
   200         13
   205         30
   206         17
   207         16
   208         49
   209          6
   213         42
   214          5
   219         61
   220          2
   221         20
   222          4
   227          8
   228          4
   232          4
   233         54
   234          2
   235         16
   239          5
   241        299
   242         47
   247          4
   250        146
   251         27
   255        177
   256         27
   261         13
   275         16
   282          6
   283        155
   284         22
   289          8
   318        267
   319         56
   320         86
   321         13