##TITLE=Library Entry 55396
##JCAMP-DX=Revision 4.10 
##DATA TYPE=MASS SPECTRUM
##SAMPLE DESCRIPTION=ASES Database, Dalian Institute, P.R. China
##NAMES=HP
##CAS NAME=Chloromethyl pentanoate
##MOLFORM=C6H11ClO2
##CAS REGISTRY NO=77877-94-2
##MP= -300
##BP= -300
##MW= 150
##$RETENTION INDEX=981
##$CONDENSED SPECTRUM=NO
##NPOINTS= 30
##XYDATA=(XY..XY) 1 
    39        145
    40         13
    41        529
    42        329
    43        334
    44        106
    45         33
    49        230
    50          6
    51         80
    52         13
    53         33
    55        324
    56        168
    57        564
    58         60
    59         33
    72        689
    73         33
    83         33
    84         67
    85        999
    86         66
    93         32
   108        761
   109         40
   110        252
   111          6
   121         72
   123         13