##TITLE=Library Entry 50199
##JCAMP-DX=Revision 4.10 
##DATA TYPE=MASS SPECTRUM
##SAMPLE DESCRIPTION=NIST Mass Spectrometry Data Center, 1994
##NAMES=HP
##CAS NAME=L-Fenchone
##MOLFORM=C10H16O
##CAS REGISTRY NO=7787-20-4
##MP= -300
##BP= -300
##MW= 152
##$RETENTION INDEX=0
##$CONDENSED SPECTRUM=NO
##NPOINTS= 56
##XYDATA=(XY..XY) 1 
     4          1
    14          0
    15         12
    26          7
    27         78
    28         20
    29         47
    37          1
    39        139
    40         33
    41        295
    42         38
    43         28
    45          1
    50          8
    51         23
    52         13
    53         69
    54         12
    55         43
    56          5
    57          5
    62          1
    63          4
    65         23
    66         10
    67         94
    68         57
    69        475
    70         37
    72         19
    73          1
    77         31
    78          9
    79         72
    80        155
    81        999
    82         89
    83          6
    91         17
    92          2
    93          8
    94          2
    95         13
    96          3
    97          3
   105          2
   107          3
   109         52
   110          4
   123          3
   137         18
   138          2
   152        120
   153         13
   154          0