##TITLE=Library Entry 137
##JCAMP-DX=Revision 4.10 
##DATA TYPE=MASS SPECTRUM
##SAMPLE DESCRIPTION=NIST Mass Spectrometry Data Center
##NAMES=HP
##CAS NAME=(1-Chloroethyl)trichlorosilane
##MOLFORM=C2H4Cl4Si
##CAS REGISTRY NO=7787-82-8
##MP= -300
##BP= -300
##MW= 196
##$RETENTION INDEX=0
##$CONDENSED SPECTRUM=NO
##NPOINTS= 72
##XYDATA=(XY..XY) 1 
    12          1
    13          2
    14          1
    15          8
    24          1
    25         10
    26         98
    27        220
    28        999
    29         30
    30          1
    35         26
    36          8
    37          8
    38          3
    40          2
    41          2
    47          2
    48          2
    49          1
    52          3
    53         17
    54          3
    55          1
    60          2
    61          6
    62         31
    63        200
    64         20
    65         63
    66          2
    67          1
    76          1
    83          2
    85          2
    87          1
    88          2
    89          1
    90          1
    98         58
    99         16
   100         40
   101         10
   102          8
   103          1
   123          4
   124          4
   125          9
   126          4
   127          5
   128          1
   129          1
   133        146
   135        139
   136          8
   137         49
   138          2
   139          6
   160          1
   161          4
   162          1
   163          3
   181          4
   182          1
   183          5
   185          2
   196         19
   197          2
   198         26
   199          2
   200         12
   202          2