##TITLE=Library Entry 84713
##JCAMP-DX=Revision 4.10 
##DATA TYPE=MASS SPECTRUM
##SAMPLE DESCRIPTION=ASES Database, Dalian Institute, P.R. China
##NAMES=HP
##CAS NAME=Chloromethyl nonanoate
##MOLFORM=C10H19ClO2
##CAS REGISTRY NO=77877-95-3
##MP= -300
##BP= -300
##MW= 206
##$RETENTION INDEX=1380
##$CONDENSED SPECTRUM=NO
##NPOINTS= 43
##XYDATA=(XY..XY) 1 
    39        128
    41        602
    42        240
    43        622
    44         60
    49        113
    51         35
    55        715
    56        194
    57        595
    69        296
    70        129
    71        176
    72        627
    73        156
    81        118
    83        180
    84        178
    85        295
    96        155
    97        177
    98        477
    99         70
   108        999
   109        131
   110        343
   111        132
   112         87
   121        368
   122         59
   123        124
   129         54
   135         60
   136          5
   137          5
   140        185
   141        533
   142         60
   163        118
   165         30
   177        101
   179         24
   206         12