##TITLE=Library Entry 87690
##JCAMP-DX=Revision 4.10 
##DATA TYPE=MASS SPECTRUM
##SAMPLE DESCRIPTION=H. ADLERCREUTZ AND R. KNUPPEN, UNIV. OF HELSINKI, FINLA
ND
##NAMES=HP
##CAS NAME=Estra-1,3,5(10)-trien-17-one, 3-(acetyloxy)-14,15-epoxy-, 17-(O-m
ethyloxime), (15.alpha.)-
##MOLFORM=C21H25NO4
##CAS REGISTRY NO=77883-34-2
##MP= -300
##BP= -300
##MW= 355
##$RETENTION INDEX=0
##$CONDENSED SPECTRUM=NO
##NPOINTS= 166
##XYDATA=(XY..XY) 1 
    61         31
    67         40
    68         17
    69         53
    70         55
    72         18
    73         19
    77          6
    79         29
    80         15
    81         31
    82         34
    83         15
    84         17
    85         13
    86         19
    91         23
    93         32
    94         80
    95         31
    96        259
    97         32
    99         13
   105         31
   106         16
   107         66
   108        251
   109         40
   110        999
   111        116
   112         28
   117         20
   119         13
   120         35
   121         31
   122         47
   123         22
   124         29
   125         15
   126         88
   127         29
   128         12
   129         20
   131         52
   132         34
   133        137
   134         23
   135         18
   136         51
   137         20
   138         21
   139         12
   140         81
   141         84
   142         23
   143         18
   144         56
   145        157
   146         82
   147        220
   148         34
   149         14
   152         19
   153         28
   155         25
   156         12
   157        178
   158         87
   159        170
   160        107
   161         49
   162         20
   165         21
   166         14
   167         16
   168         13
   169         22
   170         24
   171         90
   172        127
   173        377
   174         58
   175         35
   179         27
   180         12
   181         27
   182         36
   183        138
   184         49
   185        194
   186         52
   187         27
   188         26
   189         12
   193         21
   194         18
   195         39
   196         44
   197        190
   198         61
   199        102
   200        104
   201         31
   208         22
   209         70
   210         62
   211        200
   212        629
   213        198
   214         47
   215         17
   219         14
   221         42
   222         33
   223         47
   224         40
   225         61
   226         90
   227         65
   228         25
   229         57
   230         15
   232         13
   233         13
   235         19
   236         40
   237         65
   238         64
   239         50
   240         79
   241         23
   242         15
   247         25
   248         26
   249         27
   250         17
   251         17
   252         43
   253         23
   254        409
   255         96
   256         19
   262         13
   263         14
   264         60
   265         44
   266         50
   267         33
   268         22
   278         15
   280         30
   281         26
   282        944
   283        188
   284         33
   285         26
   296         15
   297         14
   298         51
   299         14
   311         15
   312         23
   313        936
   314        188
   315         30
   327         13