##TITLE=Library Entry 56321
##JCAMP-DX=Revision 4.10 
##DATA TYPE=MASS SPECTRUM
##SAMPLE DESCRIPTION=Chemical Concepts
##NAMES=HP
##CAS NAME=Acetamide, 2-(diethylamino)-N-(2-ethyl-6-methylphenyl)-
##MOLFORM=C15H24N2O
##CAS REGISTRY NO=77882-83-8
##MP= -300
##BP= -300
##MW= 248
##$RETENTION INDEX=0
##$CONDENSED SPECTRUM=NO
##NPOINTS= 116
##XYDATA=(XY..XY) 1 
    27         11
    28         26
    29         45
    30        120
    39         10
    40          2
    41         10
    42         36
    43         17
    44         17
    45          1
    50          0
    51          4
    52          2
    53          3
    54          3
    55          3
    56         41
    57         19
    58        111
    59          5
    60          0
    62          0
    63          2
    64          1
    65          9
    66          2
    67          1
    68          0
    69          0
    70          8
    71          5
    72         78
    73          5
    74          0
    75          1
    76          1
    77         15
    78          6
    79          8
    80          1
    81          0
    82          0
    83          0
    84         18
    85         13
    86        999
    87        121
    88          4
    89          3
    90          2
    91         29
    92          6
    93          4
    94          2
    95          0
    98          0
   100          1
   101          0
   102          2
   103          5
   104          5
   105          4
   106          7
   107          2
   108          1
   109          1
   112          1
   113          0
   114          0
   115          9
   116          4
   117         12
   118          9
   119         19
   120         11
   121          1
   128          0
   129          0
   130          5
   131          3
   132         11
   133         13
   134         24
   135          7
   136          2
   138          0
   141          1
   142          0
   143          3
   144          1
   146         10
   147          4
   148          7
   149          1
   158          1
   159          1
   160          3
   161          3
   162          7
   163          0
   173          0
   174          1
   175          0
   176          0
   177          2
   189          0
   203          0
   219          1
   231          0
   233          6
   234          1
   246          1
   247          3
   248         69
   249         15