##TITLE=Library Entry 34363
##JCAMP-DX=Revision 4.10 
##DATA TYPE=MASS SPECTRUM
##SAMPLE DESCRIPTION=B.V. BURGER, DEP. CHEM., UNIV. STELLENBOSCH
##NAMES=HP
##CAS NAME=(E,E,E)-3,7,11,15-Tetramethylhexadeca-1,3,6,10,14-pentaene
##MOLFORM=C20H32
##CAS REGISTRY NO=77898-97-6
##MP= -300
##BP= -300
##MW= 272
##$RETENTION INDEX=1994
##$CONDENSED SPECTRUM=NO
##NPOINTS= 69
##XYDATA=(XY..XY) 1 
    41        584
    42         27
    43        147
    51         12
    53         92
    55        287
    56         25
    57         38
    65         33
    66         14
    67        126
    68         46
    69        999
    70         71
    71         11
    77        128
    78         20
    79        223
    80        113
    81        506
    82         56
    83         29
    91        189
    92         61
    93        502
    94         66
    95        139
    96         19
    97         16
   103         13
   105        186
   106         40
   107        282
   108         48
   109         97
   110         14
   117         25
   119        186
   120         52
   121         99
   122         29
   123         52
   131         27
   132         56
   133         71
   134        135
   135        151
   136         64
   137         37
   145         30
   146         13
   147         51
   148         23
   149         20
   157         10
   159         26
   161         33
   162         11
   185         21
   187         17
   188         11
   189         18
   190         10
   191         57
   192         13
   203         14
   229         14
   257          4
   272         18