##TITLE=Library Entry 7559
##JCAMP-DX=Revision 4.10 
##DATA TYPE=MASS SPECTRUM
##SAMPLE DESCRIPTION=Japan AIST/NIMC Database- Spectrum MS-IW-3568
##NAMES=HP
##CAS NAME=1-Pentanol, 2-methyl-, acetate
##MOLFORM=C8H16O2
##CAS REGISTRY NO=7789-99-3
##MP= -300
##BP= -300
##MW= 144
##$RETENTION INDEX=984
##$CONDENSED SPECTRUM=NO
##NPOINTS= 61
##XYDATA=(XY..XY) 1 
    14          2
    15         26
    18          1
    26          4
    27         72
    28         15
    29         75
    30          2
    31         15
    37          1
    38          3
    39         62
    40         10
    41        176
    42        125
    43        999
    44         36
    45         19
    50          1
    51          3
    52          1
    53         12
    54          8
    55        176
    56        645
    57         48
    58          7
    59         10
    60          4
    61        111
    62          2
    63          1
    65          1
    67          8
    68          3
    69        214
    70         60
    71         92
    72        152
    73        260
    74        151
    75         19
    76          1
    82          3
    83         47
    84        396
    85         44
    86          9
    87          4
    97          1
    99         14
   100          2
   101         18
   102          2
   111          2
   113          1
   115          3
   116          1
   117          3
   126          1
   129          1