##TITLE=Library Entry 32414
##JCAMP-DX=Revision 4.10 
##DATA TYPE=MASS SPECTRUM
##SAMPLE DESCRIPTION=B.V. BURGER, DEP. CHEM., UNIV. STELLENBOSCH, SOUTH AFRI
C
##NAMES=HP
##CAS NAME=(Z)6,(Z)9-Pentadecadien-1-ol
##MOLFORM=C15H28O
##CAS REGISTRY NO=77899-11-7
##MP= -300
##BP= -300
##MW= 224
##$RETENTION INDEX=0
##$CONDENSED SPECTRUM=NO
##NPOINTS= 58
##XYDATA=(XY..XY) 1 
    41        700
    42         65
    43        282
    45         21
    53        126
    54        538
    55        682
    56         76
    57        118
    58         22
    65         51
    66         90
    67        999
    68        423
    69        314
    70         73
    71         77
    72         11
    77        126
    78         62
    79        546
    80        415
    81        663
    82        379
    83        133
    84         65
    85         50
    91        118
    92         28
    93        319
    94        144
    95        364
    96        244
    97         95
    98        112
    99         20
   105         29
   106         12
   107        120
   108         72
   109        118
   110        126
   111         69
   112         28
   119         10
   121        101
   122         41
   123         35
   124         51
   125         20
   135         66
   136         21
   137         20
   138         12
   149         20
   150         11
   206          5
   224         32