##TITLE=Library Entry 24437
##JCAMP-DX=Revision 4.10 
##DATA TYPE=MASS SPECTRUM
##SAMPLE DESCRIPTION=B.V. BURGER, DEP. CHEM., UNIV. STELLENBOSCH, SOUTH AFRI
C
##NAMES=HP
##CAS NAME=1-Heneicosyl formate
##MOLFORM=C22H44O2
##CAS REGISTRY NO=77899-03-7
##MP= -300
##BP= -300
##MW= 340
##$RETENTION INDEX=0
##$CONDENSED SPECTRUM=NO
##NPOINTS= 66
##XYDATA=(XY..XY) 1 
    41        406
    42        149
    43        973
    47         11
    53         14
    54        111
    55        768
    56        492
    57        999
    58         55
    60         12
    66         17
    67        142
    68        248
    69        823
    70        444
    71        533
    72         27
    73         20
    79         13
    80         13
    81        105
    82        394
    83        859
    84        330
    85        305
    86         16
    95         55
    96        207
    97        710
    98        197
    99         74
   109         36
   110         89
   111        411
   112        125
   113         45
   123         16
   124         49
   125        200
   126         83
   127         27
   137         14
   138         29
   139         80
   140         57
   141         17
   152         25
   153         50
   154         49
   166         21
   167         31
   168         29
   180         12
   181         21
   182         24
   194         12
   195         16
   196         23
   210         14
   222         12
   266         25
   294         53
   295          9
   322          8
   340          1