##TITLE=Library Entry 20601
##JCAMP-DX=Revision 4.10 
##DATA TYPE=MASS SPECTRUM
##SAMPLE DESCRIPTION=B.V. BURGER, DEP. CHEM., UNIV. STELLENBOSCH, SOUTH AFRI
C
##NAMES=HP
##CAS NAME=(Z)-14-Tricosenyl formate
##MOLFORM=C24H46O2
##CAS REGISTRY NO=77899-10-6
##MP= -300
##BP= -300
##MW= 366
##$RETENTION INDEX=0
##$CONDENSED SPECTRUM=NO
##NPOINTS= 92
##XYDATA=(XY..XY) 1 
    41        445
    42        124
    43        627
    45         18
    46         13
    47         16
    53         25
    54        335
    55        999
    56        263
    57        524
    58         33
    59         21
    60         21
    61         21
    65         13
    66         55
    67        449
    68        478
    69        764
    70        206
    71        189
    72         12
    73         29
    74         43
    75         11
    77         21
    79         52
    80         70
    81        516
    82        937
    83        725
    84        122
    85         95
    86         13
    91         11
    93         24
    94         60
    95        365
    96        809
    97        522
    98         91
    99         22
   100         14
   101         22
   102          4
   107         27
   108         23
   109        259
   110        272
   111        211
   112         49
   113         12
   114         10
   115         15
   117         14
   121         11
   122         12
   123        162
   124        149
   125         77
   126         38
   127         14
   135         19
   136         13
   137         89
   138        102
   139         30
   140         24
   151         46
   152         61
   153         21
   154         15
   165         17
   166         43
   167         11
   168         13
   179         16
   180         36
   194         30
   207         10
   208         22
   222         23
   235         10
   236         16
   250         15
   278         17
   292         15
   320         83
   321         25
   348          6
   366          1