##TITLE=Library Entry 29907
##JCAMP-DX=Revision 4.10 
##DATA TYPE=MASS SPECTRUM
##SAMPLE DESCRIPTION=Chuck Anderson, Aldrich Chemical Co.
##NAMES=HP
##CAS NAME=Propane, 1,1,3-triethoxy-
##MOLFORM=C9H20O3
##CAS REGISTRY NO=7789-92-6
##MP= -300
##BP= -300
##MW= 176
##$RETENTION INDEX=1076
##$CONDENSED SPECTRUM=NO
##NPOINTS= 60
##XYDATA=(XY..XY) 1 
    14          1
    15         10
    16          0
    19         28
    25          0
    26         10
    27        101
    28         40
    29        309
    30         19
    31        333
    32          4
    33          1
    38          1
    39         12
    40          5
    41         67
    42         16
    43        101
    44         83
    45        314
    47        847
    48         10
    49          3
    53          1
    54          1
    55         28
    56         11
    57        213
    58        134
    59        999
    60         36
    61          7
    69          1
    70          0
    71         22
    72         20
    73        101
    75        557
    76         17
    77          2
    83          3
    84          0
    85         96
    86         95
    87        638
    88         31
    89          3
   101         72
   103        809
   104         40
   105          4
   129         13
   130         27
   131        113
   132          8
   133          0
   147         37
   148          2
   175          2