##TITLE=Library Entry 70725
##JCAMP-DX=Revision 4.10 
##DATA TYPE=MASS SPECTRUM
##SAMPLE DESCRIPTION=A.A.Kutin, Moscow, Russia
##NAMES=HP
##CAS NAME=Ethanone, 1-phenyl-2-(1-piperidinyl)-
##MOLFORM=C13H17NO
##CAS REGISTRY NO=779-52-2
##MP= -300
##BP= -300
##MW= 203
##$RETENTION INDEX=0
##$CONDENSED SPECTRUM=NO
##NPOINTS= 63
##XYDATA=(XY..XY) 1 
    39        140
    40         42
    41        436
    42        430
    43         54
    44        107
    45          4
    50         91
    51        257
    52         26
    53         34
    54         38
    55        187
    56         61
    57         21
    58          2
    62          6
    63         16
    64          1
    65         32
    67          9
    68         37
    69         66
    70        102
    71          6
    74         19
    75         18
    76         38
    77        430
    78         38
    79          6
    80          5
    81          1
    82          9
    83         11
    84         18
    85          9
    89          7
    90          0
    91         51
    92          4
    94          2
    95          1
    96         32
    97         43
    98        999
    99         70
   102          1
   103          3
   104          1
   105         80
   106          5
   117          4
   118          1
   119          0
   130          0
   146          2
   148          0
   160          0
   174          1
   202          1
   203          8
   204          0