##TITLE=Library Entry 73237
##JCAMP-DX=Revision 4.10 
##DATA TYPE=MASS SPECTRUM
##SAMPLE DESCRIPTION=A.A.Kutin, Moscow, Russia
##NAMES=HP
##CAS NAME=Ethanone, 2-(4-morpholinyl)-1-phenyl-
##MOLFORM=C12H15NO2
##CAS REGISTRY NO=779-53-3
##MP= -300
##BP= -300
##MW= 205
##$RETENTION INDEX=0
##$CONDENSED SPECTRUM=NO
##NPOINTS= 62
##XYDATA=(XY..XY) 1 
    35         48
    36         81
    37         19
    38         36
    39         63
    40         33
    41        196
    42        328
    43         57
    44         59
    45         21
    50        100
    51        267
    52         26
    53          9
    54         37
    55         30
    56        334
    57         48
    58          6
    59          2
    61          1
    62          7
    63         17
    65         36
    66          1
    68          8
    70        171
    71         14
    72         64
    74         31
    75         20
    76         41
    77        404
    78         38
    79          1
    82          3
    84          2
    85         10
    86          8
    87          7
    88          0
    89         11
    90          6
    91         51
    92          4
    96          0
    98         14
   100        999
   101         63
   102          7
   103          6
   105        116
   106         10
   117          2
   120          1
   121          0
   130          1
   145          1
   170          0
   174          1
   205          6