##TITLE=Library Entry 13161
##JCAMP-DX=Revision 4.10 
##DATA TYPE=MASS SPECTRUM
##SAMPLE DESCRIPTION=Div. of Experiment Therapeutics WRAIR, WRAMC, Washingto
n DC 20307
##NAMES=HP
##CAS NAME=2,4-Diamino-6-[[2,4,5-trichlorophenyl]thio]pteridine
##MOLFORM=C12H7Cl3N6S
##CAS REGISTRY NO=77900-94-8
##MP= -300
##BP= -300
##MW= 372
##$RETENTION INDEX=0
##$CONDENSED SPECTRUM=NO
##NPOINTS= 170
##XYDATA=(XY..XY) 1 
    41         20
    42        138
    43        999
    44        152
    45         44
    46         16
    50          8
    51         11
    52         23
    53         92
    54         29
    55          8
    57         12
    60          6
    61          6
    62         10
    65         19
    66         34
    67         21
    68         71
    69         70
    70         12
    71          9
    72         11
    73         14
    74         19
    77         11
    79         11
    80         22
    81          8
    83          5
    84          7
    86          8
    91         10
    92         23
    95          7
    96          9
    97         33
    98          9
    99          7
   103         10
   105         12
   106         20
   107         26
   108         19
   109         18
   110          6
   111          7
   116          9
   117          6
   124         22
   133          6
   134         47
   140         28
   143         24
   144         11
   145          9
   147          5
   151          9
   152          6
   156         32
   161         10
   165          5
   166         46
   167         43
   169        120
   171         21
   176        388
   177         56
   178        297
   179         74
   180         69
   181         26
   182         17
   183         11
   184          8
   186         64
   187         44
   188         40
   189         22
   190         19
   191         24
   192         20
   193         35
   194         10
   195          9
   196         66
   197         12
   198         24
   200         14
   201         33
   202         40
   203         70
   204         50
   205         38
   206         40
   207         19
   208         22
   209          8
   210         16
   211        193
   212         54
   213        217
   214         84
   215         82
   216         45
   217         18
   218         28
   219          9
   220         19
   222          9
   223         58
   224         11
   225         49
   226         10
   227         23
   228         16
   229         11
   230          6
   231         12
   232          7
   233         20
   234          8
   235          9
   236         12
   237         13
   238         16
   239         14
   240         12
   241         34
   242         19
   243         18
   244          6
   245          6
   250          5
   258          5
   260          8
   261          7
   266          8
   267         11
   268        184
   269         27
   270        102
   271         13
   272         20
   277          7
   293          9
   294          6
   295         98
   296         13
   297         47
   299          5
   302         17
   303          9
   304         11
   320         18
   322         13
   332         47
   336         40
   337        340
   338         68
   339        269
   340         44
   341         54
   372        121
   373         26
   374        160
   375         27
   376         53
   377          7