##TITLE=Library Entry 14758
##JCAMP-DX=Revision 4.10 
##DATA TYPE=MASS SPECTRUM
##SAMPLE DESCRIPTION=Div. of Experiment Therapeutics WRAIR, WRAMC, Washingto
n DC 20307
##NAMES=HP
##CAS NAME=2,4-Diamino-6-[[.alpha.,.alpha.,.alpha.-trifluoro-m-tolyl]thio]pt
eridine
##MOLFORM=C13H9F3N6S
##CAS REGISTRY NO=77900-96-0
##MP= -300
##BP= -300
##MW= 338
##$RETENTION INDEX=0
##$CONDENSED SPECTRUM=NO
##NPOINTS= 163
##XYDATA=(XY..XY) 1 
    41          4
    43        999
    44         10
    45         83
    46          2
    47          3
    49         26
    50         28
    51         26
    53         51
    54         10
    55         18
    57         30
    58          4
    60         12
    62          5
    63         24
    65         27
    66         46
    68         78
    69         59
    70         21
    71          6
    72         19
    73          3
    75         32
    76          5
    77         17
    78          4
    80         30
    81          9
    83         28
    84         14
    86         18
    87          3
    88          7
    89          5
    91         13
    92         62
    93         12
    95         72
    96         29
    97         27
    98         43
    99         26
   100         15
   101          5
   102          6
   103          5
   104         11
   105         16
   106         33
   107        104
   108        193
   109         47
   111         15
   113         41
   114        114
   115         12
   117         17
   119         44
   122         71
   124        199
   125        114
   126         75
   127         11
   129          8
   130          5
   132         19
   133         54
   134        249
   137          5
   139         29
   140         18
   141          4
   143          6
   145        120
   148          4
   149         20
   151         45
   152         54
   153          8
   154          3
   155          2
   157        120
   158         50
   159         41
   160         87
   161         41
   163          6
   164          2
   166         79
   167         65
   169        134
   171         10
   172         30
   174          7
   175          2
   176          6
   177         49
   178         29
   179          4
   183         15
   184         16
   185          4
   186          4
   189         87
   190          4
   191          3
   193          9
   196          2
   197          3
   199          2
   201         10
   202         19
   203         11
   204          8
   208          2
   210          3
   216          9
   217          6
   222          2
   223         11
   224          6
   226          2
   227         11
   228          2
   230          2
   241          7
   242          7
   243          4
   248          3
   250          2
   252         38
   253          5
   267          2
   268         12
   269         34
   270         17
   275          7
   276          5
   277         70
   278         16
   279          8
   293         15
   294        233
   295         71
   296          8
   297         22
   298          2
   305         11
   306          6
   310         13
   317         29
   318          6
   319         25
   320         26
   321          5
   337         89
   338        771
   339        132
   340         47
   341          3