##TITLE=Library Entry 31671
##JCAMP-DX=Revision 4.10 
##DATA TYPE=MASS SPECTRUM
##SAMPLE DESCRIPTION=NIST Mass Spectrometry Data Center
##NAMES=HP
##CAS NAME=5-Methoxybenzofurazan, 1-oxide
##MOLFORM=C7H6N2O3
##CAS REGISTRY NO=7791-49-3
##MP= -300
##BP= -300
##MW= 166
##$RETENTION INDEX=0
##$CONDENSED SPECTRUM=NO
##NPOINTS= 91
##XYDATA=(XY..XY) 1 
    15          6
    25          1
    26         14
    27          7
    29         10
    30         56
    31          5
    36          2
    37         34
    38         46
    39        144
    40          9
    41         12
    42         22
    43          9
    44          2
    45          1
    46          1
    48          2
    49         19
    50        109
    51        115
    52        112
    53        112
    54         31
    55         16
    56         18
    57          6
    58          4
    59        163
    60         10
    61         76
    62        202
    63        999
    64         86
    65        158
    66         65
    67         37
    68         11
    69         36
    70          6
    73         19
    74        134
    75        138
    76         89
    77        105
    78         65
    79         41
    80        144
    81         10
    82         30
    83          3
    86          4
    87         11
    88         11
    89          4
    90         27
    91         81
    92         34
    93        167
    94         13
    95         41
    96          5
   100          1
   102          1
   103          2
   104         36
   105         42
   106        545
   107         51
   108         20
   109          2
   110          1
   119          1
   120         73
   121         11
   122          6
   123          3
   133          1
   134         12
   135          5
   136         40
   137          3
   138          5
   150        167
   151         15
   152          5
   166        799
   167         66
   168         12
   169          1