##TITLE=Library Entry 83599
##JCAMP-DX=Revision 4.10 
##DATA TYPE=MASS SPECTRUM
##SAMPLE DESCRIPTION=NIST Mass Spectrometry Data Center, 1994
##NAMES=HP
##CAS NAME=(4R,5S)-(+)-4-Methyl-5-phenyl-2-oxazolidinone
##MOLFORM=C10H11NO2
##CAS REGISTRY NO=77943-39-6
##MP= -300
##BP= -300
##MW= 177
##$RETENTION INDEX=0
##$CONDENSED SPECTRUM=NO
##NPOINTS= 68
##XYDATA=(XY..XY) 1 
    12          2
    15         46
    18          8
    26         15
    27         69
    28        228
    29         27
    30          5
    37          5
    38         21
    39         91
    40         22
    41         23
    42        146
    43        120
    44         55
    49          4
    50         77
    51        175
    52         46
    53         12
    54          5
    55          8
    56         12
    57          4
    59         22
    61          6
    62         26
    63         72
    64         25
    65         51
    66          4
    70         15
    71          2
    73          3
    74         14
    75         15
    76         20
    77        248
    78         64
    79        578
    80         40
    81          4
    86          3
    87          3
    89         95
    90         58
    91         93
    92          7
   102          5
   103         14
   104         15
   105        146
   106          5
   107        999
   108         79
   109          6
   115         13
   116          7
   117         43
   118         32
   119          4
   130          7
   131          3
   132         12
   133          5
   177        109
   178         13