##TITLE=Library Entry 29698
##JCAMP-DX=Revision 4.10 
##DATA TYPE=MASS SPECTRUM
##SAMPLE DESCRIPTION=R.ERRA BALSELLS,DEP. QUIM. ORG.,CITY UNIV. BUENOS AIRES
,ARGENT
##NAMES=HP
##CAS NAME=2-Methyl-2,3-pentanediol
##MOLFORM=C6H14O2
##CAS REGISTRY NO=7795-80-4
##MP= -300
##BP= -300
##MW= 118
##$RETENTION INDEX=0
##$CONDENSED SPECTRUM=NO
##NPOINTS= 12
##XYDATA=(XY..XY) 1 
    41        190
    43        370
    44         80
    45        150
    55         70
    57        110
    58        150
    59        999
    70         70
    71        110
    85         30
    89         40