##TITLE=Library Entry 49779
##JCAMP-DX=Revision 4.10 
##DATA TYPE=MASS SPECTRUM
##SAMPLE DESCRIPTION=Chemical Concepts
##NAMES=HP
##CAS NAME=Benzofuran, octahydro-6-methyl-3-methylene-
##MOLFORM=C10H16O
##CAS REGISTRY NO=77954-13-3
##MP= -300
##BP= -300
##MW= 152
##$RETENTION INDEX=0
##$CONDENSED SPECTRUM=NO
##NPOINTS= 116
##XYDATA=(XY..XY) 1 
    24          1
    25          2
    26         27
    27        388
    28         78
    29        251
    30          5
    31         31
    32         10
    36          1
    37          4
    38         25
    39        494
    40        107
    41        899
    42         81
    43        167
    44         16
    45         10
    46          1
    47          1
    48          1
    49          2
    50         28
    51         95
    52         65
    53        240
    54        140
    55        559
    56         85
    57         83
    58          7
    59          9
    60          3
    61          3
    62          8
    63         24
    64          7
    65        115
    66         81
    67        663
    68        264
    69        270
    70        113
    71         70
    72          6
    73          2
    74          3
    75          7
    76          1
    77        145
    78         45
    79        335
    80        102
    81        999
    82        180
    83         99
    84         58
    85         12
    86          2
    87          1
    89          4
    90          1
    91        124
    92         66
    93        433
    94        123
    95        498
    96        197
    97        224
    98        125
    99         10
   100          1
   101          1
   102          1
   103          4
   104          3
   105         81
   106         47
   107         83
   108        494
   109        225
   110        162
   111         64
   112         11
   113          3
   115          3
   116          1
   117          6
   118          5
   119        114
   120         14
   121         29
   122         13
   123        189
   124         41
   125          8
   126          1
   131          1
   133         14
   134         76
   135         15
   136          3
   137         86
   138         12
   139          1
   140          3
   143          0
   147          1
   149          2
   150          3
   151         74
   152        457
   153         60
   154          6
   155          1