##TITLE=Library Entry 34740
##JCAMP-DX=Revision 4.10 
##DATA TYPE=MASS SPECTRUM
##SAMPLE DESCRIPTION=Japan AIST/NIMC Database- Spectrum MS-NW-2940
##NAMES=HP
##CAS NAME=1-Octanesulfonyl chloride
##MOLFORM=C8H17ClO2S
##CAS REGISTRY NO=7795-95-1
##MP= -300
##BP= -300
##MW= 212
##$RETENTION INDEX=0
##$CONDENSED SPECTRUM=NO
##NPOINTS= 122
##XYDATA=(XY..XY) 1 
    14          3
    15         12
    16          2
    18          2
    26         14
    27        236
    28         56
    29        375
    30          7
    31          2
    32          4
    34          2
    35          5
    36         42
    37          4
    38         13
    39        165
    40         32
    41        764
    42        380
    43        825
    44         29
    45          5
    46          1
    47          3
    48         52
    49          4
    50         15
    51         25
    52         18
    53         41
    54         50
    55        808
    56        667
    57        567
    58         26
    59          2
    60          3
    61          4
    62          3
    63         21
    64        109
    65          8
    66          6
    67         68
    68        202
    69        999
    70        467
    71        291
    72         16
    73          6
    74          4
    75          6
    76          6
    77         38
    78         88
    79         11
    80          2
    81         30
    82         77
    83        358
    84        344
    85         43
    86          3
    87          4
    88          1
    89          8
    90          3
    91         32
    92          2
    93          9
    95          9
    96          2
    97         60
    98          9
    99          3
   101          2
   103          5
   104          5
   105         10
   106          2
   107          8
   108          2
   109         51
   110         18
   111        107
   112         81
   113         11
   114         11
   115          2
   117          2
   118          3
   119          3
   121          4
   122          1
   125          1
   127          3
   128          1
   129          1
   132          1
   133          3
   135          7
   136          2
   137          6
   141          4
   143          1
   144          1
   145          4
   146          2
   147          1
   149          2
   155          2
   157          1
   159         47
   160          5
   161          3
   175          1
   177         27
   178          3
   179          1
   195          2
   197          1