##TITLE=Library Entry 30017
##JCAMP-DX=Revision 4.10 
##DATA TYPE=MASS SPECTRUM
##SAMPLE DESCRIPTION=Y. Murata, LBC, NIDDK, NIH, Bethesda, MD 20892
##NAMES=HP
##CAS NAME=2-Heptacosanone
##MOLFORM=C27H54O
##CAS REGISTRY NO=7796-19-2
##MP= -300
##BP= -300
##MW= 394
##$RETENTION INDEX=0
##$CONDENSED SPECTRUM=NO
##NPOINTS= 178
##XYDATA=(XY..XY) 1 
    52          2
    53         10
    54         24
    55        230
    56         69
    57        318
    58        720
    59        999
    60         36
    61          2
    62          2
    63          1
    65          2
    66          8
    67         45
    68         48
    69        137
    70         50
    71        417
    72         34
    74          1
    75          9
    78          2
    79          6
    80          7
    81         51
    82        120
    83        112
    84         29
    85        173
    86         16
    87          5
    89          5
    92          2
    94          2
    95         58
    96        173
    97         95
    98         18
    99         23
   100         34
   101          8
   102          2
   106          2
   108          1
   109         30
   110         37
   111         40
   112         11
   113         24
   114         23
   118          6
   120          4
   122          4
   123         16
   124         18
   125         20
   126          8
   127         32
   131          3
   134          2
   137         12
   138         12
   139         10
   140          2
   141         11
   142          2
   143          2
   145          2
   150          1
   151          8
   152          9
   153         10
   154          4
   155          2
   156          9
   157          4
   159          2
   160          1
   164          2
   166          7
   167          6
   168          4
   169          7
   173          5
   176          2
   178          4
   179          4
   180          7
   181          6
   183          5
   185          3
   187          2
   189          6
   190          3
   191          2
   192          2
   193          2
   194          7
   195          2
   196          2
   197          3
   202          2
   203          2
   205          3
   206          2
   208          3
   210          4
   213          1
   215          5
   222          8
   224          2
   228          2
   229          2
   230          5
   231          1
   233          2
   234          2
   236          9
   237          2
   239          2
   241          2
   247          4
   250          6
   252          4
   254          2
   255          2
   257          4
   263          2
   264          8
   265          4
   268          2
   277          2
   278          9
   279          2
   282          7
   283          3
   285          2
   292         10
   293          2
   295          2
   296          4
   298          2
   301          7
   306          2
   307          2
   308          2
   320          6
   321          4
   324          2
   334         30
   335          9
   336         15
   337          9
   338          4
   348          2
   351          9
   352          7
   356          2
   359          2
   365          9
   366          5
   367          2
   368          1
   371          2
   372          2
   373          2
   376         53
   377         17
   379         43
   380         15
   381          4
   382          2
   386          2
   388          2
   394        159
   395         48
   396          9