##TITLE=Library Entry 98038
##JCAMP-DX=Revision 4.10 
##DATA TYPE=MASS SPECTRUM
##SAMPLE DESCRIPTION=ASES Database, Dalian Institute, P.R. China
##NAMES=HP
##CAS NAME=N-(3-Phenyl-propyl)-pentadecafluoro-octanamide
##MOLFORM=C17H12F15NO
##CAS REGISTRY NO=77970-75-3
##MP= -300
##BP= -300
##MW= 531
##$RETENTION INDEX=0
##$CONDENSED SPECTRUM=NO
##NPOINTS= 27
##XYDATA=(XY..XY) 1 
    41         51
    51         41
    58        108
    65         59
    69        121
    77         58
    78         39
    79         40
    91        596
    92        200
   103         40
   104         60
   105        248
   106         30
   108        148
   116         50
   117        339
   118        999
   119        128
   131         30
   162         90
   169         30
   377         50
   408         29
   427        188
   440         49
   531        119