##TITLE=Library Entry 80841
##JCAMP-DX=Revision 4.10 
##DATA TYPE=MASS SPECTRUM
##SAMPLE DESCRIPTION=ASES Database, Dalian Institute, P.R. China
##NAMES=HP
##CAS NAME=N-(3-Phenylbutyl)-pentadeacafluoro-octanamide
##MOLFORM=C18H14F15NO
##CAS REGISTRY NO=77970-71-9
##MP= -300
##BP= -300
##MW= 545
##$RETENTION INDEX=0
##$CONDENSED SPECTRUM=NO
##NPOINTS= 19
##XYDATA=(XY..XY) 1 
    39         30
    41         30
    51         40
    69         98
    77        120
    78         49
    79        108
    91        131
   100         19
   103         78
   104         50
   105        999
   106         99
   117         49
   118        546
   119        141
   131         40
   169         20
   426         20