##TITLE=Library Entry 64868
##JCAMP-DX=Revision 4.10 
##DATA TYPE=MASS SPECTRUM
##SAMPLE DESCRIPTION=ASES Database, Dalian Institute, P.R. China
##NAMES=HP
##CAS NAME=N-Benzyl-undecafluoro-hexanamide
##MOLFORM=C13H8F11NO
##CAS REGISTRY NO=77970-66-2
##MP= -300
##BP= -300
##MW= 403
##$RETENTION INDEX=0
##$CONDENSED SPECTRUM=NO
##NPOINTS= 22
##XYDATA=(XY..XY) 1 
    39         30
    44         40
    51         49
    65         60
    67         28
    69        108
    77         59
    78         30
    79         60
    89         30
    91        999
    92         78
   104         50
   105         30
   107         29
   119         29
   134         59
   141         78
   184        159
   402         19
   403        397
   404         59