##TITLE=Library Entry 37185
##JCAMP-DX=Revision 4.10 
##DATA TYPE=MASS SPECTRUM
##SAMPLE DESCRIPTION=M.ROEPER,LEHRSTUHL INST. TECH. CHEM. PETROLCHEM.,AACHEN
, W.GER
##NAMES=HP
##CAS NAME=2,7-Dimethyl-1,7-octadien-3-amine
##MOLFORM=C10H19N
##CAS REGISTRY NO=77984-57-7
##MP= -300
##BP= -300
##MW= 153
##$RETENTION INDEX=0
##$CONDENSED SPECTRUM=NO
##NPOINTS= 46
##XYDATA=(XY..XY) 1 
    30         97
    38          3
    39         76
    40         13
    41        124
    42         42
    43        150
    44         18
    51          5
    52          2
    53         24
    54         17
    55         25
    56         92
    57         18
    58          2
    65          4
    66          1
    67         19
    68         31
    69         29
    70        999
    71         54
    77          5
    79         10
    80          5
    81         10
    82         14
    83          9
    84          3
    85         12
    91          2
    92          2
    93         12
    94          4
    95         35
    96         30
    97         12
    98          4
   107          2
   108          2
   110         13
   111          2
   112          4
   121          1
   138          6