##TITLE=Library Entry 36997
##JCAMP-DX=Revision 4.10 
##DATA TYPE=MASS SPECTRUM
##SAMPLE DESCRIPTION=M.ROEPER,LEHRSTUHL INST. TECH. CHEM. PETROLCHEM.,AACHEN
, W.GER
##NAMES=HP
##CAS NAME=3,7-Dimethyl-1,7-octadien-3-amine
##MOLFORM=C10H19N
##CAS REGISTRY NO=77984-56-6
##MP= -300
##BP= -300
##MW= 153
##$RETENTION INDEX=0
##$CONDENSED SPECTRUM=NO
##NPOINTS= 42
##XYDATA=(XY..XY) 1 
    30         99
    32          1
    39         42
    40         11
    41         86
    42         69
    43         42
    44         10
    50          0
    51          4
    52          2
    53         26
    54         20
    55         23
    56          7
    57         13
    58          7
    65          4
    66          1
    67         16
    68         19
    69         31
    70        999
    71         49
    77          3
    79          7
    80          3
    81         10
    82         42
    83          3
    84          3
    91          2
    93          7
    94          4
    95          1
    96          4
   108          1
   109          2
   110          4
   121          3
   126          2
   138          9