##TITLE=Library Entry 36998
##JCAMP-DX=Revision 4.10 
##DATA TYPE=MASS SPECTRUM
##SAMPLE DESCRIPTION=M.ROEPER,LEHRSTUHL INST. TECH. CHEM. PETROLCHEM.,AACHEN
, W.GER
##NAMES=HP
##CAS NAME=2,7-Dimethyl-2,7-octadien-1-amine
##MOLFORM=C10H19N
##CAS REGISTRY NO=77984-58-8
##MP= -300
##BP= -300
##MW= 153
##$RETENTION INDEX=0
##$CONDENSED SPECTRUM=NO
##NPOINTS= 42
##XYDATA=(XY..XY) 1 
    29        235
    30        738
    39        185
    40         35
    41        284
    42        150
    43        226
    44         40
    51         12
    53         95
    54         39
    55         93
    56        135
    57        141
    58         66
    65         28
    67        121
    68         82
    69         49
    70        999
    71        147
    77         25
    79         87
    80         30
    81        134
    82        273
    83         44
    84        134
    91         19
    93         84
    94         20
    95         51
    96        172
    97         65
   107         37
   108         20
   110         58
   121        100
   122         16
   124         17
   136         62
   138         73