##TITLE=Library Entry 67905
##JCAMP-DX=Revision 4.10 
##DATA TYPE=MASS SPECTRUM
##SAMPLE DESCRIPTION=Exported from NIST MS Search
##NAMES=HP
##CAS NAME=Propane, 1,1-dichloro-1-fluoro-
##MOLFORM=C3H5Cl2F
##CAS REGISTRY NO=7799-56-6
##MP= -300
##BP= -300
##MW= 130
##$RETENTION INDEX=0
##$CONDENSED SPECTRUM=NO
##NPOINTS= 90
##XYDATA=(XY..XY) 1 
    12          1
    13          1
    14          4
    15         13
    24          1
    25          6
    26         37
    27        162
    28         42
    29        361
    30          8
    31         42
    32          3
    33         43
    35         11
    36         18
    37         36
    38         26
    39         81
    40          6
    41          8
    42          1
    43          2
    44         11
    45         32
    46          6
    47         18
    48          5
    49         70
    50          1
    51         23
    53          1
    54          1
    55          3
    56         11
    57         45
    58          7
    59        518
    60         27
    61         17
    62          4
    63          7
    64          1
    65          1
    66         18
    67        148
    68          6
    69         44
    70          1
    71          2
    72          5
    73         11
    74          4
    75         63
    76          3
    77         22
    78          2
    79         24
    80         24
    81          8
    82         15
    83         12
    84          5
    85          8
    87          1
    91          7
    92          1
    93         33
    94         25
    95        999
    96         42
    97        324
    98         12
    99          2
   101        115
   102          2
   103         74
   104          1
   105         12
   109          5
   110         16
   111          4
   112         10
   113          1
   114          4
   115         12
   116          2
   117          8
   118          1
   119          1