##TITLE=Library Entry 55156
##JCAMP-DX=Revision 4.10 
##DATA TYPE=MASS SPECTRUM
##SAMPLE DESCRIPTION=RADIAN CORP
##NAMES=HP
##CAS NAME=Silicic acid (H4SiO4), tetrakis(2-ethylbutyl) ester
##MOLFORM=C24H52O4Si
##CAS REGISTRY NO=78-13-7
##MP= -300
##BP= -300
##MW= 432
##$RETENTION INDEX=0
##$CONDENSED SPECTRUM=NO
##NPOINTS= 132
##XYDATA=(XY..XY) 1 
    27         19
    29         51
    39         11
    41         89
    42         26
    43        505
    44         18
    45          4
    53          8
    54          6
    55        240
    56         49
    57         79
    58          2
    62          5
    63         67
    64          1
    65          2
    67         16
    68          3
    69         71
    70         30
    71         71
    72          3
    76          6
    77         52
    78          6
    79        325
    80         19
    81         34
    82         23
    83        835
    84        371
    85        999
    86         67
    87          7
    89         17
    90          3
    91         22
    92         18
    93        189
    94         13
    95         23
    97         53
    98          6
    99          8
   101         13
   103         50
   104          6
   105         54
   106          6
   107         80
   108          6
   109         20
   111        364
   112         26
   113         24
   115         17
   117         39
   118          4
   119         37
   120          7
   121        133
   122         12
   123         75
   124          6
   125         30
   127          9
   129         10
   131         16
   133         26
   134          6
   135         71
   136         10
   137        122
   138         10
   139          9
   143          8
   145         39
   146          5
   147         30
   148          4
   149         58
   150          9
   151        284
   152         27
   153         19
   159         12
   161         17
   163         77
   164          8
   165         54
   166          5
   175         13
   177         74
   178         10
   179         46
   180          5
   181         40
   182          3
   189          6
   191         16
   193        338
   194         44
   195         72
   196          7
   205         15
   207         41
   208          5
   219         13
   221         12
   235         69
   236         10
   237          1
   247          4
   249          3
   261          2
   263         26
   264          4
   265          5
   277         82
   278         15
   279          5
   291          2
   319         10
   331          5
   347         23
   348          5
   361        110
   362         28
   363          7
   403          5