##TITLE=Library Entry 46236
##JCAMP-DX=Revision 4.10 
##DATA TYPE=MASS SPECTRUM
##SAMPLE DESCRIPTION=C. BRUNNEE, KRUPP, BREMEN, GERMANY
##NAMES=HP
##CAS NAME=Pentaerythritol Tetranitrate
##MOLFORM=C5H8N4O12
##CAS REGISTRY NO=78-11-5
##MP= -300
##BP= -300
##MW= 316
##$RETENTION INDEX=1798
##$CONDENSED SPECTRUM=NO
##NPOINTS= 33
##XYDATA=(XY..XY) 1 
    41          7
    42          9
    43         48
    44          4
    46        885
    47         48
    48         24
    53          9
    54         21
    55        136
    56         90
    57        139
    58         29
    60         78
    61         19
    68          9
    69         19
    70          9
    71         34
    72          9
    73         19
    76        999
    77         12
    78          4
    83          7
    84          4
    85         26
    88          7
    97         43
    99         24
   149         12
   194          9
   240          7