##TITLE=Library Entry 52250
##JCAMP-DX=Revision 4.10 
##DATA TYPE=MASS SPECTRUM
##SAMPLE DESCRIPTION=Japan AIST/NIMC Database- Spectrum MS-NW-4421
##NAMES=HP
##CAS NAME=2,4,8,10-Tetraoxaspiro[5.5]undecane, 3,9-diethenyl-
##MOLFORM=C11H16O4
##CAS REGISTRY NO=78-19-3
##MP= -300
##BP= -300
##MW= 212
##$RETENTION INDEX=0
##$CONDENSED SPECTRUM=NO
##NPOINTS= 128
##XYDATA=(XY..XY) 1 
    14          4
    15         16
    16          2
    17          1
    18          3
    25          3
    26         50
    27        321
    28        161
    29        182
    30          9
    31        182
    32          8
    33          1
    37          6
    38         22
    39        445
    40        203
    41        486
    42        174
    43        108
    44         11
    45         25
    46          1
    47          2
    48          2
    49          2
    50          3
    51          9
    52          8
    53        174
    54        276
    55        888
    56        712
    57        624
    58         29
    59          7
    60          1
    61          1
    63          2
    65          7
    66          7
    67         60
    68         30
    69        266
    70        172
    71        249
    72         26
    73         17
    74         10
    75          2
    77          7
    78          3
    79         36
    80         24
    81         34
    82         26
    83        999
    84         86
    85         30
    86          7
    87          6
    90          1
    91          4
    92          5
    93          9
    94          3
    95         91
    96         12
    97         35
    98          9
    99        377
   100         31
   101         14
   102          1
   105          9
   106          2
   107          9
   108         19
   109         25
   110          5
   111         18
   112          9
   113         20
   114          4
   115          3
   119          1
   121          2
   122          2
   123          2
   124          1
   125        256
   126        199
   127         28
   128          5
   129         84
   130          5
   131          1
   137          1
   138          1
   139          4
   140          1
   141          1
   142          1
   143          2
   145         16
   146          1
   147          2
   153          1
   155         50
   156        272
   157         27
   158          5
   159          1
   170          4
   171          1
   173         10
   174          1
   184          1
   185        308
   186         31
   187          8
   195          1
   197          1
   211        111
   212         70
   213         11
   214          4