##TITLE=Library Entry 50188
##JCAMP-DX=Revision 4.10 
##DATA TYPE=MASS SPECTRUM
##SAMPLE DESCRIPTION=Japan AIST/NIMC Database- Spectrum MS-NW-1410
##NAMES=HP
##CAS NAME=Cyclohexanol, 1-ethynyl-
##MOLFORM=C8H12O
##CAS REGISTRY NO=78-27-3
##MP= -300
##BP= -300
##MW= 124
##$RETENTION INDEX=0
##$CONDENSED SPECTRUM=NO
##NPOINTS= 84
##XYDATA=(XY..XY) 1 
    14          3
    15         15
    16          1
    17          2
    18          7
    25          3
    26         27
    27        199
    28         25
    29         93
    30          2
    31         20
    32          7
    36          7
    37          8
    38         26
    39        287
    40        112
    41        230
    42         42
    43         98
    44          9
    45          5
    47          2
    48          1
    49          4
    50         40
    51        104
    52         33
    53        216
    54         64
    55        178
    56         41
    57         16
    58          2
    59          1
    60          1
    61          3
    62         10
    63         25
    64         14
    65         45
    66         37
    67        193
    68        807
    69        129
    70         33
    71          4
    73          1
    74          6
    75          4
    76          3
    77         61
    78         43
    79         65
    80         35
    81        999
    82        163
    83         61
    84          5
    85          5
    89          2
    91         82
    92          9
    93         17
    94         10
    95        728
    96        385
    97         50
    98          9
    99          2
   102          1
   103          7
   104          2
   105         21
   106         15
   107          8
   108          2
   109        256
   110         19
   111          2
   123        105
   124         14
   125          1