##TITLE=Library Entry 53807
##JCAMP-DX=Revision 4.10 
##DATA TYPE=MASS SPECTRUM
##SAMPLE DESCRIPTION=Chemical Concepts
##NAMES=HP
##CAS NAME=1,3-Propanediol, 2-methyl-2-propyl-
##MOLFORM=C7H16O2
##CAS REGISTRY NO=78-26-2
##MP= -300
##BP= -300
##MW= 132
##$RETENTION INDEX=0
##$CONDENSED SPECTRUM=NO
##NPOINTS= 80
##XYDATA=(XY..XY) 1 
    26          9
    27        278
    28          1
    29        263
    30         14
    31        399
    33          6
    37          1
    38          4
    39        165
    40         29
    41        691
    42         85
    43        369
    44         12
    45        581
    46         11
    47          4
    48          0
    49          0
    50          2
    51         11
    52          4
    53         54
    54         14
    55        879
    56        901
    57        226
    58         37
    59        378
    60         13
    61          5
    62          0
    63          1
    64          0
    65          7
    66          2
    67         34
    68         12
    69        125
    70         17
    71        197
    72         38
    73          6
    74          0
    75          0
    77          4
    79          7
    80          1
    81         25
    82         18
    83        510
    84        999
    85         89
    86          7
    87          2
    88          1
    89          1
    91          0
    93          0
    95          3
    96          8
    97          4
    98          0
    99          3
   100         30
   101        128
   102         19
   103          1
   111          0
   113          0
   114         38
   115          5
   116          0
   117          0
   119          0
   131          0
   132          1
   133          3
   134          0