##TITLE=Library Entry 40654
##JCAMP-DX=Revision 4.10 
##DATA TYPE=MASS SPECTRUM
##SAMPLE DESCRIPTION=MI-0060
##NAMES=HP
##CAS NAME=Emylcamate
##MOLFORM=C7H15NO2
##CAS REGISTRY NO=78-28-4
##MP= -300
##BP= -300
##MW= 145
##$RETENTION INDEX=1105
##$CONDENSED SPECTRUM=NO
##NPOINTS= 75
##XYDATA=(XY..XY) 1 
    26         19
    27        144
    28        154
    29        159
    30          9
    31         44
    32         16
    38          9
    39         81
    40         21
    41        281
    42         59
    43        504
    44        239
    45        109
    46          9
    50          9
    51         13
    52          8
    53         39
    54         19
    55        359
    56        109
    57        104
    58         16
    59         21
    60          9
    62         39
    63          1
    65          7
    66          2
    67         28
    68          9
    69        294
    70         45
    71         39
    72         19
    73        999
    74         59
    75         11
    76          1
    77          9
    78          5
    79          9
    80          9
    81         11
    82         10
    83         20
    84        379
    85        209
    86         19
    87        104
    88         14
    90          9
    91          1
    95          1
    97          9
    98          9
    99          6
   100          1
   101          1
   103          1
   104          5
   105         19
   106          2
   111          4
   112          4
   113          4
   115          1
   116         39
   117          9
   118          8
   119          9
   120          9
   130         23