##TITLE=Library Entry 21294
##JCAMP-DX=Revision 4.10 
##DATA TYPE=MASS SPECTRUM
##SAMPLE DESCRIPTION=NIST Mass Spectrometry Data Center
##NAMES=HP
##CAS NAME=Carbamic acid, (1-methylethyl)-, 2-[[(aminocarbonyl)oxy]methyl]-2
-methylpentyl ester
##MOLFORM=C12H24N2O4
##CAS REGISTRY NO=78-44-4
##MP= -300
##BP= -300
##MW= 260
##$RETENTION INDEX=1890
##$CONDENSED SPECTRUM=NO
##NPOINTS= 126
##XYDATA=(XY..XY) 1 
    14          1
    15          6
    16          1
    18          6
    19          1
    26          5
    27         75
    28         31
    29         95
    30         12
    31         66
    33          1
    37          1
    38          3
    39         92
    40         25
    41        378
    42        144
    43        625
    44        427
    45        112
    46         12
    47          1
    50          1
    51          5
    52          4
    53         52
    54         27
    55        999
    56        495
    57        153
    58        677
    59        137
    60         20
    62        353
    63          6
    64          2
    65          9
    66          3
    67         50
    68         23
    69        199
    70        155
    71        256
    72         75
    73         30
    74         24
    75         30
    76          5
    77          5
    78          1
    79         11
    80          2
    81         77
    82         17
    83        278
    84        245
    85         57
    86        151
    87          9
    88         60
    89          7
    90          1
    91          1
    92          8
    93          2
    94          1
    95         13
    96         73
    97        478
    98         82
    99         21
   100         12
   101         50
   102        128
   103         12
   104        679
   105         32
   106          3
   112          3
   113          6
   114         83
   115         68
   116          7
   117         10
   118          5
   119          1
   123          4
   124          1
   126          3
   128          1
   129          1
   131          2
   132          2
   133          2
   134          4
   140          3
   141          1
   142          2
   143          2
   144         12
   145          1
   147          4
   156          1
   157         11
   158        402
   159         35
   160          3
   170          1
   174          2
   175          1
   176         26
   177          3
   184         71
   185          8
   186         16
   187          2
   199          2
   200          1
   202         18
   203          2
   217          1
   245         54
   246          8
   247          1
   260          1