##TITLE=Library Entry 45535
##JCAMP-DX=Revision 4.10 
##DATA TYPE=MASS SPECTRUM
##SAMPLE DESCRIPTION=Exported from NIST MS Search
##NAMES=HP
##CAS NAME=1-Propanol, 2,3-dichloro-, phosphate (3:1)
##MOLFORM=C9H15Cl6O4P
##CAS REGISTRY NO=78-43-3
##MP= -300
##BP= -300
##MW= 428
##$RETENTION INDEX=2307
##$CONDENSED SPECTRUM=NO
##NPOINTS= 87
##XYDATA=(XY..XY) 1 
    40         50
    41        270
    42         30
    43         90
    44         10
    47         20
    49        380
    50         10
    51        120
    55         20
    57        130
    61         20
    62         10
    63         20
    65         20
    69         10
    75        999
    76         70
    77        350
    78         20
    79         50
    81         90
    83         40
    85         20
    91         10
    93         20
    99        680
   110         20
   111        110
   112         10
   113         70
   114          5
   115         10
   117         40
   119         20
   123         20
   124          3
   125          5
   135         20
   137         60
   155        180
   157         70
   159         90
   161         40
   171          5
   173         30
   175         10
   191        410
   192         10
   193        270
   194          5
   195         50
   209        270
   210          3
   211        180
   212          3
   213         30
   247         10
   269         25
   271         25
   273          8
   283          3
   285          3
   301         38
   302          2
   303         45
   304          3
   305         23
   306          1
   307          4
   319         47
   320          2
   321         55
   322          3
   323         28
   324          1
   325          7
   379         40
   380          3
   381         62
   382          6
   383         40
   384          3
   385         14
   387          2
   393          1
   395          1