##TITLE=Library Entry 27071
##JCAMP-DX=Revision 4.10 
##DATA TYPE=MASS SPECTRUM
##SAMPLE DESCRIPTION=NIST Mass Spectrometry Data Center
##NAMES=HP
##CAS NAME=S,S,S-Tributyl phosphorotrithioate
##MOLFORM=C12H27OPS3
##CAS REGISTRY NO=78-48-8
##MP= -300
##BP= -300
##MW= 314
##$RETENTION INDEX=2169
##$CONDENSED SPECTRUM=NO
##NPOINTS= 144
##XYDATA=(XY..XY) 1 
    41        432
    42         22
    43         28
    44          3
    45         55
    46         31
    47        117
    48          6
    49          5
    50          2
    51          4
    52          2
    53         25
    54         25
    55        202
    56        100
    57        999
    58         55
    59         33
    60         38
    61         29
    62          3
    63         23
    64          4
    65          2
    66          2
    69          1
    70          1
    71         11
    72          2
    73         13
    74          5
    75          4
    76          1
    78          2
    79         31
    80          5
    81         24
    82          2
    83          2
    85          8
    86          3
    87        131
    88        131
    89        183
    90         43
    91         20
    92          3
    93          8
    95         19
    97          7
   101          2
   103         11
   104          1
   105          1
   107          2
   108          4
   109          1
   111          1
   112         10
   113        308
   114         66
   115        177
   116          9
   117         21
   118          2
   119          9
   120          1
   121         10
   122         27
   123          3
   124          2
   125          1
   127          3
   128          3
   129          3
   130          1
   131          2
   134          4
   135         64
   136         49
   137        168
   138         13
   139         12
   140          2
   141          2
   142          1
   143          1
   145        111
   146        189
   147        317
   148         32
   149         46
   150          3
   151         31
   152         28
   153         15
   154          3
   155          2
   160          1
   161          2
   166          1
   167         29
   168         80
   169        934
   170        517
   171        221
   172         53
   173         15
   174          2
   177         16
   178         15
   179          3
   180          1
   183          3
   184          1
   185          2
   191          4
   195          2
   197          1
   201         21
   202        533
   203        148
   204         79
   205         19
   206          5
   211          1
   223          2
   225        141
   226        252
   227         42
   228         26
   229          3
   242          1
   257         24
   258        290
   259         45
   260         40
   261          6
   262          2
   314        125
   315         20
   316         19
   317          3