##TITLE=Library Entry 72593
##JCAMP-DX=Revision 4.10 
##DATA TYPE=MASS SPECTRUM
##SAMPLE DESCRIPTION=NIST Mass Spectrometry Data Center, 1990.
##NAMES=HP
##CAS NAME=Triethyl phosphate
##MOLFORM=C6H15O4P
##CAS REGISTRY NO=78-40-0
##MP= -300
##BP= -300
##MW= 182
##$RETENTION INDEX=1127
##$CONDENSED SPECTRUM=NO
##NPOINTS= 71
##XYDATA=(XY..XY) 1 
    14          9
    15         45
    16          1
    17          1
    19         16
    25          4
    26         45
    27        234
    28        109
    29        347
    30         19
    31         48
    39          2
    41          6
    42         16
    43         89
    44         31
    45        171
    46          6
    47         39
    48          4
    49          2
    57         10
    58          3
    59          4
    63         12
    64          7
    65         70
    66          2
    77          5
    79          6
    81        503
    82        324
    83        131
    84          3
    91        147
    92          9
    93         28
    94          7
    95          7
    96          2
    97         10
    98          2
    99        999
   100          2
   101          9
   107          6
   109        354
   110         74
   111        144
   112          6
   113          5
   123          4
   125        184
   126         63
   127        536
   128         13
   129          5
   137         84
   138         88
   139         95
   140          5
   153         39
   155        736
   156         36
   157          6
   167         19
   168          2
   181         18
   182         38
   183          3