##TITLE=Library Entry 24895
##JCAMP-DX=Revision 4.10 
##DATA TYPE=MASS SPECTRUM
##SAMPLE DESCRIPTION=NIST Mass Spectrometry Data Center, 2010
##NAMES=HP
##CAS NAME=Ethanol, 2-butoxy-, phosphate (3:1)
##MOLFORM=C18H39O7P
##CAS REGISTRY NO=78-51-3
##MP= -300
##BP= -300
##MW= 398
##$RETENTION INDEX=2421
##$CONDENSED SPECTRUM=NO
##NPOINTS= 153
##XYDATA=(XY..XY) 1 
    15          1
    19          1
    26          3
    27         25
    28         18
    29        107
    30          4
    31          8
    38          1
    39         22
    40          4
    41        264
    42         21
    43         52
    44         62
    45        597
    46         14
    47          3
    50          1
    51          1
    52          1
    53          7
    54         14
    55         99
    56        654
    57        999
    58         55
    59         15
    60          2
    61          1
    65          8
    66          1
    67          4
    68          1
    69          8
    70         12
    71         16
    72         10
    73          4
    75          1
    77          1
    78          2
    79          4
    81         30
    82         22
    83         48
    85        560
    86         32
    87         17
    88          1
    89          2
    91          7
    92          1
    93          1
    95          6
    96          5
    97          1
    99        235
   100        295
   101        293
   102         19
   103          1
   107         19
   108         32
   109          7
   110          1
   111          5
   112         28
   113         62
   114          1
   115          1
   121          1
   122          2
   123         19
   125        497
   126         32
   127         63
   128          2
   129          1
   136          1
   137          3
   138         12
   139         66
   140         11
   141         27
   143         55
   144          1
   145          1
   151         42
   152         28
   153        204
   154        100
   155        148
   156          8
   157         13
   165          3
   166          2
   167          8
   168          5
   169         18
   170          2
   171         44
   172          2
   173          1
   180          7
   181         16
   182         17
   183         10
   184          1
   185          2
   187          2
   195          1
   196          1
   197         14
   199        211
   200         14
   201          3
   209          8
   210          1
   211          2
   212          3
   213         16
   214          1
   215          2
   225         48
   226         23
   227        147
   228         13
   229          2
   239          1
   241          2
   243         19
   244          2
   253         33
   254          4
   255         31
   256          3
   257          2
   269          2
   271         14
   272          2
   283          2
   297          6
   299        116
   300         16
   301          2
   313          2
   325          1
   343          3
   355         17
   356          3
   397          1
   399          2