##TITLE=Library Entry 51764
##JCAMP-DX=Revision 4.10 
##DATA TYPE=MASS SPECTRUM
##SAMPLE DESCRIPTION=NIST Mass Spectrometry Data Center, 1998.
##NAMES=HP
##CAS NAME=Isophorone
##MOLFORM=C9H14O
##CAS REGISTRY NO=78-59-1
##MP= -300
##BP= -300
##MW= 138
##$RETENTION INDEX=1124
##$CONDENSED SPECTRUM=NO
##NPOINTS= 65
##XYDATA=(XY..XY) 1 
    15          3
    26          3
    27         37
    28          1
    29         21
    37          2
    38         10
    39        152
    40         17
    41         76
    42         17
    43         12
    45          2
    46          1
    49          1
    50         15
    51         32
    52         18
    53         75
    54        165
    55         62
    56         10
    57          6
    61          1
    62          3
    63          9
    64          2
    65         18
    66          7
    67         61
    68          5
    69         13
    70          1
    74          2
    75          1
    76          1
    77         37
    78          8
    79         35
    80          8
    81         19
    82        999
    83         65
    84          4
    89          1
    91         14
    92          2
    93         10
    94          4
    95         77
    96          8
   103          1
   105          2
   107          3
   108          4
   109          4
   110         10
   111          1
   121          1
   122          1
   123         19
   124          2
   138        231
   139         24
   140          2