##TITLE=Library Entry 11707
##JCAMP-DX=Revision 4.10 
##DATA TYPE=MASS SPECTRUM
##SAMPLE DESCRIPTION=Japan AIST/NIMC Database- Spectrum MS-NW-3991
##NAMES=HP
##CAS NAME=3,6-Dimethyl-4-octyn-3,6-diol
##MOLFORM=C10H18O2
##CAS REGISTRY NO=78-66-0
##MP= -300
##BP= -300
##MW= 170
##$RETENTION INDEX=0
##$CONDENSED SPECTRUM=NO
##NPOINTS= 96
##XYDATA=(XY..XY) 1 
    15         14
    17          1
    18          3
    26          6
    27         50
    28          8
    29         87
    30          2
    31          8
    32          1
    37          1
    38          3
    39         38
    40          5
    41         51
    42          4
    43        999
    44         22
    45         13
    49          1
    50          6
    51         20
    52          5
    53         27
    54          3
    55         66
    56          4
    57        136
    58          5
    59          4
    61          1
    62          2
    63          6
    64          2
    65         20
    66          6
    67         49
    68          4
    69         68
    70          5
    71          8
    72          5
    73         30
    74          2
    75          1
    77         18
    78          4
    79         23
    80          6
    81         65
    82          6
    83         16
    84          1
    85         20
    86          1
    91          9
    92          1
    93         12
    94          3
    95         43
    96          4
    97          8
    98          2
    99          7
   103          1
   105          6
   106          1
   107          5
   108          5
   109         37
   110          4
   111         18
   112         10
   113          3
   117          1
   119          3
   121          2
   122          3
   123        839
   124         75
   125          9
   126          4
   127          5
   134          5
   135          1
   136          1
   137         65
   138          7
   139          1
   140          1
   141        148
   142         12
   143          1
   152          1
   153          2
   155          4