##TITLE=Library Entry 32671
##JCAMP-DX=Revision 4.10 
##DATA TYPE=MASS SPECTRUM
##SAMPLE DESCRIPTION=NIST Mass Spectrometry Data Center, 1990.
##NAMES=HP
##CAS NAME=Isoprene
##MOLFORM=C5H8
##CAS REGISTRY NO=78-79-5
##MP= -300
##BP= -300
##MW= 68
##$RETENTION INDEX=498
##$CONDENSED SPECTRUM=NO
##NPOINTS= 31
##XYDATA=(XY..XY) 1 
    15         24
    25          7
    26         51
    27        215
    29         15
    31         14
    36          7
    37         57
    38        116
    39        510
    40        258
    41        234
    42        125
    43          5
    48          5
    49         31
    50        107
    51        133
    52         70
    53        627
    54         31
    60          9
    61         24
    62         41
    63         35
    64         10
    65        123
    66          9
    67        999
    68        642
    69         33