##TITLE=Library Entry 119
##JCAMP-DX=Revision 4.10 
##DATA TYPE=MASS SPECTRUM
##SAMPLE DESCRIPTION=D.HENNEBERG, MAX-PLANCK INSTITUTE, MULHEIM, WEST GERMAN
Y
##NAMES=HP
##CAS NAME=Ethane, 1,1,2-tribromo-
##MOLFORM=C2H3Br3
##CAS REGISTRY NO=78-74-0
##MP= -300
##BP= -300
##MW= 264
##$RETENTION INDEX=1014
##$CONDENSED SPECTRUM=NO
##NPOINTS= 25
##XYDATA=(XY..XY) 1 
    27        999
    28         33
    43          1
    44         15
    79         57
    80         15
    81         60
    82         14
    93          6
   104         23
   105        228
   106        685
   107        230
   108        629
   173          2
   184         13
   185        333
   186         53
   187        720
   188         31
   189        311
   264          7
   266         21
   268         19
   270          6