##TITLE=Library Entry 23462
##JCAMP-DX=Revision 4.10 
##DATA TYPE=MASS SPECTRUM
##SAMPLE DESCRIPTION=Japan AIST/NIMC Database- Spectrum MS-NW-9144
##NAMES=HP
##CAS NAME=Propane, 1-bromo-2-methyl-
##MOLFORM=C4H9Br
##CAS REGISTRY NO=78-77-3
##MP= -300
##BP= -300
##MW= 136
##$RETENTION INDEX=677
##$CONDENSED SPECTRUM=NO
##NPOINTS= 49
##XYDATA=(XY..XY) 1 
    14          2
    15          9
    26         10
    27        117
    28         18
    29        190
    30          4
    31          1
    33          1
    36          1
    37          7
    38         16
    39        120
    40         17
    41        574
    42         88
    43        316
    44          9
    49          1
    50          6
    51          6
    52          2
    53          9
    54          2
    55         61
    56         35
    57        999
    58         43
    59          5
    71          1
    79          2
    80          3
    81          2
    82          3
    93          9
    94          1
    95          9
   105          1
   107          4
   109          3
   119          1
   121         17
   122          1
   123         15
   135         22
   136         22
   137         23
   138         21
   139          1