##TITLE=Library Entry 23309
##JCAMP-DX=Revision 4.10 
##DATA TYPE=MASS SPECTRUM
##SAMPLE DESCRIPTION=Japan AIST/NIMC Database- Spectrum MS-NW- 164
##NAMES=HP
##CAS NAME=Butane, 2-bromo-
##MOLFORM=C4H9Br
##CAS REGISTRY NO=78-76-2
##MP= -300
##BP= -300
##MW= 136
##$RETENTION INDEX=670
##$CONDENSED SPECTRUM=NO
##NPOINTS= 41
##XYDATA=(XY..XY) 1 
    14          2
    15         13
    25          2
    26         38
    27        185
    28         52
    29        408
    30          9
    32          2
    37          8
    38         17
    39        142
    40         16
    41        531
    42         28
    43          2
    49          4
    50         15
    51         14
    52          5
    53         15
    54          5
    55         48
    56         79
    57        999
    58         43
    73          1
    79          9
    80          7
    81          9
    82          7
    91          2
    93          3
    95          3
   105          1
   106          2
   107         11
   108          2
   109          9
   136          6
   138          6