##TITLE=Library Entry 1507
##JCAMP-DX=Revision 4.10 
##DATA TYPE=MASS SPECTRUM
##SAMPLE DESCRIPTION=NIST Mass Spectrometry Data Center, 1998.
##NAMES=HP
##CAS NAME=1-Propanol, 2-chloro-
##MOLFORM=C3H7ClO
##CAS REGISTRY NO=78-89-7
##MP= -300
##BP= -300
##MW= 94
##$RETENTION INDEX=805
##$CONDENSED SPECTRUM=NO
##NPOINTS= 52
##XYDATA=(XY..XY) 1 
    14          2
    15          9
    25          6
    26         48
    27        177
    28         73
    29        151
    30         21
    31        999
    32         19
    33          4
    35          7
    36          9
    37         17
    38         24
    39         80
    40         15
    41         97
    42         23
    43         49
    44          3
    47          4
    48          6
    49         17
    50          3
    51          5
    53          6
    54          1
    55         13
    56          2
    57         86
    58        270
    59         26
    60          6
    61         14
    62        132
    63        128
    64         42
    65        105
    66          3
    67         20
    75          2
    76          9
    77          1
    78          6
    79          3
    80          1
    81          2
    93          3
    94         16
    95          1
    96          6