##TITLE=Library Entry 6220
##JCAMP-DX=Revision 4.10 
##DATA TYPE=MASS SPECTRUM
##SAMPLE DESCRIPTION=NIST Mass Spectrometry Data Center, 1998.
##NAMES=HP
##CAS NAME=Propanal, 2-methyl-
##MOLFORM=C4H8O
##CAS REGISTRY NO=78-84-2
##MP= -300
##BP= -300
##MW= 72
##$RETENTION INDEX=552
##$CONDENSED SPECTRUM=NO
##NPOINTS= 39
##XYDATA=(XY..XY) 1 
    13          1
    14          3
    15         15
    16          1
    24          1
    25          5
    26         49
    27        320
    28         58
    29        256
    30          5
    31          9
    36          4
    37         36
    38         67
    39        333
    40         42
    41        865
    42        106
    43        999
    44         48
    45          5
    48          1
    49          5
    50         12
    51          7
    52          3
    53         18
    54         10
    55         29
    56          9
    57         49
    58          2
    69          3
    70          1
    71          9
    72        546
    73         31
    74          2