##TITLE=Library Entry 44954
##JCAMP-DX=Revision 4.10 
##DATA TYPE=MASS SPECTRUM
##SAMPLE DESCRIPTION=NIST Mass Spectrometry Data Center, 1998.
##NAMES=HP
##CAS NAME=1-Propene, 2,3-dichloro-
##MOLFORM=C3H4Cl2
##CAS REGISTRY NO=78-88-6
##MP= -300
##BP= -300
##MW= 110
##$RETENTION INDEX=706
##$CONDENSED SPECTRUM=NO
##NPOINTS= 53
##XYDATA=(XY..XY) 1 
    12          1
    13          1
    14          2
    15          1
    24          2
    25          6
    26         17
    27          5
    35         30
    36         30
    37        112
    38        150
    39        535
    40         62
    41          2
    47         24
    48         16
    49        196
    50          8
    51         62
    52          1
    59          3
    60         20
    61        108
    62          9
    63         33
    64          1
    70          1
    71          4
    72         11
    73         54
    74         22
    75        999
    76         42
    77        348
    78         12
    82          1
    83         19
    84          1
    85         13
    87          2
    94          1
    95          2
    96          1
    97          1
   107          1
   109         14
   110        275
   111         18
   112        177
   113          7
   114         28
   115          1