##TITLE=Library Entry 5485
##JCAMP-DX=Revision 4.10 
##DATA TYPE=MASS SPECTRUM
##SAMPLE DESCRIPTION=Exported from NIST MS Search
##NAMES=HP
##CAS NAME=2-Propanone, 1-chloro-
##MOLFORM=C3H5ClO
##CAS REGISTRY NO=78-95-5
##MP= -300
##BP= -300
##MW= 92
##$RETENTION INDEX=683
##$CONDENSED SPECTRUM=NO
##NPOINTS= 48
##XYDATA=(XY..XY) 1 
    12          2
    13          9
    14         20
    15        122
    16          2
    18          4
    24          1
    25          5
    26         23
    27         56
    28         10
    29         37
    30          1
    31          2
    35          3
    36          4
    37         10
    38         10
    39         12
    40          2
    41         10
    42         67
    43        999
    44         23
    45          2
    47          7
    48         12
    49         95
    50          6
    51         31
    52          1
    53          2
    55          4
    56          1
    57         20
    60          2
    61          3
    62          1
    63          2
    76          3
    77         25
    78          2
    79          8
    83          3
    92        109
    93          5
    94         36
    95          2