##TITLE=Library Entry 19700
##JCAMP-DX=Revision 4.10 
##DATA TYPE=MASS SPECTRUM
##SAMPLE DESCRIPTION=Japan AIST/NIMC Database- Spectrum MS-IW-3441
##NAMES=HP
##CAS NAME=Methyl vinyl ketone
##MOLFORM=C4H6O
##CAS REGISTRY NO=78-94-4
##MP= -300
##BP= -300
##MW= 70
##$RETENTION INDEX=576
##$CONDENSED SPECTRUM=NO
##NPOINTS= 38
##XYDATA=(XY..XY) 1 
    12          2
    13          5
    14         25
    15        101
    16          1
    17          1
    24          2
    25         15
    26         84
    27        497
    28         24
    29         14
    31          3
    36          6
    37         29
    38         32
    39         65
    40         12
    41         56
    42        123
    43        831
    44         25
    45          4
    48          4
    49         17
    50         35
    51         18
    52          7
    53         25
    54          8
    55        999
    56         45
    57          4
    67          3
    69         11
    70        577
    71         27
    72          2