##TITLE=Library Entry 16655
##JCAMP-DX=Revision 4.10 
##DATA TYPE=MASS SPECTRUM
##SAMPLE DESCRIPTION=R.A.FRIEDEL BUREAU OF MINES U.S.DEPT.OF INT.BRUCETON PA
 U.S.A.
##NAMES=HP
##CAS NAME=2-Butanol
##MOLFORM=C4H10O
##CAS REGISTRY NO=78-92-2
##MP= -300
##BP= -300
##MW= 74
##$RETENTION INDEX=598
##$CONDENSED SPECTRUM=NO
##NPOINTS= 25
##XYDATA=(XY..XY) 1 
    18         76
    19         40
    27        219
    28         48
    29        180
    30         11
    31        215
    32          4
    33          0
    41        115
    42         25
    43        126
    44         83
    45        999
    46         23
    55         25
    56         12
    57         34
    58          6
    59        200
    60          6
    71          1
    72          0
    73         12
    74          2