##TITLE=Library Entry 46454
##JCAMP-DX=Revision 4.10 
##DATA TYPE=MASS SPECTRUM
##SAMPLE DESCRIPTION=D.HENNEBERG, MAX-PLANCK INSTITUTE, MULHEIM, WEST GERMAN
Y
##NAMES=HP
##CAS NAME=Propane, 1,1-dichloro-
##MOLFORM=C3H6Cl2
##CAS REGISTRY NO=78-99-9
##MP= -300
##BP= -300
##MW= 112
##$RETENTION INDEX=686
##$CONDENSED SPECTRUM=NO
##NPOINTS= 77
##XYDATA=(XY..XY) 1 
    27        323
    28        244
    29        669
    30         14
    31          4
    34          0
    35          1
    36          9
    37          6
    38         24
    39        260
    40         47
    41        757
    42         27
    43          1
    44          3
    45          1
    46          0
    47          5
    48         15
    49         74
    50          6
    51         22
    52          1
    53          0
    54          0
    55          1
    56          1
    57          1
    58          0
    59          0
    60          4
    61         67
    62         19
    63         33
    64          8
    65          5
    66          0
    67          0
    69          0
    70          0
    71          0
    72          0
    73          7
    74          1
    75         35
    76        354
    77        999
    78        139
    79        313
    80          9
    81          0
    82          2
    83         81
    84          2
    85         53
    86          1
    87          8
    89          0
    91          2
    92          2
    93          2
    94          0
    95          0
    96          2
    97         19
    98          1
    99         11
   100          0
   101          2
   109          1
   110          0
   111          1
   112          5
   113          1
   114          3
   116          0