##TITLE=Library Entry 22115
##JCAMP-DX=Revision 4.10 
##DATA TYPE=MASS SPECTRUM
##SAMPLE DESCRIPTION=NIST Mass Spectrometry Data Center, 1998.
##NAMES=HP
##CAS NAME=Propanenitrile, 2-hydroxy-
##MOLFORM=C3H5NO
##CAS REGISTRY NO=78-97-7
##MP= -300
##BP= -300
##MW= 71
##$RETENTION INDEX=0
##$CONDENSED SPECTRUM=NO
##NPOINTS= 36
##XYDATA=(XY..XY) 1 
    13          5
    14         16
    15         24
    16          4
    24          3
    25          8
    26         53
    27        111
    28        161
    29        148
    30         10
    31          3
    36          3
    37          7
    38         16
    39         15
    40         30
    41         47
    42        374
    43        223
    44        116
    45         25
    50         11
    51         60
    52         81
    53         27
    54         62
    55         28
    56        999
    57         26
    58          1
    67          2
    68          1
    69          4
    70         84
    71          5