##TITLE=Library Entry 15135
##JCAMP-DX=Revision 4.10 
##DATA TYPE=MASS SPECTRUM
##SAMPLE DESCRIPTION=NIST Mass Spectrometry Data Center, 1998.
##NAMES=HP
##CAS NAME=1,2-Propanediamine
##MOLFORM=C3H10N2
##CAS REGISTRY NO=78-90-0
##MP= -300
##BP= -300
##MW= 74
##$RETENTION INDEX=1201
##$CONDENSED SPECTRUM=NO
##NPOINTS= 21
##XYDATA=(XY..XY) 1 
    15          5
    18         68
    27         16
    28         76
    29         21
    30        165
    31          4
    32          5
    39         12
    40         18
    41         29
    42         79
    43         30
    44        999
    45         26
    54          5
    56         30
    57          4
    58          4
    59          9
    74          7