##TITLE=Library Entry 9117
##JCAMP-DX=Revision 4.10 
##DATA TYPE=MASS SPECTRUM
##SAMPLE DESCRIPTION=CARL DJERASSI DEPT OF CHEM STANFORD UNIV STANFORD CALIF
 94305
##NAMES=HP
##CAS NAME=2-Butanone
##MOLFORM=C4H8O
##CAS REGISTRY NO=78-93-3
##MP= -300
##BP= -300
##MW= 72
##$RETENTION INDEX=598
##$CONDENSED SPECTRUM=NO
##NPOINTS= 14
##XYDATA=(XY..XY) 1 
    15         40
    26         10
    27         80
    28         30
    29        170
    39         20
    41         10
    42         30
    43        999
    44         30
    57         80
    71         10
    72        250
    73         10