##TITLE=Library Entry 5468
##JCAMP-DX=Revision 4.10 
##DATA TYPE=MASS SPECTRUM
##SAMPLE DESCRIPTION=Exported from NIST MS Search
##NAMES=HP
##CAS NAME=Methyl glyoxal
##MOLFORM=C3H4O2
##CAS REGISTRY NO=78-98-8
##MP= -300
##BP= -300
##MW= 72
##$RETENTION INDEX=970
##$CONDENSED SPECTRUM=NO
##NPOINTS= 23
##XYDATA=(XY..XY) 1 
    13         14
    14         36
    15        264
    16         12
    25          9
    26         18
    27         22
    28         69
    29        203
    30         19
    31         35
    32          9
    36         47
    37         10
    38         20
    39          8
    41         25
    42         78
    43        999
    44         41
    45        151
    46          8
    72         51