##TITLE=Library Entry 60674
##JCAMP-DX=Revision 4.10 
##DATA TYPE=MASS SPECTRUM
##SAMPLE DESCRIPTION=Japan AIST/NIMC Database- Spectrum MS-NW-7492
##NAMES=HP
##CAS NAME=Benzenemethanamine, N-(phenylmethylene)-
##MOLFORM=C14H13N
##CAS REGISTRY NO=780-25-6
##MP= -300
##BP= -300
##MW= 195
##$RETENTION INDEX=1761
##$CONDENSED SPECTRUM=NO
##NPOINTS= 82
##XYDATA=(XY..XY) 1 
    26          2
    27          7
    28          9
    30          2
    36          1
    37          2
    38          8
    39         58
    40          6
    41         16
    42          1
    44          1
    49          1
    50         18
    51         54
    52         10
    53          2
    61          2
    62          9
    63         38
    64         13
    65        140
    66          8
    69          1
    70          1
    73          1
    74          4
    75          6
    76          9
    77         41
    78         10
    79          3
    81          1
    82          4
    83          4
    86          2
    87          2
    88          2
    89         66
    90         63
    91        999
    92        334
    93         23
    94          1
    95          2
    96          3
    97          9
    98          2
   102          1
   103          7
   104         37
   105         11
   106          8
   107          2
   115          3
   116         22
   117         92
   118         49
   119          3
   121          1
   128          1
   139          2
   151          1
   152          8
   153          2
   163          1
   164          2
   165         17
   166         11
   167         13
   168          3
   178          2
   179          1
   180          1
   190          1
   191          1
   192          3
   193          9
   194        195
   195        235
   196         37
   197          3