##TITLE=Library Entry 37649
##JCAMP-DX=Revision 4.10 
##DATA TYPE=MASS SPECTRUM
##SAMPLE DESCRIPTION=James Little, Eastman Chemical Co.
##NAMES=HP
##CAS NAME=2-Ethylhexyl 4-methylbenzenesulfonate
##MOLFORM=C15H24O3S
##CAS REGISTRY NO=78016-72-5
##MP= -300
##BP= -300
##MW= 284
##$RETENTION INDEX=0
##$CONDENSED SPECTRUM=NO
##NPOINTS= 110
##XYDATA=(XY..XY) 1 
    37          1
    38          7
    39        154
    40         22
    41        469
    42         98
    43        270
    44          9
    45          5
    48          3
    49          1
    50         15
    51         38
    52         14
    53         45
    54         37
    55        464
    56        340
    57        545
    58         22
    59          7
    60          1
    61          2
    62         11
    63         54
    64         22
    65        305
    66         21
    67         43
    68         36
    69        251
    70        999
    71        136
    72          8
    73          3
    74          3
    75          4
    76          4
    77         48
    78         12
    79         31
    80          9
    81         12
    82         87
    83        532
    84        249
    85         19
    86          2
    87          4
    88          2
    89         83
    90         52
    91        947
    92        278
    93         41
    94          4
    95          5
    96          2
    97         43
    98         14
    99         10
   100          1
   103          1
   104          1
   105         10
   106          1
   107         69
   108         43
   109          6
   110          2
   111         18
   112        790
   113         69
   114          3
   115          2
   116          1
   117          2
   119          2
   121          3
   122          2
   123          1
   124          1
   127          1
   128          1
   129          6
   130          1
   131          2
   138          1
   139         42
   140          6
   141          3
   154          3
   155        536
   156        173
   157        197
   158         21
   159          9
   160          1
   170          1
   171          8
   172         88
   173        304
   174         30
   175         16
   176          1
   185          4
   186          1
   187         26
   188          3
   189          1