##TITLE=Library Entry 49391
##JCAMP-DX=Revision 4.10 
##DATA TYPE=MASS SPECTRUM
##SAMPLE DESCRIPTION=Chemical Concepts
##NAMES=HP
##CAS NAME=Sulfamide
##MOLFORM=H4N2O2S
##CAS REGISTRY NO=7803-58-9
##MP= -300
##BP= -300
##MW= 96
##$RETENTION INDEX=0
##$CONDENSED SPECTRUM=NO
##NPOINTS= 48
##XYDATA=(XY..XY) 1 
    27         11
    28         39
    29         26
    30         76
    31         66
    32        607
    33         10
    34          4
    35          0
    36          3
    38          0
    39          0
    40          1
    41          0
    42          0
    43          0
    44          4
    45          0
    46        180
    47         85
    48        188
    49         59
    50         40
    51          3
    52          1
    55          0
    56          0
    61          1
    62         28
    63         30
    64        131
    65        146
    66          8
    67          6
    76          0
    77          0
    78          0
    79         14
    80        999
    81         14
    82         49
    83          0
    91          0
    95          1
    96        606
    97         24
    98         30
    99          1