##TITLE=Library Entry 38612
##JCAMP-DX=Revision 4.10 
##DATA TYPE=MASS SPECTRUM
##SAMPLE DESCRIPTION=V.Zaikin,Topchiev Inst.Petrochem.Synth.,Moscow
##NAMES=HP
##CAS NAME=Trichloroacetic acid, 2-pentyl ester
##MOLFORM=C7H11Cl3O2
##CAS REGISTRY NO=78031-35-3
##MP= -300
##BP= -300
##MW= 232
##$RETENTION INDEX=1178
##$CONDENSED SPECTRUM=NO
##NPOINTS= 118
##XYDATA=(XY..XY) 1 
    22          2
    25          1
    26         18
    27        163
    28         12
    29        194
    30          4
    31          2
    35         10
    36         44
    37          2
    38         14
    39        125
    40         25
    41        302
    42        172
    43        939
    44         34
    45         32
    47         39
    48          5
    49         14
    50          6
    51          9
    52          9
    53         25
    54          7
    55        525
    56         25
    57          6
    58          4
    61          2
    63         12
    65          2
    66          2
    67         11
    68          5
    69         83
    70        381
    71        999
    72         59
    73          4
    75          2
    76          4
    77          3
    78          2
    79         12
    81          2
    82        131
    83         33
    84         83
    85         20
    86         13
    87         94
    88          4
    91          4
    93          2
    97          2
    99          4
   101          2
   109          3
   110        164
   111          8
   112        105
   113          4
   114         16
   115          1
   117        780
   118          8
   119        737
   120          7
   121        238
   122          2
   123         24
   125          2
   127         34
   128          6
   129         22
   130          3
   131          3
   135          2
   145         26
   146          4
   147         25
   148          3
   149          6
   154          3
   155         26
   156          2
   157         13
   159          2
   161        163
   162          4
   163        171
   164          4
   165         52
   166          1
   167          6
   188         21
   189        571
   190         48
   191        562
   192         35
   193        179
   194          8
   195         22
   197         21
   198          1
   199         14
   201          2
   207         12
   208          1
   217         36
   218          2
   219         31
   220          1
   221          8
   223          1