##TITLE=Library Entry 62217
##JCAMP-DX=Revision 4.10 
##DATA TYPE=MASS SPECTRUM
##SAMPLE DESCRIPTION=NIST Mass Spectrometry Data Center
##NAMES=HP
##CAS NAME=1-Benzyl-4-piperidineacetonitrile
##MOLFORM=C14H18N2
##CAS REGISTRY NO=78056-67-4
##MP= -300
##BP= -300
##MW= 214
##$RETENTION INDEX=0
##$CONDENSED SPECTRUM=NO
##NPOINTS= 105
##XYDATA=(XY..XY) 1 
    15          3
    26          2
    27         24
    29         16
    30         10
    38          4
    39         60
    40         10
    41         71
    42         88
    43          8
    44         21
    45          1
    50          9
    51         31
    52         12
    53         27
    54         25
    55         49
    56         20
    57          3
    58          1
    62          4
    63         23
    64          9
    65        149
    66         13
    67         22
    68          9
    69          7
    70          4
    74          1
    75          2
    76          3
    77         18
    78          8
    79          9
    80         10
    81          8
    82         51
    83          4
    87          1
    89         34
    90         22
    91        999
    92        209
    93         14
    94         10
    95          8
    96         25
    97          4
   102          1
   103          5
   104         21
   105          8
   106          9
   107          7
   108          3
   109          2
   115          3
   116          3
   117         13
   118         31
   119         11
   120         60
   121          7
   122          5
   123        366
   124         30
   125          1
   128          1
   129          2
   130          6
   131          6
   132         35
   133          5
   134          4
   135          2
   136          6
   137        386
   138         35
   139          1
   143          1
   144          5
   145          2
   146         45
   147          5
   158          7
   159         12
   160          1
   170         16
   171          7
   172         25
   173          4
   174         82
   175         10
   185          1
   186          4
   187          2
   198          1
   211          1
   213        137
   214        124
   215         18
   216          1