##TITLE=Library Entry 67707
##JCAMP-DX=Revision 4.10 
##DATA TYPE=MASS SPECTRUM
##SAMPLE DESCRIPTION=Chemical Concepts
##NAMES=HP
##CAS NAME=1,2-Cyclopentanedimethanol, 3-hydroxy-4,4-dimethyl-
##MOLFORM=C9H18O3
##CAS REGISTRY NO=78092-09-8
##MP= -300
##BP= -300
##MW= 174
##$RETENTION INDEX=0
##$CONDENSED SPECTRUM=NO
##NPOINTS= 112
##XYDATA=(XY..XY) 1 
    26         17
    27        321
    28         95
    29        432
    30         26
    31        436
    37          7
    38         17
    39        452
    40         91
    41        988
    42        147
    43        944
    44         94
    45        125
    46          7
    47         24
    48          2
    49         15
    50         15
    51         55
    52         24
    53        221
    54        273
    55        826
    56        817
    57        593
    58         49
    59        142
    60         11
    61          9
    62          5
    63         14
    64          7
    65         59
    66         38
    67        414
    68        126
    69        626
    70        467
    71        415
    72        815
    73        161
    74         39
    75          8
    76          5
    77        118
    78         24
    79        149
    80         55
    81        375
    82        544
    83        363
    84         73
    85         91
    86         40
    87         48
    88         23
    89          8
    90         31
    91        154
    92         30
    93        163
    94         63
    95        999
    96        256
    97        222
    98         66
    99        132
   100         65
   101         51
   102        189
   103         16
   104          7
   105         39
   106         10
   107        267
   108        190
   109        199
   110        123
   111        149
   112         45
   113         49
   114          9
   115         18
   116          6
   117          9
   119          7
   120         11
   121         10
   122          7
   123        123
   124         15
   125        595
   126        427
   127         56
   128          8
   137          8
   138         71
   139         14
   141         31
   143        239
   144         30
   145          5
   156         79
   157         10
   158          0
   159          7
   160          0
   173          4
   174          4
   175         10