##TITLE=Library Entry 71427
##JCAMP-DX=Revision 4.10 
##DATA TYPE=MASS SPECTRUM
##SAMPLE DESCRIPTION=PYTCAS, 17(8)1325(1978); J. S. MYNDERSE AND R. E. MOORE
##NAMES=HP
##CAS NAME=6,8-Tridecanediol, [R-(R*,R*)]-
##MOLFORM=C13H28O2
##CAS REGISTRY NO=78090-16-1
##MP= -300
##BP= -300
##MW= 216
##$RETENTION INDEX=0
##$CONDENSED SPECTRUM=NO
##NPOINTS= 15
##XYDATA=(XY..XY) 1 
    56        280
    70        250
    83        390
    98        999
   101        550
   109        620
   127        490
   145        550
   155         20
   156         15
   180         15
   181         15
   198         10
   199         10
   216         10