##TITLE=Library Entry 10389
##JCAMP-DX=Revision 4.10 
##DATA TYPE=MASS SPECTRUM
##SAMPLE DESCRIPTION=Chemical Concepts
##NAMES=HP
##CAS NAME=Cyclopentane-1-carboxylic acid, 3-acetyl-2-acetonyl-4,4-dimethyl-
, methyl ester (1R,3S)-
##MOLFORM=C14H22O4
##CAS REGISTRY NO=78092-00-9
##MP= -300
##BP= -300
##MW= 254
##$RETENTION INDEX=0
##$CONDENSED SPECTRUM=NO
##NPOINTS= 206
##XYDATA=(XY..XY) 1 
    26          1
    27         27
    28         25
    29         29
    30          1
    31          2
    33          2
    35          0
    36          0
    37          0
    38          0
    39         41
    40          7
    41         90
    42         10
    43        999
    44         27
    45         14
    46          0
    47          0
    49          0
    50          1
    51         10
    52          5
    53         36
    54          8
    55         86
    56          8
    57         12
    58         56
    59         40
    60          1
    61          1
    62          0
    63          2
    64          1
    65         16
    66          6
    67         52
    68         16
    69         45
    70          4
    71         14
    72         28
    73         16
    74          2
    75          1
    76          1
    77         41
    78          9
    79         50
    80         10
    81         34
    82         17
    83         33
    84          8
    85         18
    86          1
    87         24
    88          0
    89          1
    91         28
    92          8
    93        100
    94         27
    95        302
    96         52
    97         19
    98          5
    99        106
   100         39
   102          0
   103          1
   104          1
   105          8
   106          2
   107         60
   108         19
   109        218
   110         19
   111         22
   112         11
   113         16
   114          4
   115          3
   116          0
   117          2
   118          0
   119         11
   120          3
   121         45
   122         29
   123        142
   124         38
   125         45
   126         12
   127         48
   128        120
   129         12
   130          1
   131          2
   132          0
   133         10
   134          4
   135         18
   136         12
   137        177
   138         50
   139         47
   140          4
   141          7
   142          1
   143          1
   144          2
   145          2
   146          1
   147          5
   148          2
   149         54
   150         54
   151        163
   152         60
   153         42
   154         55
   155        182
   156         23
   157          2
   158          1
   159          3
   160          1
   161          9
   162         10
   163         16
   164         17
   165         70
   166         34
   167         16
   168          4
   169         12
   170          2
   171          1
   172          0
   173          0
   174          0
   175          0
   176         10
   177          9
   178         18
   179        112
   180         77
   181         20
   182          2
   183          6
   184          1
   185          1
   186          0
   187          0
   188          0
   189          8
   190          0
   191          0
   192          1
   193          7
   194         94
   195         28
   196         14
   197        163
   198         26
   199          3
   200          1
   203          3
   204         21
   205          5
   206          2
   207         20
   208          5
   209          1
   210          1
   211         14
   212          9
   213          0
   214          0
   215          0
   217          0
   218          0
   219          4
   221         86
   222         36
   223         83
   225         11
   226          1
   227          0
   228          0
   229          0
   230          0
   231          0
   232          0
   233          0
   234          0
   235          6
   236        207
   237         30
   238          3
   239         25
   240          3
   254          8