##TITLE=Library Entry 78610
##JCAMP-DX=Revision 4.10 
##DATA TYPE=MASS SPECTRUM
##SAMPLE DESCRIPTION=Humboldt-Universitat zu Berlin, Department of Chemistry
, Analytical Group
##NAMES=HP
##CAS NAME=Benzoic acid, 6,7-dicyanonaphthalen-2-yl ester
##MOLFORM=C19H10N2O2
##CAS REGISTRY NO=78119-73-0
##MP= -300
##BP= -300
##MW= 298
##$RETENTION INDEX=0
##$CONDENSED SPECTRUM=NO
##NPOINTS= 163
##XYDATA=(XY..XY) 1 
    12          0
    13          0
    14          1
    15          3
    16          2
    17         13
    18         49
    19          0
    20          1
    25          0
    26          2
    27         11
    28          9
    29          4
    30          1
    31          1
    32          1
    33          0
    36          0
    37          2
    38          5
    39         14
    40          0
    41          4
    42          2
    43         18
    44          6
    45          1
    46          0
    49          1
    50         33
    51        107
    52          6
    53          2
    54          0
    55          3
    56          1
    57          3
    58          3
    59          0
    60          1
    61          4
    62          9
    63         12
    64          6
    65          1
    66          0
    67          0
    68          0
    69          2
    70          1
    71          1
    72          0
    73          2
    74          9
    75         10
    76         16
    77        285
    78         21
    79          1
    80          0
    81          1
    82          1
    83          1
    84          1
    85          2
    86          4
    87          8
    88         14
    89          5
    90          1
    91          1
    92          0
    93          0
    94          0
    95          0
    96          0
    97          1
    98          2
    99          5
   100          3
   101          1
   102          0
   103          0
   105        999
   106         81
   107          5
   108          0
   109          0
   110          1
   111          5
   112          7
   113          5
   114          2
   115          1
   116          0
   117          0
   118          0
   119          0
   120          1
   121          0
   122          1
   123          1
   124          2
   125          1
   126          0
   127          1
   128          1
   129          0
   131          0
   135          0
   136          0
   137          3
   138         33
   139         12
   140          2
   141          0
   147          0
   148          0
   149          1
   150          2
   151          0
   152          0
   157          0
   162          0
   163          1
   164          2
   165         58
   166          7
   167          0
   168          0
   171          0
   176          0
   177          1
   178          0
   179          0
   183          0
   185          0
   187          0
   188          0
   189          0
   193          3
   194          5
   195          1
   207          0
   212          0
   213          0
   214          0
   215          1
   238          0
   239          0
   240          0
   241          0
   242          0
   251          0
   252          0
   253          0
   254          0
   298         13
   299          3
   300          0
   301          0
   303          0