##TITLE=Library Entry 15281
##JCAMP-DX=Revision 4.10 
##DATA TYPE=MASS SPECTRUM
##SAMPLE DESCRIPTION=A.A.Kutin, Moscow, Russia
##NAMES=HP
##CAS NAME=4H-1,3,4-Triazol-3-amine, N-dimethylaminomethylene-
##MOLFORM=C5H9N5
##CAS REGISTRY NO=78158-91-5
##MP= -300
##BP= -300
##MW= 139
##$RETENTION INDEX=0
##$CONDENSED SPECTRUM=NO
##NPOINTS= 68
##XYDATA=(XY..XY) 1 
    33         21
    34         17
    36         11
    37          1
    39        108
    40        330
    41        166
    42        984
    43        195
    44        999
    45         30
    46          7
    50         10
    51         14
    52          9
    53         38
    54         36
    55         80
    56         64
    57        461
    58         11
    59         28
    60          2
    63          5
    64         12
    65         27
    66         18
    67         73
    68         60
    69        357
    70         89
    71         32
    72          8
    76          1
    77         23
    79          4
    80          2
    82        110
    83        731
    84         82
    85          3
    90          3
    91          9
    92         13
    93         39
    95        133
    96        101
    97        210
    98        183
    99          5
   105          4
   108         35
   109          6
   110         42
   111         34
   112         76
   113          3
   119          3
   121         11
   122         57
   123         44
   124        163
   125          3
   130          2
   136          4
   137          3
   139        758
   140         46