##TITLE=Library Entry 80526
##JCAMP-DX=Revision 4.10 
##DATA TYPE=MASS SPECTRUM
##SAMPLE DESCRIPTION=A.A.Kutin, Moscow, Russia
##NAMES=HP
##CAS NAME=2H-Thiazolo[3,2-a]-1,3,5-triazin-6(7H)-one, 3,4-dihydro-3-phenyl-
##MOLFORM=C11H11N3OS
##CAS REGISTRY NO=78153-30-7
##MP= -300
##BP= -300
##MW= 233
##$RETENTION INDEX=0
##$CONDENSED SPECTRUM=NO
##NPOINTS= 82
##XYDATA=(XY..XY) 1 
    33         45
    34         14
    36          5
    37         11
    38         24
    39         73
    40        212
    41         31
    42         85
    43         24
    44         69
    45        100
    46        126
    48         14
    50         72
    51        208
    52         40
    53         18
    54         48
    55         59
    56         22
    57          5
    58          8
    59         20
    60         20
    61          3
    62          9
    63         23
    64         17
    65         22
    66          3
    68          7
    69          4
    70          5
    72         56
    74         37
    75         17
    77        449
    78         52
    79         12
    80          3
    82         19
    83          0
    85          1
    86          8
    88          2
    89          5
    90          4
    91         31
    92          2
    93          1
    99          0
   100          1
   101         19
   102         13
   104        483
   105        999
   106         99
   107          3
   116          4
   117          9
   118          6
   119          1
   128          5
   129         16
   130          7
   131          2
   145          2
   146          5
   160          1
   161          6
   162          0
   173          2
   186          7
   189          3
   190          1
   197          1
   198          0
   231          2
   233        134
   234         17
   235          5