##TITLE=Library Entry 32858
##JCAMP-DX=Revision 4.10 
##DATA TYPE=MASS SPECTRUM
##SAMPLE DESCRIPTION=Chemical Concepts
##NAMES=HP
##CAS NAME=Cyclopentanol, 1-(1-methylene-2-propenyl)-
##MOLFORM=C9H14O
##CAS REGISTRY NO=78158-11-9
##MP= -300
##BP= -300
##MW= 138
##$RETENTION INDEX=0
##$CONDENSED SPECTRUM=NO
##NPOINTS= 91
##XYDATA=(XY..XY) 1 
    26         54
    27        649
    28         96
    29        293
    30          5
    31         81
    35          3
    37         10
    38         35
    39        530
    40         89
    41        729
    42        103
    43        377
    45         14
    46          3
    49          2
    50         75
    51        174
    52        114
    53        617
    54        347
    55        707
    56         97
    57        350
    58         28
    59          8
    60          8
    61          3
    62         14
    63         61
    64         17
    65        136
    66        113
    67        999
    68        477
    69        183
    70         64
    71         22
    72          0
    74         11
    75          8
    76          4
    77        199
    78         99
    79        420
    80         88
    81        969
    82        527
    83        142
    84         60
    85        478
    86         27
    87          6
    88          2
    89         12
    90         10
    91        345
    92        278
    93         68
    94        149
    95        735
    96        182
    97         91
    98          8
   102          3
   103         24
   104          9
   105        153
   106         13
   107         46
   108         17
   109        400
   110        203
   111         32
   112          2
   113          2
   115          8
   116          2
   117         14
   118          5
   119         35
   120        299
   121         31
   122          6
   123        105
   124          6
   136          2
   137         29
   138         71
   139          6