##TITLE=Library Entry 58146
##JCAMP-DX=Revision 4.10 
##DATA TYPE=MASS SPECTRUM
##SAMPLE DESCRIPTION=A.Pleshkova, Nesmeyanov Inst.Org.Elem.Cpds, Moscow
##NAMES=HP
##CAS NAME=N-Methoxy-N-acetyl-1,1-dimethyl-2-carbomethoxyethylamine
##MOLFORM=C9H17NO4
##CAS REGISTRY NO=78190-91-7
##MP= -300
##BP= -300
##MW= 203
##$RETENTION INDEX=0
##$CONDENSED SPECTRUM=NO
##NPOINTS= 37
##XYDATA=(XY..XY) 1 
    31        182
    32        131
    33         10
    41        333
    42         91
    43        573
    44        131
    45         10
    47        181
    48         11
    55        213
    56        471
    57         41
    73        471
    74         81
    75         10
    83        482
    84         93
    85          7
    87        161
    88        999
    89        181
    90         14
   100         61
   101         32
   114        213
   115        182
   116         10
   129         41
   130         43
   146         38
   147         33
   161        613
   162         73
   163          8
   173         75
   174          8