##TITLE=Library Entry 62505
##JCAMP-DX=Revision 4.10 
##DATA TYPE=MASS SPECTRUM
##SAMPLE DESCRIPTION=A.Pleshkova, Nesmeyanov Inst.Org.Elem.Cpds, Moscow
##NAMES=HP
##CAS NAME=Glycine, N-methoxy-N-tosyl, methyl ester
##MOLFORM=C11H15NO5S
##CAS REGISTRY NO=78190-98-4
##MP= -300
##BP= -300
##MW= 273
##$RETENTION INDEX=0
##$CONDENSED SPECTRUM=NO
##NPOINTS= 41
##XYDATA=(XY..XY) 1 
    28        432
    29         79
    30         42
    31         63
    32         72
    39         64
    40         32
    41         65
    42         93
    43         51
    44         62
    45         43
    55         23
    56         25
    57         39
    59        162
    60         65
    61         21
    62         23
    63         41
    64         43
    65        201
    66         23
    77         43
    86         43
    87         93
    89         65
    90         42
    91        999
    92        123
   118        121
   119         34
   155        593
   156         62
   157         69
   214        152
   215         32
   273        194
   274         41
   275         45
   276          5