##TITLE=Library Entry 62732
##JCAMP-DX=Revision 4.10 
##DATA TYPE=MASS SPECTRUM
##SAMPLE DESCRIPTION=A.Pleshkova, Nesmeyanov Inst.Org.Elem.Cpds, Moscow
##NAMES=HP
##CAS NAME=N-Methoxy-N-tosyl-3,3-dimethyl-3-aminopropionic acid methyl ester
##MOLFORM=C14H21NO5S
##CAS REGISTRY NO=78190-97-3
##MP= -300
##BP= -300
##MW= 315
##$RETENTION INDEX=0
##$CONDENSED SPECTRUM=NO
##NPOINTS= 61
##XYDATA=(XY..XY) 1 
    29        201
    30         32
    31         81
    32        281
    33         32
    39        102
    40         25
    41        243
    42        153
    43        205
    44        172
    45        221
    46         25
    55        283
    56        823
    57        181
    58         51
    59        172
    60         19
    65        272
    66         15
    69        123
    70        225
    71        131
    72         51
    73        523
    74         28
    83        431
    84         72
    85         52
    86        223
    87        162
    88        154
    89        741
    90         51
    91        999
    92        151
    93         19
   114         72
   115        621
   116         74
   129        476
   130         81
   131         21
   155        823
   156         92
   157         73
   160        997
   161        114
   162         23
   201        273
   202         41
   203         27
   242        203
   243         51
   244         19
   283        103
   284         54
   315        203
   316         51
   317         15