##TITLE=Library Entry 10835
##JCAMP-DX=Revision 4.10 
##DATA TYPE=MASS SPECTRUM
##SAMPLE DESCRIPTION=E. WESTERLUND,DEP. CHEM. MOL. BIOL.,SWED. UNIV. AGRIC.,
UPPSA
##NAMES=HP
##CAS NAME=1,3,4-Tri-O-acetyl-d-glycero-tetrulose
##MOLFORM=C10H14O7
##CAS REGISTRY NO=78215-66-4
##MP= -300
##BP= -300
##MW= 246
##$RETENTION INDEX=0
##$CONDENSED SPECTRUM=NO
##NPOINTS= 16
##XYDATA=(XY..XY) 1 
    43        999
    56         10
    57         10
    61         10
    73         30
    84         10
    85        140
   101         50
   102         40
   103        150
   115         20
   116         20
   127         60
   144         20
   145         90
   187         50