##TITLE=Library Entry 62010
##JCAMP-DX=Revision 4.10 
##DATA TYPE=MASS SPECTRUM
##SAMPLE DESCRIPTION=NIST Mass Spectrometry Data Center
##NAMES=HP
##CAS NAME=2-Propenoic acid, 3-phenyl-, phenylmethyl ester, (E)-
##MOLFORM=C16H14O2
##CAS REGISTRY NO=78277-23-3
##MP= -300
##BP= -300
##MW= 238
##$RETENTION INDEX=2102
##$CONDENSED SPECTRUM=NO
##NPOINTS= 104
##XYDATA=(XY..XY) 1 
    26          1
    27          5
    29          2
    37          1
    38          6
    39         49
    40          4
    41         11
    44          3
    45          1
    49          1
    50         49
    51        161
    52         31
    53         12
    54          1
    55          1
    61          3
    62         16
    63         61
    64         14
    65        182
    66         10
    69         10
    73          2
    74         24
    75         29
    76         45
    77        417
    78         50
    79         60
    80          4
    86          2
    87          4
    88          1
    89         70
    90         51
    91        999
    92         84
    93          3
    95          1
    98          2
    99          1
   101         10
   102         99
   103        432
   104        162
   105         33
   106          4
   107         50
   108          4
   114          1
   115        161
   116         47
   117         10
   118          5
   119          5
   120          2
   128          1
   129          2
   130          3
   131        948
   132        117
   133         10
   134          1
   146          2
   147         60
   148          7
   152          2
   153          1
   159          1
   160         18
   161          3
   165          8
   166          3
   167          4
   168          1
   176          1
   177          1
   178         70
   179         35
   180          5
   181          1
   189          2
   190          1
   191         32
   192        443
   193        360
   194         58
   195          5
   196          1
   202          1
   203          2
   205          1
   209          1
   219         16
   220         43
   221          8
   222          1
   223          2
   237          4
   238        117
   239         21
   240          2