##TITLE=Library Entry 60010
##JCAMP-DX=Revision 4.10 
##DATA TYPE=MASS SPECTRUM
##SAMPLE DESCRIPTION=V.Zaikin,Topchiev Inst.Petrochem.Synth.,Moscow
##NAMES=HP
##CAS NAME=Cyclopentanecarboxylic acid, benzyl ester
##MOLFORM=C13H16O2
##CAS REGISTRY NO=78277-22-2
##MP= -300
##BP= -300
##MW= 204
##$RETENTION INDEX=0
##$CONDENSED SPECTRUM=NO
##NPOINTS= 70
##XYDATA=(XY..XY) 1 
    26         10
    27         21
    29          6
    36         18
    38          6
    39         64
    40         17
    41        139
    42         16
    43          8
    50         12
    51         28
    52         16
    53         14
    54          5
    55         28
    56          3
    57         10
    62          4
    63         17
    64          6
    65         81
    66         15
    67         64
    68         23
    69        542
    70         35
    71          8
    73         31
    74          4
    75          4
    76          4
    77         51
    78         17
    79         58
    80          5
    81          4
    82          6
    83          4
    85          4
    86          8
    89         39
    90         69
    91        999
    92        166
    93         19
    95         28
    96         18
    97        483
    98         35
    99          4
   104          3
   105         32
   106         12
   107         56
   108        158
   109         13
   112          3
   113          9
   114          5
   115          6
   117         12
   118          6
   132          3
   158         12
   186         23
   187          4
   204        330
   205         53
   206          5