##TITLE=Library Entry 3319
##JCAMP-DX=Revision 4.10 
##DATA TYPE=MASS SPECTRUM
##SAMPLE DESCRIPTION=NIST Mass Spectrometry Data Center, 1994
##NAMES=HP
##CAS NAME=3'-Trifluoromethylmethacrylanilide
##MOLFORM=C11H10F3NO
##CAS REGISTRY NO=783-05-1
##MP= -300
##BP= -300
##MW= 229
##$RETENTION INDEX=0
##$CONDENSED SPECTRUM=NO
##NPOINTS= 136
##XYDATA=(XY..XY) 1 
    14          1
    15         14
    18          2
    20          1
    25          0
    26          5
    27          5
    28         14
    32          0
    37         13
    38         49
    39        325
    40         65
    41        999
    42         37
    44          2
    46          1
    49          1
    50         19
    51         16
    52         12
    53         10
    54          4
    55          2
    56          2
    57         18
    58          1
    61          3
    62         14
    63         56
    64         30
    65         18
    66          2
    67          3
    68          1
    69        931
    70         41
    71          3
    74          2
    75         36
    76          7
    77          3
    78          1
    80          1
    81          5
    82          4
    83         27
    84          3
    85          1
    87          4
    88         17
    89          5
    90         10
    91         19
    92          3
    93          2
    94          4
    95         26
    96          3
    99          5
   100          4
   101          2
   102          2
   103          1
   104          1
   105          0
   106          1
   107          2
   108          2
   109          8
   110          1
   111         11
   112          6
   113         44
   114         42
   115          6
   116          1
   117          1
   118          1
   119          4
   120         14
   121          3
   122          1
   123          1
   125         15
   126          3
   127          2
   130          2
   131          2
   132         14
   133         22
   134          3
   135          0
   137          1
   139         10
   140         30
   141          6
   142          9
   143          2
   144          0
   145         44
   146          3
   151          1
   152          1
   158          2
   159          8
   160         68
   161         23
   162          2
   165          1
   166          2
   168          4
   172          1
   173          1
   174          8
   175          1
   180          1
   182          4
   183          0
   185          1
   186         14
   187          6
   188          7
   189          0
   198          1
   200          6
   201         48
   202          4
   210         42
   211          6
   212          0
   214          7
   215          0
   229        153
   230         20
   231          1