##TITLE=Library Entry 42506
##JCAMP-DX=Revision 4.10 
##DATA TYPE=MASS SPECTRUM
##SAMPLE DESCRIPTION=J.M. Halket, Trace Anal. Unit (TAU), London, UK
##NAMES=HP
##CAS NAME=Mandelic acid, 2TBDMS derivative
##MOLFORM=C20H36O3Si2
##CAS REGISTRY NO=78324-07-9
##MP= -300
##BP= -300
##MW= 380
##$RETENTION INDEX=1900
##$CONDENSED SPECTRUM=NO
##NPOINTS= 120
##XYDATA=(XY..XY) 1 
    39         41
    41        194
    42         13
    43         62
    44         14
    45        121
    46          9
    47         36
    48          1
    50          1
    51          6
    52          2
    53          5
    55         17
    56         43
    57        246
    58         60
    59        110
    60         14
    61         17
    62          2
    63          6
    64          2
    65          4
    66          3
    67          2
    69          3
    70          3
    71          3
    73        999
    74         88
    75        156
    76         11
    77         26
    78          5
    79          8
    83          3
    85         15
    86          2
    87          3
    89         28
    90         66
    91         55
    92          4
    93          1
    95          1
    97          2
    99          7
   100          4
   101          3
   102          2
   103         11
   104          8
   105         33
   106          4
   107         10
   113          1
   115         51
   116          8
   117         26
   118         47
   119         21
   120          3
   121          4
   129          1
   131         20
   132          9
   133         59
   134          9
   135         31
   136          4
   137          4
   143          1
   145          7
   147        399
   148         80
   149         85
   150         11
   151          4
   159          2
   161          2
   163         42
   164         11
   165         20
   166          3
   177          3
   179          2
   189         31
   190          6
   191          3
   192          5
   193          9
   194          1
   195          6
   207          1
   209         14
   210          3
   219          3
   221        223
   222         45
   223         27
   224          5
   225          1
   233          1
   237          6
   238          2
   239          2
   249          2
   266          4
   267          3
   295        187
   296         49
   297         19
   298          3
   323        119
   324         34
   325         13
   326          2
   337          4
   365          3