##TITLE=Library Entry 44206
##JCAMP-DX=Revision 4.10 
##DATA TYPE=MASS SPECTRUM
##SAMPLE DESCRIPTION=NIST Mass Spectrometry Data Center
##NAMES=HP
##CAS NAME=Vanillylmandelic acid, 3TBDMS derivative
##MOLFORM=C27H52O5Si3
##CAS REGISTRY NO=78324-20-6
##MP= -300
##BP= -300
##MW= 540
##$RETENTION INDEX=2511
##$CONDENSED SPECTRUM=NO
##NPOINTS= 264
##XYDATA=(XY..XY) 1 
    27          2
    28          1
    29         13
    31          1
    37          1
    38          1
    39          8
    40          2
    41         30
    42          3
    43          7
    44          2
    45         26
    46          1
    47          5
    49          1
    50          1
    51          1
    53          1
    55          5
    56          9
    57         45
    58         17
    59         74
    60          7
    61          5
    65          1
    66          1
    67          1
    69          1
    71          1
    73        999
    74         84
    75         77
    76          5
    77          4
    78          1
    79          2
    81          1
    83          2
    85          8
    87          1
    88          1
    89         19
    90          2
    91          7
    92          2
    93          2
    95          1
    97          1
    98          1
    99         10
   100          3
   101          2
   102          1
   103          6
   104          2
   105          5
   106          1
   107          2
   113          2
   115         25
   116          3
   117          9
   118          3
   119          9
   120          2
   121          3
   122          1
   123          1
   125          1
   126          1
   128          1
   129          2
   130          1
   131         11
   132          3
   133         40
   134          6
   135         18
   136          3
   137          7
   138          1
   140          1
   141          1
   143          1
   145          2
   147        267
   148         45
   149         38
   150          6
   151          8
   152          2
   153          1
   156          1
   157          1
   159          2
   160          1
   161          5
   162          4
   163         18
   164          4
   165          7
   166          8
   167          6
   168          1
   170          2
   171          1
   173          2
   174          1
   175          2
   177         39
   178         26
   179         24
   180          6
   181          4
   182          1
   184          2
   189          3
   190          1
   191          4
   192         12
   193         52
   194         27
   195         11
   196          2
   197          1
   203          1
   204          1
   205          3
   206         38
   207         14
   208          5
   209         16
   210          2
   211          1
   213          1
   217          1
   218          1
   219          4
   220          7
   221         10
   222          3
   223          6
   224          2
   225          2
   232          1
   233          2
   234          1
   235          6
   236          6
   237         44
   238         10
   239          6
   240          1
   248          1
   249          2
   250          2
   251         45
   252         45
   253         26
   254          8
   255          2
   262          1
   263          2
   264          1
   265         12
   266          4
   267         15
   268          4
   269          4
   270          1
   277          2
   278          1
   279          4
   280         12
   281          4
   282          2
   283          1
   291          1
   292          1
   293         11
   294         10
   295          9
   296         11
   297          4
   298          1
   305          1
   307          3
   308          2
   309         48
   310         14
   311         41
   312          9
   313          3
   314          1
   321          1
   322          1
   323         11
   324          4
   325          3
   326          2
   327          1
   335          2
   336          1
   337          2
   338          1
   339          1
   341          2
   342          1
   349          3
   350          1
   351          4
   352          1
   353          7
   354          8
   355          3
   356          1
   365          6
   366          2
   367          2
   369          1
   379          4
   381        670
   382        216
   383         97
   384         22
   385          6
   386          1
   393          6
   394          2
   395          1
   396          1
   397          1
   398          1
   407          2
   408          1
   409          9
   410          3
   411          3
   412          1
   413          1
   425          1
   427          1
   439          1
   455        308
   456        117
   457         57
   458         14
   459          3
   460          1
   481          1
   483        308
   484        120
   485         58
   486         15
   487          3
   488          1
   497          6
   498          2
   499          1
   525         10
   526          5
   527          2