##TITLE=Library Entry 100305
##JCAMP-DX=Revision 4.10 
##DATA TYPE=MASS SPECTRUM
##SAMPLE DESCRIPTION=NIST Mass Spectrometry Data Center
##NAMES=HP
##CAS NAME=(S,Z)-2-Methyl-6-(p-tolyl)hept-2-en-1-ol
##MOLFORM=C15H22O
##CAS REGISTRY NO=78339-53-4
##MP= -300
##BP= -300
##MW= 218
##$RETENTION INDEX=1735
##$CONDENSED SPECTRUM=NO
##NPOINTS= 94
##XYDATA=(XY..XY) 1 
    27         11
    28          2
    29         18
    30          1
    31          8
    38          1
    39         35
    40          5
    41         71
    42          5
    43         75
    44          2
    45          4
    50          3
    51         15
    52          5
    53         22
    54          2
    55         33
    56          6
    57         15
    58          3
    62          2
    63         11
    64          3
    65         38
    66          5
    67         15
    70          4
    71         24
    74          1
    75          2
    76          3
    77         68
    78         18
    84         14
    85          4
    86          1
    87          1
    89          8
    90          2
    91        138
    92         27
    97         13
    99          8
   100          1
   101          1
   102          7
   103         35
   104         24
   105        252
   106         27
   108          7
   114          1
   115         59
   116         17
   117        124
   118         39
   119        999
   120        171
   126          4
   127          5
   128         14
   129         19
   130          8
   131         73
   132        466
   133         80
   135         44
   136          4
   142          4
   143         30
   144         10
   145        106
   146         17
   152          1
   154          1
   155          1
   156          5
   157         33
   160          4
   165          1
   169          1
   170          1
   171          5
   172          2
   175          1
   185         12
   186          2
   200         36
   201          6
   203          2
   218         26
   219          4