##TITLE=Library Entry 29636
##JCAMP-DX=Revision 4.10 
##DATA TYPE=MASS SPECTRUM
##SAMPLE DESCRIPTION=J. Klune, Insect Chem. Ecol. Lab., USDA, Beltsville, MD
 20705
##NAMES=HP
##CAS NAME=Ethyl undecyl ether
##MOLFORM=C13H28O
##CAS REGISTRY NO=78371-01-4
##MP= -300
##BP= -300
##MW= 200
##$RETENTION INDEX=0
##$CONDENSED SPECTRUM=NO
##NPOINTS= 91
##XYDATA=(XY..XY) 1 
    41        546
    42        143
    43        469
    44         33
    45         49
    47         32
    48          7
    49          0
    51          2
    52          1
    53         31
    54         50
    55        394
    56        302
    57        329
    58         23
    59        999
    60          6
    61         12
    65          5
    66          6
    67         66
    68        219
    69        321
    70        304
    71        151
    72         13
    73          5
    74          6
    75          4
    77          4
    78          0
    79          6
    80          2
    81         32
    82        276
    83        374
    84        243
    85        112
    86          7
    87          5
    88          1
    89          0
    91          1
    93          0
    94          1
    95         16
    96         86
    97        319
    98        127
    99         35
   101         20
   102          1
   107          0
   108          9
   109          7
   110         27
   111        131
   112         49
   113         12
   114          1
   115          3
   123          2
   124         11
   125         63
   126        127
   127         12
   128          0
   129          0
   137          1
   139          1
   140          0
   143          0
   151          0
   152          9
   153          7
   154        279
   155         53
   156          3
   157          7
   158          0
   168          0
   169          0
   171          0
   185          2
   197          0
   198          9
   199         28
   200        374
   201         54
   202          4