##TITLE=Library Entry 44051
##JCAMP-DX=Revision 4.10 
##DATA TYPE=MASS SPECTRUM
##SAMPLE DESCRIPTION=Chemical Concepts
##NAMES=HP
##CAS NAME=Ethene, 1,2-diphenyl-1,2-bis(trimethylsilyl)-, (E)-
##MOLFORM=C20H28Si2
##CAS REGISTRY NO=78375-55-0
##MP= -300
##BP= -300
##MW= 324
##$RETENTION INDEX=0
##$CONDENSED SPECTRUM=NO
##NPOINTS= 210
##XYDATA=(XY..XY) 1 
    26          0
    27          0
    29          5
    30          0
    31          2
    39          0
    40          3
    41          2
    42          0
    43         43
    44         15
    45        112
    46          4
    47          4
    50          0
    51          2
    53          2
    54          0
    55          2
    56          0
    57          9
    58          7
    59         11
    60          1
    61          0
    63          0
    65          1
    66          0
    67          1
    68          0
    69          1
    70          1
    71          9
    72          9
    73        999
    74         83
    75         32
    76          1
    77         11
    78          1
    79          1
    81          1
    82          0
    83          2
    84          0
    85          0
    87          0
    88          0
    89          1
    90          0
    91          8
    92          1
    93          3
    94          0
    95          2
    96          0
    97          0
    99          0
   100          0
   101          0
   102          1
   103          2
   104          0
   105         42
   106          4
   107         15
   108          2
   109          2
   110          0
   113          0
   114          0
   115          4
   116          2
   117          3
   118          1
   119          9
   120          2
   121         13
   122          1
   123          0
   124          0
   126          0
   127          0
   128          1
   129          9
   130          1
   131         12
   132          1
   133          4
   134          1
   135        234
   136         31
   137         10
   138          0
   139          2
   140          0
   141          0
   142          1
   143          3
   144          1
   145          6
   146          1
   147          4
   148          1
   149          6
   150          0
   151          1
   152          4
   153          0
   154          0
   155          0
   156          0
   157          0
   158          0
   159         65
   160         10
   161          5
   162          1
   163          0
   164          0
   165          3
   166          1
   167          0
   168          0
   169          0
   171          0
   172          0
   173          1
   174         21
   175          3
   176          4
   177          3
   178         26
   179          7
   180          2
   181          1
   182          0
   189          1
   190          0
   191          3
   192          0
   193          1
   194          0
   195          1
   196          1
   197          0
   198          0
   199          0
   201          0
   202          0
   203          0
   204          1
   205          5
   206          0
   207          2
   208          0
   209          0
   210          0
   215          0
   217          4
   218          1
   219          3
   220          2
   221        183
   222         34
   223          9
   224          1
   225          0
   229          0
   230          0
   231          1
   232          0
   233          4
   234          1
   235         15
   236         34
   237         17
   238          4
   239          0
   240          0
   245          0
   246          0
   247          0
   248          0
   249          1
   250          9
   251         84
   252         19
   253          5
   254          0
   255          0
   261          0
   263          0
   268          0
   273          0
   277          0
   279          1
   293          1
   294          0
   308          0
   309        133
   310         36
   311         14
   312          1
   322          0
   324        241
   325         79
   326         26
   327          4
   328          0