##TITLE=Library Entry 91042
##JCAMP-DX=Revision 4.10 
##DATA TYPE=MASS SPECTRUM
##SAMPLE DESCRIPTION=NIST Mass Spectrometry Data Center
##NAMES=HP
##CAS NAME=5-Hydroxy-4-methoxy-6-phenethyl-5,6-dihydro-2H-pyran-2-one
##MOLFORM=C14H16O4
##CAS REGISTRY NO=78376-49-5
##MP= -300
##BP= -300
##MW= 248
##$RETENTION INDEX=2321
##$CONDENSED SPECTRUM=NO
##NPOINTS= 141
##XYDATA=(XY..XY) 1 
    26          2
    27         13
    29         19
    30          1
    31          5
    33          3
    38          4
    39         31
    40          8
    41         22
    42         16
    43         49
    45          6
    50         10
    51         38
    52         12
    53         30
    54         11
    55         85
    56        338
    57        118
    58         18
    59         35
    62          6
    63         27
    64          8
    65         93
    66         11
    67          6
    68         23
    69        104
    70          6
    71         37
    72          8
    73          6
    74          5
    75          7
    76          8
    77         99
    78         69
    79         46
    80          3
    82          5
    83         42
    84         11
    85         43
    86        278
    87         44
    88          6
    89         31
    90          7
    91        439
    92        103
    93          9
    96          7
    97          6
    98         51
    99         14
   100          5
   101          6
   102         12
   103         64
   104        218
   105        108
   106         11
   107         14
   108         12
   109          5
   111         32
   112          6
   113         63
   114        999
   115        121
   116         46
   117        298
   118         34
   119          4
   120          4
   122          2
   124          7
   125         21
   126         18
   127         62
   128         21
   129         19
   130          5
   133         23
   134         13
   135         12
   139         76
   140         12
   141         17
   142         14
   143        140
   144         31
   145         25
   146          7
   147          7
   148          8
   150          2
   152          4
   153         12
   154          5
   155          3
   156          4
   157         23
   158          3
   159          3
   160          7
   169          4
   170          9
   171          7
   172          4
   173          5
   174          5
   175         41
   176          6
   184          4
   185         32
   186          5
   187          4
   189          3
   190         28
   191          8
   192         36
   193          6
   197          2
   198          7
   201          3
   202         13
   203          3
   204          3
   213          2
   216          7
   229          2
   230         46
   231         11
   233          1
   247         14
   248         75
   249         13