##TITLE=Library Entry 89412
##JCAMP-DX=Revision 4.10 
##DATA TYPE=MASS SPECTRUM
##SAMPLE DESCRIPTION=Humboldt-Universitat zu Berlin, Department of Chemistry
, Analytical Group
##NAMES=HP
##CAS NAME=2'-Fluor-uridine
##MOLFORM=C9H11FN2O5
##CAS REGISTRY NO=784-71-4
##MP= -300
##BP= -300
##MW= 246
##$RETENTION INDEX=0
##$CONDENSED SPECTRUM=NO
##NPOINTS= 61
##XYDATA=(XY..XY) 1 
    19        111
    20        152
    28        208
    29        277
    31        250
    39        194
    40        347
    41        611
    42        416
    43        333
    44        166
    45        375
    53        111
    54        194
    55        152
    56         55
    57         83
    58         97
    59        194
    60         97
    61         97
    63        125
    67         69
    68        180
    69        708
    70        319
    71        111
    72        125
    73        444
    75        125
    81         55
    82        111
    84         83
    85        111
    86         55
    87         69
    89        125
    95         83
    96        138
    97         55
    98         97
   105         41
   112        999
   113        472
   114        361
   117        152
   124         27
   126         27
   135        236
   137         55
   152         41
   157        111
   167         55
   172         27
   179         83
   195         27
   196         41
   209         27
   216         27
   226         83
   246         13