##TITLE=Library Entry 59726
##JCAMP-DX=Revision 4.10 
##DATA TYPE=MASS SPECTRUM
##SAMPLE DESCRIPTION=V.G.Zaikin, TIPS, Russian Acad. Sci.
##NAMES=HP
##CAS NAME=1-Phenylmethyl-2-phenylmethoxybenzene
##MOLFORM=C20H18O
##CAS REGISTRY NO=78429-79-5
##MP= -300
##BP= -300
##MW= 274
##$RETENTION INDEX=0
##$CONDENSED SPECTRUM=NO
##NPOINTS= 9
##XYDATA=(XY..XY) 1 
    51         50
    65         80
    77         50
    91        999
    92         80
   183         80
   274         70
   275         15
   276          2