##TITLE=Library Entry 65855
##JCAMP-DX=Revision 4.10 
##DATA TYPE=MASS SPECTRUM
##SAMPLE DESCRIPTION=Organic Synthesis Lab, MSU, Moscow.TRC 1508
##NAMES=HP
##CAS NAME=2-[(Phenylamino)carnonyl)cyclohexanecarboxylic acid
##MOLFORM=C14H17NO3
##CAS REGISTRY NO=78431-28-4
##MP= -300
##BP= -300
##MW= 247
##$RETENTION INDEX=0
##$CONDENSED SPECTRUM=NO
##NPOINTS= 16
##XYDATA=(XY..XY) 1 
    42        154
    44        180
    53         19
    54         19
    55         31
    65         31
    66         30
    67         32
    77         44
    81        160
    93        999
    94         76
   109         41
   119         31
   229         12
   247         51