##TITLE=Library Entry 87242
##JCAMP-DX=Revision 4.10 
##DATA TYPE=MASS SPECTRUM
##SAMPLE DESCRIPTION=V.A.Korolev, Moscow, Russia
##NAMES=HP
##CAS NAME=2-(Hexahydropyrrolizin-7a-yl)ethanamine
##MOLFORM=C9H18N2
##CAS REGISTRY NO=78449-78-2
##MP= -300
##BP= -300
##MW= 154
##$RETENTION INDEX=0
##$CONDENSED SPECTRUM=NO
##NPOINTS= 51
##XYDATA=(XY..XY) 1 
    30         64
    36          4
    37          5
    38          9
    39         40
    40         44
    41         97
    42         60
    43         43
    44         80
    45         21
    51          3
    52          3
    53         19
    54         24
    55         35
    56         18
    57          8
    58          4
    59         32
    65          6
    67         21
    68         32
    69         19
    70         57
    71          4
    77          8
    79          8
    80         26
    81         13
    82         51
    83        154
    84         25
    91          3
    93          4
    94         12
    95          5
    96         75
    97         18
    98          4
   108         69
   109         19
   110        999
   111        103
   112          6
   124         34
   125         20
   138         15
   153          5
   154         48
   155          4