##TITLE=Library Entry 26562
##JCAMP-DX=Revision 4.10 
##DATA TYPE=MASS SPECTRUM
##SAMPLE DESCRIPTION=Chemical Concepts
##NAMES=HP
##CAS NAME=1-Pentanol, (2S)-2-[(tert.buytloxycarbonyl)-(S)-phenylalanylamino
]-4-methyl-
##MOLFORM=C20H32N2O4
##CAS REGISTRY NO=78452-02-5
##MP= -300
##BP= -300
##MW= 364
##$RETENTION INDEX=0
##$CONDENSED SPECTRUM=NO
##NPOINTS= 187
##XYDATA=(XY..XY) 1 
    26          0
    27         18
    28          4
    29        114
    30         95
    31         23
    38          1
    39         22
    40         10
    41        166
    42         30
    43         64
    44         69
    45          4
    46          4
    50          2
    51          1
    52          1
    53          2
    54          1
    55         86
    57        999
    58         42
    59         42
    60         43
    62          0
    63          1
    65         19
    66          1
    67          2
    68          0
    69          8
    70          6
    71          4
    72          2
    73         18
    74          7
    75          0
    76          0
    77         24
    78          7
    79          4
    80          2
    81          3
    82          1
    83         63
    84         14
    85         13
    86        645
    87         36
    89          3
    90          4
    91        102
    92         39
    93         12
    94          1
    97          2
   100         30
   101          5
   102          6
   103         51
   104         38
   105         11
   106          1
   107          1
   112          0
   113          6
   114          3
   115          1
   116         13
   117          5
   118         22
   119         23
   120        736
   121         63
   122          2
   125          0
   126          0
   127          2
   128         30
   129          5
   130         21
   131         63
   132          7
   133          1
   134          0
   140          1
   141          3
   142         16
   144         17
   145          6
   146         46
   147          4
   148         22
   150          2
   155         47
   156         13
   157          1
   158          0
   159          0
   160          0
   161          6
   162          1
   163         28
   164        539
   165        101
   166         11
   167          1
   169          1
   170          2
   171          0
   173        143
   174         14
   175          3
   176          8
   177          1
   180          0
   186          1
   187          1
   188          1
   189          3
   190          0
   191         22
   192         66
   193          7
   200          1
   201          0
   202          0
   203          0
   207          1
   208          0
   209         36
   210          5
   211          0
   215          0
   216         87
   217         79
   218         12
   219          3
   220         43
   221         21
   222          4
   225          0
   229          9
   230          3
   231          1
   232          0
   233         24
   234          9
   235          2
   247         25
   248         57
   249         12
   250          1
   251          2
   259          5
   260          2
   263          1
   264          2
   265         14
   266          2
   273         11
   274          2
   275          0
   277         37
   278         45
   279          7
   290          4
   291         78
   292         12
   293          9
   294          1
   307          2
   308        104
   309         21
   310          2
   320          1
   333         55
   334         68
   335         12
   336          0
   346          1
   347          0
   349          0
   364         36
   365         10
   366          2