##TITLE=Library Entry 10143
##JCAMP-DX=Revision 4.10 
##DATA TYPE=MASS SPECTRUM
##SAMPLE DESCRIPTION=Chemical Concepts
##NAMES=HP
##CAS NAME=3-Acetoxy-2,4-dimethyl-pentanedioic acid, dimethyl ester
##MOLFORM=C11H18O6
##CAS REGISTRY NO=78464-91-2
##MP= -300
##BP= -300
##MW= 246
##$RETENTION INDEX=0
##$CONDENSED SPECTRUM=NO
##NPOINTS= 116
##XYDATA=(XY..XY) 1 
    26          7
    27         83
    28         64
    29        101
    30          8
    31         23
    33          5
    38          2
    39         44
    40         10
    41        122
    42         21
    43        999
    44         43
    45         28
    47          3
    50          4
    51          6
    52          3
    53         23
    54          6
    55         53
    56        104
    57        146
    58         25
    59        128
    60          7
    61         11
    62          2
    63          2
    64          2
    65         10
    66          6
    67         58
    68         16
    69         70
    70          6
    71         18
    72          4
    73          5
    74          3
    75         12
    77          3
    79          3
    80          2
    81          6
    82          3
    83         16
    84          5
    85         85
    86          7
    87         29
    88        489
    89         25
    90          2
    91          4
    94          5
    95         64
    96         15
    97          6
    98          3
    99         31
   100         10
   101          5
   102          4
   104          4
   105          3
   109          3
   111         21
   112         22
   113         32
   114          5
   115         34
   116          5
   117        171
   118         10
   119          2
   122          2
   123          5
   125          3
   126         73
   127        199
   128         28
   129          6
   130        176
   131         13
   132          2
   139         13
   140          4
   141         10
   142          5
   143          7
   144         45
   145          7
   154         80
   155        152
   156         15
   157          3
   158          2
   159         19
   160          2
   167          2
   169          9
   171         64
   172          5
   173          3
   178          2
   180          2
   181          2
   186          7
   187          2
   203         15
   204          3
   215         12
   216          2
   247          1