##TITLE=Library Entry 30302
##JCAMP-DX=Revision 4.10 
##DATA TYPE=MASS SPECTRUM
##SAMPLE DESCRIPTION=Chemical Concepts
##NAMES=HP
##CAS NAME=2,3-Bis(1-methoxyethoxy)succinic acid, dimethyl ester
##MOLFORM=C12H22O8
##CAS REGISTRY NO=78469-73-5
##MP= -300
##BP= -300
##MW= 294
##$RETENTION INDEX=0
##$CONDENSED SPECTRUM=NO
##NPOINTS= 108
##XYDATA=(XY..XY) 1 
    25          1
    26         11
    27         40
    28         40
    29         99
    30         11
    31        103
    33         82
    34          1
    39          4
    41          9
    42         29
    43         94
    44          9
    45         28
    46          0
    47          5
    49          5
    51          2
    53          2
    54          1
    55          3
    56          1
    57         17
    58        137
    59        999
    60         59
    61         11
    62          2
    63          8
    65          3
    69         16
    70          4
    71         29
    72          2
    73         26
    74          3
    75         23
    76          1
    77          5
    78          0
    81          1
    83          1
    84          5
    85          9
    86          3
    87          1
    88          1
    89         14
    90        176
    91         24
    92          2
    93          1
    94          2
    95          0
    97          0
    99          1
   101         48
   102          8
   103         49
   104          4
   105          2
   109          1
   113         10
   114          1
   115          1
   116          3
   117         22
   118          2
   119         51
   120          2
   121          2
   127          1
   129         21
   130          2
   131          1
   133          5
   139          3
   141          3
   144          1
   145         38
   146          4
   147         17
   148         71
   149         19
   150          2
   160          0
   161         11
   162          2
   175          1
   177         11
   178          1
   179          1
   188          0
   189         60
   190          4
   191          8
   192          1
   203         16
   204          1
   205         59
   206          6
   207          1
   219          0
   234          1
   235          1
   262          0
   263          0