##TITLE=Library Entry 83903
##JCAMP-DX=Revision 4.10 
##DATA TYPE=MASS SPECTRUM
##SAMPLE DESCRIPTION=Chemical Concepts
##NAMES=HP
##CAS NAME=5-Ethyl-4-methyl-2-phenyl-1,3-dioxane
##MOLFORM=C13H18O2
##CAS REGISTRY NO=78465-08-4
##MP= -300
##BP= -300
##MW= 206
##$RETENTION INDEX=0
##$CONDENSED SPECTRUM=NO
##NPOINTS= 105
##XYDATA=(XY..XY) 1 
    26          2
    27         50
    28         23
    29         68
    30          2
    31         10
    37          2
    38          5
    39         61
    40          9
    41        157
    42         58
    43         96
    44          6
    45         30
    49          2
    50         34
    51        109
    52         25
    53         20
    54         12
    55        257
    56        158
    57         23
    58          8
    59          8
    60          2
    61          3
    62          4
    63         13
    64          5
    65          8
    66          3
    67         13
    68          4
    69         74
    70         89
    71         41
    72          4
    73          2
    74         11
    75         10
    76         21
    77        401
    78         82
    79        178
    80         14
    81          4
    82         20
    83        147
    84         48
    85         16
    86          2
    88          2
    89         22
    90         24
    91         35
    92          9
    93          2
    94          4
    95          2
    97          2
    98          2
    99          9
   100         42
   101          4
   103          2
   104         12
   105        895
   106        192
   107        999
   108         91
   109          5
   115          3
   117          9
   119          4
   120          2
   121          3
   122         75
   123        258
   124         29
   125          2
   128          8
   129         32
   130          2
   131          2
   132          2
   133          5
   134          2
   135          2
   147          2
   149          7
   153          2
   162         31
   163          4
   165          2
   168          3
   177          5
   178          4
   190          2
   191          2
   204         22
   205        389
   206        407
   207         59