##TITLE=Library Entry 17680
##JCAMP-DX=Revision 4.10 
##DATA TYPE=MASS SPECTRUM
##SAMPLE DESCRIPTION=V.A.Korolev, Moscow, Russia
##NAMES=HP
##CAS NAME=(2-Fluoro-6-methoxyphenyl)boronic acid
##MOLFORM=C7H8BFO3
##CAS REGISTRY NO=78495-63-3
##MP= -300
##BP= -300
##MW= 170
##$RETENTION INDEX=0
##$CONDENSED SPECTRUM=NO
##NPOINTS= 102
##XYDATA=(XY..XY) 1 
    33         10
    34          3
    36          6
    37         65
    38        108
    39        191
    40         92
    41         44
    42         21
    43         43
    44        356
    45        999
    46         28
    47        102
    48          4
    49         20
    50        227
    51        137
    52         99
    53        133
    54         17
    55         63
    56         88
    57        269
    58         15
    59         18
    60          7
    61         74
    62        145
    63        327
    64        104
    65         75
    66         12
    67          9
    68         94
    69         74
    70         48
    71         35
    72         10
    73         25
    74        145
    75        422
    76        343
    77        131
    78         95
    79         42
    80         37
    81        164
    82        106
    83        270
    84         27
    85         11
    88          3
    89         12
    90         16
    91         40
    92         22
    93         25
    94        109
    95        185
    96        443
    97        124
    98         29
    99          3
   100          3
   101         10
   103          3
   105         34
   106         31
   107        152
   108        178
   109         79
   110         69
   111         46
   112         12
   119          3
   120          9
   121         47
   122        146
   123         99
   124          8
   125         50
   126         66
   127         31
   132          2
   133          6
   134          9
   136          5
   137          9
   138          9
   139          6
   140         12
   150         49
   151        371
   152        726
   153         61
   154         29
   155          7
   169        150
   170        589
   171         47
   172          2