##TITLE=Library Entry 60430
##JCAMP-DX=Revision 4.10 
##DATA TYPE=MASS SPECTRUM
##SAMPLE DESCRIPTION=NIST Mass Spectrometry Data Center, 1994
##NAMES=HP
##CAS NAME=Ethanone, 1-[4-(2-phenylethyl)phenyl]-
##MOLFORM=C16H16O
##CAS REGISTRY NO=785-78-4
##MP= -300
##BP= -300
##MW= 224
##$RETENTION INDEX=0
##$CONDENSED SPECTRUM=NO
##NPOINTS= 79
##XYDATA=(XY..XY) 1 
    14          5
    15         25
    27         25
    29          1
    38         15
    39         89
    40         10
    41         16
    42          1
    43        171
    44          2
    45          1
    50         37
    51         82
    52         17
    53          8
    62         18
    63         72
    64         30
    65        159
    66          9
    74         10
    75         15
    76         25
    77         68
    78         26
    79         23
    82          1
    83          1
    86          3
    87          5
    89        111
    90        206
    91        999
    92         77
    93          3
    98          1
    99          1
   101          2
   102         13
   103         28
   104          1
   105        112
   106          9
   113          1
   115         12
   116          2
   118         53
   119          6
   126          2
   127          3
   128          4
   131          5
   133         64
   134          7
   139          3
   141          3
   150          2
   151          5
   152         11
   153          3
   163          1
   165         18
   166          8
   167          2
   176          6
   177          5
   178         14
   179          8
   180          1
   181         42
   182         18
   183          1
   207          1
   209         37
   210          6
   224        112
   225         19
   226          2