##TITLE=Library Entry 59804
##JCAMP-DX=Revision 4.10 
##DATA TYPE=MASS SPECTRUM
##SAMPLE DESCRIPTION=V.A.Korolev, Moscow, Russia
##NAMES=HP
##CAS NAME=Triazene, 1,3-di-p-tolyl-
##MOLFORM=C14H15N3
##CAS REGISTRY NO=785-86-4
##MP= -300
##BP= -300
##MW= 225
##$RETENTION INDEX=0
##$CONDENSED SPECTRUM=NO
##NPOINTS= 36
##XYDATA=(XY..XY) 1 
    38         18
    39        191
    40         58
    41         63
    44         33
    50         38
    51         94
    52         55
    53         36
    54          5
    62         16
    63         79
    64         27
    65        378
    66         23
    75          5
    76          8
    77        144
    78         52
    79         76
    80          7
    89         49
    90         24
    91        999
    92         86
   104         11
   105          6
   106         94
   107         51
   119        253
   120         21
   182          5
   183          6
   196          8
   225        118
   226         11