##TITLE=Library Entry 33126
##JCAMP-DX=Revision 4.10 
##DATA TYPE=MASS SPECTRUM
##SAMPLE DESCRIPTION=Chemical Concepts
##NAMES=HP
##CAS NAME=4-Pentenoic acid, 2-methyl-4-nitro-, ethyl ester
##MOLFORM=C8H13NO4
##CAS REGISTRY NO=78551-03-8
##MP= -300
##BP= -300
##MW= 187
##$RETENTION INDEX=0
##$CONDENSED SPECTRUM=NO
##NPOINTS= 91
##XYDATA=(XY..XY) 1 
    25         19
    26        114
    27        239
    28        212
    29        510
    30        236
    31         47
    36          5
    37         30
    38         54
    39        366
    40        182
    41        513
    42        132
    43        390
    44        110
    45        126
    46         12
    47          6
    49          5
    50         20
    51         35
    52         24
    53        106
    54         42
    55        128
    56         75
    57        202
    58         18
    59         13
    60          7
    61          4
    62          5
    63         14
    64          6
    65        109
    66         68
    67        999
    68        105
    69         96
    70         21
    71         21
    72          8
    73         47
    74         68
    75          6
    77          8
    78          6
    79         14
    80         13
    81         14
    82         14
    83         45
    84         33
    85         82
    86         16
    87         10
    89          6
    91          7
    93          8
    94         14
    95        126
    96         23
    97         76
    98         45
    99         14
   100         12
   101          9
   102          9
   103          4
   110          8
   111         51
   112         46
   113        867
   114        287
   115         49
   116          6
   117          5
   125         23
   126          5
   127         15
   128          9
   129          7
   140         11
   141        264
   142        446
   143         35
   144          6
   156          3
   170          9
   188          7