##TITLE=Library Entry 3426
##JCAMP-DX=Revision 4.10 
##DATA TYPE=MASS SPECTRUM
##SAMPLE DESCRIPTION=Chemical Concepts
##NAMES=HP
##CAS NAME=2-Pyridinemethanamine, N-(diethylboryl)-
##MOLFORM=C10H17BN2
##CAS REGISTRY NO=78558-06-2
##MP= -300
##BP= -300
##MW= 176
##$RETENTION INDEX=0
##$CONDENSED SPECTRUM=NO
##NPOINTS= 106
##XYDATA=(XY..XY) 1 
    25          2
    26         26
    27         98
    28         11
    29         20
    30        262
    31          3
    36          7
    37         31
    38         22
    39         93
    40        245
    41        999
    42         22
    43          0
    44          2
    45          1
    48          0
    49          4
    50         27
    51         62
    52        145
    53         85
    54         10
    55          7
    56          6
    57         21
    58          0
    59         16
    60          3
    61          2
    62          3
    63          9
    64          7
    65         37
    66          7
    67         10
    68        191
    69        748
    70         33
    71          0
    72          3
    73          2
    74          1
    75          3
    76          5
    77          4
    78         58
    79        293
    80        513
    81         26
    82          0
    85          0
    86          1
    87          0
    88          0
    89          0
    90          3
    91          3
    92         16
    93          5
    94          1
    95          0
    97         25
    98        102
    99          6
   102          0
   103          1
   104          5
   105         29
   106          3
   107        241
   108        394
   109         31
   110          1
   111          0
   115          0
   116          4
   117         14
   118         38
   119         19
   120          1
   124          0
   125          1
   128          0
   129          0
   130          4
   131         28
   132         38
   133          6
   134          0
   137          0
   138          1
   139          1
   142          0
   143          0
   144          4
   145         11
   146         60
   147        210
   148         19
   149          0
   175          1
   176          4
   177         17
   178          2