##TITLE=Library Entry 32376
##JCAMP-DX=Revision 4.10 
##DATA TYPE=MASS SPECTRUM
##SAMPLE DESCRIPTION=Chemical Concepts
##NAMES=HP
##CAS NAME=Cyclopropene, 3,3-diethyl-
##MOLFORM=C7H12
##CAS REGISTRY NO=78578-86-6
##MP= -300
##BP= -300
##MW= 96
##$RETENTION INDEX=0
##$CONDENSED SPECTRUM=NO
##NPOINTS= 67
##XYDATA=(XY..XY) 1 
    25          2
    26         24
    27        140
    28         15
    29         95
    30          1
    31          5
    36          0
    37          8
    38         23
    39        272
    40         51
    41        509
    42         81
    43         17
    45          1
    46          0
    47          0
    48          0
    49          3
    50         31
    51         52
    52         24
    53        179
    54        130
    55        225
    56         26
    57          6
    58          0
    59         15
    60          0
    61          4
    62         11
    63         21
    64          0
    65        184
    66         61
    67        999
    68        110
    69         18
    70         14
    71          2
    72          0
    73          0
    74          1
    75          1
    76          0
    77         45
    78          7
    79        189
    80         17
    81        271
    82         17
    83          5
    84          0
    85          0
    86          0
    89          0
    90          0
    91         12
    92          1
    93         25
    94          5
    95         30
    96         30
    97          4
    98          1