##TITLE=Library Entry 69427
##JCAMP-DX=Revision 4.10 
##DATA TYPE=MASS SPECTRUM
##SAMPLE DESCRIPTION=Chemical Concepts
##NAMES=HP
##CAS NAME=Tricyclo[4.3.1.1(2,5)]undec-3-en-10-one, 3-methyl-, (1.alpha.,2.b
eta.,5.beta.,6.alpha.)-
##MOLFORM=C12H16O
##CAS REGISTRY NO=78595-98-9
##MP= -300
##BP= -300
##MW= 176
##$RETENTION INDEX=0
##$CONDENSED SPECTRUM=NO
##NPOINTS= 134
##XYDATA=(XY..XY) 1 
    26          5
    27         95
    28         14
    29         43
    30          1
    31         10
    37          1
    38          6
    39        115
    40         20
    41        136
    42         10
    43         74
    44          8
    45          8
    46          1
    50         12
    51         44
    52         24
    53         57
    54          9
    55        157
    56          7
    57          7
    58          4
    59          4
    60          3
    61          3
    62          3
    63         17
    64          7
    65         64
    66         20
    67        112
    68         15
    69         47
    70         14
    71          3
    72          1
    73          2
    74          3
    75          4
    76          3
    77        181
    78         72
    79        315
    80        212
    81         99
    82         41
    83         15
    84          8
    85          1
    86          0
    87          1
    88          1
    89          6
    90          2
    91        281
    92         61
    93         90
    94        122
    95        126
    96        999
    97        426
    98         63
    99          5
   100          0
   101          1
   102          3
   103         19
   104         11
   105        168
   106         81
   107         73
   108         18
   109          6
   110          2
   111          1
   112          0
   113          0
   114          0
   115         23
   116          6
   117         31
   118          8
   119         78
   120         88
   121         36
   122          7
   123          1
   124          0
   125          1
   126          0
   127          3
   128         13
   129         20
   130         17
   131         15
   132         12
   133        157
   134         26
   135         12
   136          2
   137          1
   138          0
   139          0
   140          0
   141          2
   142          4
   143         36
   144          3
   145          5
   146          2
   147         47
   148         80
   149         13
   150          0
   151          0
   152          0
   153          0
   154          0
   155          0
   156          0
   157          8
   158         14
   159          5
   161         57
   162          7
   174          0
   175         13
   176        213
   177         35
   178          8
   179          1