##TITLE=Library Entry 69428
##JCAMP-DX=Revision 4.10 
##DATA TYPE=MASS SPECTRUM
##SAMPLE DESCRIPTION=Chemical Concepts
##NAMES=HP
##CAS NAME=Tricyclo[4.3.1.1(2,5)]undec-3-en-10-one, 5-methyl-, (1.alpha.,2.b
eta.,5.beta.,6.alpha.)-
##MOLFORM=C12H16O
##CAS REGISTRY NO=78595-99-0
##MP= -300
##BP= -300
##MW= 176
##$RETENTION INDEX=0
##$CONDENSED SPECTRUM=NO
##NPOINTS= 104
##XYDATA=(XY..XY) 1 
    26          1
    27         38
    28          6
    29         15
    38          2
    39         54
    40         10
    41         76
    42          4
    43         26
    44          0
    50          6
    51         26
    52         12
    53         32
    54          4
    55         97
    56          4
    57          6
    58          2
    59          1
    62          1
    63          8
    64          4
    65         35
    66         12
    67         56
    68          8
    69         25
    70          3
    71          3
    73          0
    74          0
    75          2
    76          1
    77        116
    78         35
    79        207
    80        157
    81         63
    82         22
    83          7
    84          6
    85          1
    89          3
    90          1
    91        156
    92         35
    93         53
    94         61
    95         74
    96        999
    97        293
    98         32
    99          1
   102          1
   103         11
   104          5
   105        128
   106         49
   107         49
   108         10
   109          3
   110          1
   111          0
   115         12
   116          4
   117         18
   118          4
   119         42
   120         38
   121         23
   122          4
   123          1
   127          2
   128          7
   129          9
   130         11
   131          8
   132          7
   133         93
   134         18
   135          7
   136          0
   141          2
   142          2
   143         23
   144          2
   145          2
   146          1
   147         30
   148         46
   149          8
   150          0
   157          6
   158         10
   159          2
   160          0
   161         34
   162          4
   175          9
   176        110
   177         15
   178          1