##TITLE=Library Entry 54334
##JCAMP-DX=Revision 4.10 
##DATA TYPE=MASS SPECTRUM
##SAMPLE DESCRIPTION=Tox21 Consortium/NIST Mass Spectrometry Data Center, 20
12
##NAMES=HP
##CAS NAME=2-Oxo-2-({3-[3-(piperidin-1-ylmethyl)phenoxy]propyl}amino)ethyl a
cetate
##MOLFORM=C19H28N2O4
##CAS REGISTRY NO=78628-28-1
##MP= -300
##BP= -300
##MW= 348
##$RETENTION INDEX=0
##$CONDENSED SPECTRUM=NO
##NPOINTS= 184
##XYDATA=(XY..XY) 1 
    15          5
    26          1
    27         10
    28         29
    29         19
    30         51
    31          7
    38          1
    39         19
    40          4
    41         87
    42        101
    43        323
    44         35
    45          5
    50          2
    51         11
    52         12
    53         12
    54         13
    55         83
    56        100
    57         17
    58         64
    59          9
    60         11
    61          1
    62          1
    63          7
    64          4
    65         12
    66          3
    67          7
    68         11
    69         19
    70         20
    71          7
    72          5
    73         47
    74         17
    75          2
    76          7
    77         84
    78         80
    79         69
    80         11
    81          4
    82         92
    83         27
    84        999
    85         59
    86         13
    87          2
    88         25
    89         32
    90         36
    91         60
    92         10
    93          8
    94          5
    95          2
    96         15
    97         10
    98        439
    99         33
   100         23
   101         70
   103          9
   104          8
   105         23
   106         20
   107        235
   108         42
   109          8
   110          1
   112          1
   114         42
   115         11
   116        367
   117         36
   118         12
   119         23
   120         17
   121         17
   122          5
   123          1
   124          1
   127          1
   128          4
   129          3
   130         12
   131          6
   132         14
   133         44
   134         35
   135         10
   136          4
   137          1
   142          1
   143          1
   144          3
   145         13
   146         29
   147         62
   148         26
   149          7
   150          1
   156          1
   158        912
   159         73
   160         21
   161          8
   162         34
   163          6
   164          5
   165          2
   166          1
   171          1
   172          4
   173         12
   174         11
   175          3
   176          3
   186          1
   187          2
   188         15
   189         68
   190         78
   191         35
   192          5
   193          1
   200          2
   201          1
   202         46
   203          8
   204          6
   205          2
   214          2
   215          2
   216         22
   217          4
   218          3
   219          1
   220          1
   222         29
   223          4
   224          1
   228          3
   229         10
   230          4
   231          1
   245          2
   246          1
   247          2
   249          1
   257          1
   259          4
   260          1
   263          1
   265          2
   273          5
   274          1
   275         10
   276          2
   277          1
   279          1
   287          1
   288          1
   289          1
   291          1
   293          1
   303          2
   305         19
   306          6
   307          1
   319          6
   320          1
   333          4
   334          1
   346          1
   347         49
   348        102
   349         19
   350          3