##TITLE=Library Entry 68637
##JCAMP-DX=Revision 4.10 
##DATA TYPE=MASS SPECTRUM
##SAMPLE DESCRIPTION=Chemical Concepts
##NAMES=HP
##CAS NAME=4,2,8-Ethanylylidene-2H-1-benzopyran-10-one, 6-chloro-3,4,4a,7,8,
8a-hexahydro-7-hydroxy-, (2.alpha.,4.alpha.,4a.beta.,7.beta.,8.alpha.,8 a.be
ta.,9R*)-
##MOLFORM=C11H11ClO3
##CAS REGISTRY NO=78630-84-9
##MP= -300
##BP= -300
##MW= 226
##$RETENTION INDEX=0
##$CONDENSED SPECTRUM=NO
##NPOINTS= 153
##XYDATA=(XY..XY) 1 
    26         23
    27        231
    28         20
    29         93
    31         20
    37          9
    38         39
    39        310
    40         62
    41        131
    42         23
    43         40
    44          5
    45          8
    47          6
    49         13
    50         57
    51        196
    52         59
    53        142
    54         31
    55        224
    56         39
    57         39
    58         10
    60          8
    61         16
    62         28
    63        100
    64         35
    65        184
    66        139
    67        191
    68        100
    69         65
    70         21
    71         26
    72          7
    73         39
    74         21
    75         56
    76         16
    77        298
    78         74
    79        125
    80         35
    81        395
    82        285
    83        488
    84         39
    85         26
    86         12
    87         19
    88         10
    89         61
    90         22
    91        129
    92         23
    93         31
    94         84
    95        999
    97         35
    98         18
    99         29
   100         27
   101         28
   102         29
   103         56
   104         19
   105         58
   106         13
   107         65
   108         13
   109         15
   110         31
   111         11
   113         19
   114         12
   115        144
   116         53
   117         77
   118         22
   119         37
   120         11
   121         13
   122         11
   123         25
   124          7
   125         33
   126          8
   127         31
   128        100
   129         52
   130        761
   131         83
   132        250
   133         40
   134          8
   135         14
   136          5
   137         14
   138          6
   139         10
   140          6
   141         43
   142         13
   143         23
   144        278
   145        108
   146         96
   147         63
   148          9
   149         15
   151         13
   152         11
   153         24
   154         26
   155         17
   156         10
   157         11
   158         25
   160          9
   161         22
   162          9
   163         21
   165         20
   166         14
   167         13
   168          5
   169          9
   170         16
   171          6
   172          9
   173         26
   179         23
   180         13
   181         15
   182         14
   183          9
   184          5
   190          9
   191         59
   192          8
   197         10
   198          5
   199          4
   207         28
   208         10
   210         10
   226        239
   227         35
   228         82
   229         11