##TITLE=Library Entry 61910
##JCAMP-DX=Revision 4.10 
##DATA TYPE=MASS SPECTRUM
##SAMPLE DESCRIPTION=Chemical Concepts
##NAMES=HP
##CAS NAME=12-Oxatetracyclo[5.2.1.1(2,6).1(9,11)]dodec-4-en-10-one, 4-chloro
-
##MOLFORM=C11H11ClO2
##CAS REGISTRY NO=78630-89-4
##MP= -300
##BP= -300
##MW= 210
##$RETENTION INDEX=0
##$CONDENSED SPECTRUM=NO
##NPOINTS= 165
##XYDATA=(XY..XY) 1 
    25          3
    26         37
    27        316
    28        132
    29         84
    30          4
    31         10
    35          3
    36         27
    37         13
    38         67
    39        536
    40         83
    41        246
    42         48
    43         73
    44        187
    45         16
    46          4
    47          4
    48          2
    49         27
    50        100
    51        333
    52        105
    53        184
    54         68
    55        249
    56         22
    57         93
    58         38
    59          9
    60         12
    61         31
    62         49
    63        148
    64         53
    65        255
    66         90
    67         34
    68        325
    69        333
    70         92
    71         39
    72         16
    73         59
    74         24
    75         96
    76         23
    77        486
    78        136
    79        580
    80         72
    81        444
    82        685
    83         84
    84         27
    85         20
    86         14
    87         30
    88         11
    89         89
    90         29
    91        999
    92        114
    93         39
    94        122
    95         38
    96          8
    97         65
    98         22
    99         39
   100        133
   101         47
   102         81
   103        148
   104         44
   105        111
   106         17
   107        140
   108         28
   109          7
   110         23
   111         43
   112         94
   113        119
   114        354
   115        249
   116        164
   117        208
   118         42
   119         83
   120         11
   121         16
   122         23
   123          6
   124          3
   125        135
   126        752
   127        158
   128        378
   129        684
   130         91
   131        294
   132         51
   133         67
   134          8
   135          8
   136          5
   137         12
   138         85
   139         42
   140         38
   141         55
   142        108
   143         23
   144         38
   145         46
   146         25
   147        126
   148         16
   149         12
   150         10
   151         29
   152         12
   153         43
   154         40
   155         23
   156         16
   157         47
   158          7
   159          2
   160          2
   161          2
   162          2
   163         17
   164         79
   165        104
   166        124
   167         70
   168         72
   169         17
   170         16
   171          3
   173          2
   174          8
   175         55
   176          9
   179          4
   180          2
   181         31
   182         24
   183         11
   184          9
   185          3
   191          4
   192         33
   193          8
   194         10
   195          5
   210        539
   211         76
   212        185
   213         25
   214          3