##TITLE=Library Entry 1065
##JCAMP-DX=Revision 4.10 
##DATA TYPE=MASS SPECTRUM
##SAMPLE DESCRIPTION=A.A.Kutin, Moscow, Russia
##NAMES=HP
##CAS NAME=Furazanamine, 4,4'-azoxybis-
##MOLFORM=C4H4N8O3
##CAS REGISTRY NO=78644-89-0
##MP= -300
##BP= -300
##MW= 212
##$RETENTION INDEX=0
##$CONDENSED SPECTRUM=NO
##NPOINTS= 98
##XYDATA=(XY..XY) 1 
    30        999
    32        395
    33          6
    34          2
    36          0
    38         19
    39         16
    40         60
    41         54
    42        142
    43         85
    44         35
    45          4
    46          1
    47          1
    50          0
    51          1
    53        645
    54        921
    55        103
    57         29
    58         98
    59          7
    60          1
    63          0
    64          0
    66          7
    67         23
    68        126
    69         23
    70         84
    72         40
    73          1
    76          0
    77          1
    78          1
    79          1
    80          7
    81          2
    82          5
    84        169
    85         17
    86          1
    87          0
    88          0
    89          0
    91          1
    92          0
    94        172
    95         43
    96          2
    97          1
    98          2
    99          7
   100         51
   101          2
   102          0
   104          0
   105          1
   106          0
   107          0
   108          0
   109          1
   112        335
   113         11
   114          1
   115          0
   117          0
   120         13
   122        241
   123         13
   124          1
   125          3
   128          1
   129         17
   130          1
   135          9
   136          0
   149          0
   150          1
   151          3
   152        120
   153          8
   154          0
   155          2
   171          0
   182         14
   183          0
   194          0
   195          1
   196         61
   197          4
   198          0
   210          0
   211          1
   212         65
   213          5
   214          0