##TITLE=Library Entry 89775
##JCAMP-DX=Revision 4.10 
##DATA TYPE=MASS SPECTRUM
##SAMPLE DESCRIPTION=A.A.Kutin, Moscow, Russia
##NAMES=HP
##CAS NAME=3,3'-Azofurazan, 4,4'-diamino-
##MOLFORM=C4H4N8O2
##CAS REGISTRY NO=78644-90-3
##MP= -300
##BP= -300
##MW= 196
##$RETENTION INDEX=0
##$CONDENSED SPECTRUM=NO
##NPOINTS= 100
##XYDATA=(XY..XY) 1 
    33          4
    34          0
    35          0
    36          2
    38          9
    39          9
    40         17
    41         29
    42         71
    43         25
    44          7
    45          0
    50          0
    52         11
    53        262
    54        524
    55         46
    56          3
    57          5
    58         27
    59          3
    60          0
    64          0
    65          0
    66          5
    67          6
    68         33
    69          4
    70         11
    71          1
    72         10
    73          2
    74          0
    75          0
    76          0
    77          0
    78          1
    79          0
    80          0
    81          1
    82          5
    84        191
    85         12
    86          1
    89          0
    91          0
    92          0
    93          0
    94          0
    95          0
    96          0
    97          1
    98          1
    99          0
   100          2
   101          0
   102          0
   103          0
   104          0
   105          0
   108          0
   109          4
   112        999
   113         41
   114          3
   115          0
   116          0
   118          0
   119          0
   120          0
   121          0
   123          0
   124          2
   125          0
   126          1
   127          0
   129          0
   135          1
   136          0
   137          0
   138          1
   139          1
   141          0
   142          0
   146          1
   148          0
   149          0
   150          0
   152          0
   165          0
   166          0
   171          0
   178          0
   181          0
   189          0
   194          2
   196        546
   197         39
   198          3
   199          0