##TITLE=Library Entry 8558
##JCAMP-DX=Revision 4.10 
##DATA TYPE=MASS SPECTRUM
##SAMPLE DESCRIPTION=Chemical Concepts
##NAMES=HP
##CAS NAME=2-Pentanone, 3-[(acetyloxy)methyl]-3,4-dimethyl-, (.+-.)-
##MOLFORM=C10H18O3
##CAS REGISTRY NO=78641-04-0
##MP= -300
##BP= -300
##MW= 186
##$RETENTION INDEX=0
##$CONDENSED SPECTRUM=NO
##NPOINTS= 98
##XYDATA=(XY..XY) 1 
    26          2
    27         60
    28         10
    29         47
    30          1
    31          7
    38          3
    39         75
    40         14
    41        207
    42         34
    43        999
    44         28
    45         18
    50          3
    51          8
    52          3
    53         28
    54          8
    55        253
    56         49
    57         30
    58          4
    59         12
    60          1
    61         12
    62          1
    63          2
    64          1
    65          8
    66          4
    67         39
    68         11
    69        617
    70         42
    71         15
    72          3
    73         12
    74          2
    75          1
    76          2
    77          7
    78          1
    79          5
    80          1
    81         10
    82         13
    83        381
    84        439
    85         72
    86          5
    87          3
    88          1
    91          4
    92          1
    93          3
    94          1
    95          5
    96          2
    97          6
    98          3
    99         76
   100         15
   101         31
   102          4
   103         25
   104          3
   105          2
   106          1
   107          2
   108          4
   109          4
   110          2
   111         64
   112          5
   113          4
   114         18
   115          5
   116          1
   117          2
   119          2
   121          1
   124          2
   125          4
   126         22
   127          9
   128          2
   129          4
   130          1
   133          1
   135          1
   141          4
   142          1
   143          3
   144         14
   145          2
   155          1
   157          1