##TITLE=Library Entry 46054
##JCAMP-DX=Revision 4.10 
##DATA TYPE=MASS SPECTRUM
##SAMPLE DESCRIPTION=A.A.Kutin, Moscow, Russia
##NAMES=HP
##CAS NAME=2H-Indol-2-one, 1,3-dihydro-3-(4-nitrophenylimino)-
##MOLFORM=C14H9N3O3
##CAS REGISTRY NO=78662-38-1
##MP= -300
##BP= -300
##MW= 267
##$RETENTION INDEX=0
##$CONDENSED SPECTRUM=NO
##NPOINTS= 87
##XYDATA=(XY..XY) 1 
    33         46
    37         61
    38        152
    39        219
    40        140
    41         37
    43         28
    45         21
    46         70
    48          2
    50        922
    51        145
    52        121
    53         30
    54          2
    56          5
    61         31
    62        148
    63        353
    64        257
    65        158
    75        999
    76        701
    77         78
    78         14
    80         19
    86          8
    87         18
    88         42
    89         89
    90        243
    91         93
    92         81
    93          6
    99          7
   100          8
   102        136
   103         31
   104          5
   108         19
   113          2
   114         19
   115         35
   116         45
   117        184
   118         76
   119         81
   122         21
   127         29
   128         41
   129         15
   137          1
   138         39
   139        120
   140         90
   141         10
   145        163
   146          2
   147          3
   152         22
   154         28
   164         63
   165         71
   166        151
   167         33
   177          4
   179         14
   181         56
   182         60
   190          8
   191         22
   192        243
   193        461
   194         56
   208          8
   209         34
   212         30
   220         18
   236         25
   237         44
   239        984
   240         88
   241         17
   264          8
   265         14
   267        478
   268         62