##TITLE=Library Entry 76324
##JCAMP-DX=Revision 4.10 
##DATA TYPE=MASS SPECTRUM
##SAMPLE DESCRIPTION=Chemical Concepts
##NAMES=HP
##CAS NAME=Butane, 4-bromo-1,1-diethoxy-
##MOLFORM=C8H17BrO2
##CAS REGISTRY NO=78668-96-9
##MP= -300
##BP= -300
##MW= 224
##$RETENTION INDEX=0
##$CONDENSED SPECTRUM=NO
##NPOINTS= 109
##XYDATA=(XY..XY) 1 
    26         21
    27        221
    28          9
    29        346
    30          9
    31         67
    36          0
    37          1
    38          2
    39         59
    40          9
    41        208
    42         41
    43        337
    44        123
    45         75
    46          2
    47        832
    48          9
    49          3
    50          1
    51          2
    52          1
    53         18
    54          2
    55          9
    56          0
    57         34
    58          2
    59          4
    60          3
    61          5
    62          0
    64          1
    66          0
    67          0
    68          0
    69          8
    70          4
    71        453
    72         53
    73          7
    74          2
    75        480
    76         16
    77          2
    79          1
    80          1
    81          0
    82          1
    83          0
    85         13
    86          0
    87          9
    88          0
    89          4
    92          0
    93          4
    94          0
    95          5
    98          0
    99         18
   100          2
   101          1
   102          1
   103        999
   104         56
   105          5
   106          3
   107          9
   108          2
   109          9
   110          0
   111          0
   115          0
   116          1
   117          0
   119          0
   121          9
   122          0
   123          9
   124          0
   125          1
   133          5
   134          0
   135          4
   136          0
   137          0
   145          0
   149          4
   150          0
   151        179
   152          8
   153        162
   154          6
   155          0
   165          0
   167          4
   169          3
   177          0
   178          2
   179        296
   180         25
   181        312
   182         19
   183          1
   223          2
   225          2
   229          0