##TITLE=Library Entry 45290
##JCAMP-DX=Revision 4.10 
##DATA TYPE=MASS SPECTRUM
##SAMPLE DESCRIPTION=NIST Mass Spectrometry Data Center
##NAMES=HP
##CAS NAME=9-Octadecen-1-ol, (Z)-, TMS derivative
##MOLFORM=C21H44OSi
##CAS REGISTRY NO=78695-25-7
##MP= -300
##BP= -300
##MW= 340
##$RETENTION INDEX=2126
##$CONDENSED SPECTRUM=NO
##NPOINTS= 202
##XYDATA=(XY..XY) 1 
    26          1
    27         14
    28          1
    29         40
    30          1
    31          1
    38          1
    39         25
    40          6
    41        185
    42         37
    43        152
    44         10
    45         35
    46          3
    47         22
    48          1
    49          1
    50          1
    51          2
    52          2
    53         26
    54         79
    55        309
    56         78
    57        117
    58         19
    59         57
    60          9
    61         64
    62          4
    63          3
    65          9
    66         25
    67        245
    68        120
    69        210
    70         54
    71         33
    72         19
    73        468
    74         50
    75        999
    76         77
    77         54
    78          9
    79         45
    80         32
    81        315
    82        414
    83        216
    84         26
    85         32
    86          4
    87         25
    88         11
    89        114
    90         11
    91        149
    92         18
    93         27
    94         18
    95        338
    96        427
    97        188
    98         20
    99         42
   100          6
   101         87
   102         11
   103        247
   104         24
   105         12
   106          2
   107         10
   108          9
   109        219
   110        201
   111         76
   112         10
   113         24
   114          4
   115         59
   116         19
   117          8
   118          1
   119          1
   120          1
   121          9
   122         10
   123        141
   124        148
   125         35
   126          6
   127         22
   129        234
   130         29
   131         12
   132          1
   133          1
   135          6
   136          6
   137         77
   138         79
   139         17
   140          4
   141         17
   142          3
   143         67
   144          9
   145          4
   149          2
   150          2
   151         33
   152         40
   153         10
   154          3
   155          8
   156          2
   157         29
   158          5
   159          2
   163          1
   165         14
   166         20
   167          6
   168          5
   169          7
   170          1
   171         38
   172          6
   173          2
   179          8
   180         10
   181          4
   182          2
   183          4
   185         62
   186         10
   187          4
   193          9
   194         11
   195          3
   196          1
   197          3
   198          1
   199         20
   200          4
   201          1
   207          5
   208          6
   209          2
   211          2
   213         11
   214          2
   215          1
   221          4
   222         10
   223          2
   225          1
   227         10
   228          2
   229          1
   235          1
   237          1
   239          1
   241         12
   242          2
   243          1
   247          1
   249         16
   250         39
   251          8
   252          1
   253          1
   255          6
   256          1
   267          1
   269         12
   270          3
   271          1
   279          1
   283          7
   284          2
   295          2
   297         55
   298         14
   299          4
   307          2
   308          1
   309          2
   311          2
   312          1
   325        263
   326         76
   327         20
   328          3
   339          3
   340         77
   341         22
   342          6
   343          1