##TITLE=Library Entry 25779
##JCAMP-DX=Revision 4.10 
##DATA TYPE=MASS SPECTRUM
##SAMPLE DESCRIPTION=ASES Database, Dalian Institute, P.R. China
##NAMES=HP
##CAS NAME=Dihydrophytol, TMS derivative
##MOLFORM=C23H50OSi
##CAS REGISTRY NO=78695-20-2
##MP= -300
##BP= -300
##MW= 370
##$RETENTION INDEX=0
##$CONDENSED SPECTRUM=NO
##NPOINTS= 50
##XYDATA=(XY..XY) 1 
    29        100
    41        249
    43        493
    55        421
    57        999
    59         73
    61        100
    69        592
    70        196
    71        647
    72         29
    73        629
    74         49
    75        538
    76         50
    81        150
    82         48
    83        655
    84         83
    85        350
    89        423
    91         64
    95         99
    96         49
    97        620
    98         64
    99        148
   101         50
   103        546
   104         49
   111        530
   112         84
   113        124
   123         74
   125        272
   126         99
   127         98
   139         98
   140         49
   141         49
   143         94
   153         54
   167         25
   169          9
   181         10
   182         10
   196         14
   252          9
   355        332
   356        114