##TITLE=Library Entry 78702
##JCAMP-DX=Revision 4.10 
##DATA TYPE=MASS SPECTRUM
##SAMPLE DESCRIPTION=NIST Mass Spectrometry Data Center, 1994
##NAMES=HP
##CAS NAME=Benzoic acid, 2-benzoylhydrazide
##MOLFORM=C14H12N2O2
##CAS REGISTRY NO=787-84-8
##MP= -300
##BP= -300
##MW= 240
##$RETENTION INDEX=0
##$CONDENSED SPECTRUM=NO
##NPOINTS= 36
##XYDATA=(XY..XY) 1 
    15          3
    18          5
    27         19
    28          4
    29          8
    38         10
    39         26
    44          6
    49          4
    50         66
    51        215
    52         16
    62          6
    63         13
    64          6
    65          5
    73          6
    74         19
    75         16
    76         41
    77        543
    78         40
    79          3
   103          9
   105        999
   106         79
   107          5
   135          4
   165         26
   166         11
   207          2
   221          3
   222         21
   223          4
   240         94
   241         15