##TITLE=Library Entry 3164
##JCAMP-DX=Revision 4.10 
##DATA TYPE=MASS SPECTRUM
##SAMPLE DESCRIPTION=Chemical Concepts
##NAMES=HP
##CAS NAME=2,8-Nonadienoic acid, methyl ester
##MOLFORM=C10H16O2
##CAS REGISTRY NO=78709-46-3
##MP= -300
##BP= -300
##MW= 168
##$RETENTION INDEX=0
##$CONDENSED SPECTRUM=NO
##NPOINTS= 128
##XYDATA=(XY..XY) 1 
    23          0
    24          0
    25          0
    26         23
    27        283
    28         64
    29        168
    30          4
    31         32
    32          4
    33          4
    35          0
    36          0
    37          4
    38         21
    39        431
    40        118
    41        999
    42         66
    43         69
    44         10
    45         35
    46          2
    47          1
    48          1
    49          0
    50         13
    51         36
    52         22
    53        197
    54        286
    55        423
    56         36
    57         15
    58         11
    59        266
    60         11
    61          7
    62          2
    63          8
    64          2
    65         46
    66         60
    67        697
    68        244
    69        161
    70         13
    71        100
    72         18
    73          5
    74         95
    75         26
    76          2
    77         32
    78         16
    79        222
    80        101
    81        329
    82        280
    83         33
    84         38
    85         78
    86          6
    87        290
    88         18
    89          2
    90          0
    91         24
    92         38
    93        108
    94        329
    95        173
    96         16
    97         53
    98         22
    99         29
   100        248
   101         28
   102          3
   103          2
   104          1
   105          5
   106          2
   107         49
   108        198
   109        238
   110         23
   111        182
   112         85
   113        156
   114         45
   115          4
   116          1
   117          4
   118          6
   119          5
   120          1
   121         27
   122          3
   123          1
   124          1
   125         73
   126         33
   127         29
   128          3
   129          0
   131          0
   132          0
   133          0
   134          1
   135         12
   136         56
   137        184
   138         20
   139         37
   140         39
   141          3
   142          0
   150          0
   151          4
   152          0
   153         29
   154          3
   162          0
   167          9
   168         29
   169          4
   170          0