##TITLE=Library Entry 63665
##JCAMP-DX=Revision 4.10 
##DATA TYPE=MASS SPECTRUM
##SAMPLE DESCRIPTION=Chemical Concepts
##NAMES=HP
##CAS NAME=Ethylenediamine, N,N,N'-tribenzyl-
##MOLFORM=C23H26N2
##CAS REGISTRY NO=78774-31-9
##MP= -300
##BP= -300
##MW= 330
##$RETENTION INDEX=0
##$CONDENSED SPECTRUM=NO
##NPOINTS= 98
##XYDATA=(XY..XY) 1 
    26          0
    27          2
    28          4
    29          0
    30         22
    31          0
    39         15
    40          1
    41         10
    42         34
    43          3
    44          7
    50          1
    51          7
    52          2
    53          0
    54          0
    55          0
    56          0
    57          0
    58          0
    62          0
    63          7
    64          2
    65         70
    66          4
    67          0
    69          0
    71          0
    74          0
    75          0
    76          0
    77          5
    78          1
    79          2
    80          0
    89         11
    90          7
    91        999
    92         82
    93          2
   103          0
   104          4
   105          3
   106          9
   107          1
   115          0
   116          1
   117          3
   118         21
   119          2
   120         59
   121          7
   122          0
   129          0
   130          0
   132          4
   133          0
   134         15
   135          3
   141          0
   147          0
   148          0
   149         59
   150          7
   151          0
   152          0
   153          0
   163          0
   165          2
   166          1
   167          0
   178          0
   179          0
   180          0
   181         36
   182          6
   183          0
   194          0
   196          2
   197          0
   208          2
   209          2
   210        476
   211         92
   212          9
   213          0
   222          0
   224          0
   225          0
   237          0
   239         86
   240         17
   241          2
   280          0
   329          1
   330          2
   331          0