##TITLE=Library Entry 77896
##JCAMP-DX=Revision 4.10 
##DATA TYPE=MASS SPECTRUM
##SAMPLE DESCRIPTION=Japan AIST/NIMC Database- Spectrum MS-IW-7744
##NAMES=HP
##CAS NAME=p-Bis((phenylseleno)methyl)benzene
##MOLFORM=C20H18Se2
##CAS REGISTRY NO=78808-35-2
##MP= -300
##BP= -300
##MW= 418
##$RETENTION INDEX=0
##$CONDENSED SPECTRUM=NO
##NPOINTS= 121
##XYDATA=(XY..XY) 1 
    27          3
    38          1
    39         19
    41          1
    50         14
    51         42
    52         10
    53          2
    62          1
    63          9
    64          2
    65         15
    66          1
    74          5
    75          7
    76         10
    77        102
    78        105
    79          8
    84          3
    86          1
    89          5
    90          1
    91         14
    92          1
    93          2
   101          1
   102         13
   103        116
   104        999
   105         93
   106          4
   107          2
   109          1
   110          2
   113          1
   114          1
   115          4
   116          1
   117          9
   119          2
   127          1
   128          1
   129          2
   130          2
   131          2
   151          2
   152          6
   153         15
   154         48
   155         38
   156          9
   157         75
   158         12
   159         13
   160          2
   165          7
   166          1
   167          1
   169          1
   177          1
   178          8
   179          8
   180         20
   181          9
   182          4
   183          5
   184          6
   185          2
   186          2
   207          2
   208          3
   209          3
   210          1
   213          1
   228          1
   229          1
   230          7
   231          7
   232         16
   233          7
   234         29
   235          5
   236          6
   237          2
   255          7
   256          1
   257         71
   258         68
   259        190
   260         29
   261        376
   262         57
   263         70
   264         10
   306          6
   307          7
   308         28
   309         20
   310         71
   311         44
   312        122
   313         21
   314        137
   315         17
   316         41
   317          5
   318          4
   410          2
   411          3
   412         10
   413          9
   414         28
   415         19
   416         49
   417         12
   418         53
   419         11
   420         16
   421          3
   422          1