##TITLE=Library Entry 28056
##JCAMP-DX=Revision 4.10 
##DATA TYPE=MASS SPECTRUM
##SAMPLE DESCRIPTION=N. DE KIMPE, LAB. ORG. CHEM., UNIV. GENT, BELGIUM
##NAMES=HP
##CAS NAME=Methyl N-isopropyl-3-phenylpropanimidate
##MOLFORM=C13H19NO
##CAS REGISTRY NO=78827-39-1
##MP= -300
##BP= -300
##MW= 205
##$RETENTION INDEX=0
##$CONDENSED SPECTRUM=NO
##NPOINTS= 24
##XYDATA=(XY..XY) 1 
    40         70
    41        310
    42        210
    43        560
    44        610
    51        110
    57         60
    58        999
    59         80
    60         60
    65        110
    77         80
    78         60
    86        120
    91        450
   100         80
   103         30
   104         60
   105         60
   114         60
   131         40
   132         30
   190        110
   205        190