##TITLE=Library Entry 55413
##JCAMP-DX=Revision 4.10 
##DATA TYPE=MASS SPECTRUM
##SAMPLE DESCRIPTION=V.G.Zaikin, TIPS, Russian Acad. Sci.
##NAMES=HP
##CAS NAME=Diethylvinyl(1-mercaptoethyl)silane
##MOLFORM=C8H18SSi
##CAS REGISTRY NO=78859-25-3
##MP= -300
##BP= -300
##MW= 174
##$RETENTION INDEX=0
##$CONDENSED SPECTRUM=NO
##NPOINTS= 66
##XYDATA=(XY..XY) 1 
    43        114
    44         66
    45        125
    53         31
    55        212
    56         62
    57        551
    58         66
    59        212
    60         45
    61         90
    62         20
    63        173
    64         31
    65        177
    66        104
    67         38
    70         31
    71         49
    73         97
    75         45
    77         45
    78         55
    79         38
    80         20
    81        104
    82         35
    83        312
    84         55
    85        999
    86        128
    87        180
    88         55
    89        205
    90         69
    91        447
    92         56
    93        340
    95        111
   101        101
   103         66
   105         45
   107         35
   110         49
   111        170
   112         42
   113        933
   114        121
   115        180
   117        215
   118         94
   119        749
   120        146
   121        409
   122         66
   123         97
   144         42
   145        551
   146         83
   147         60
   173         52
   174        413
   175         64
   176         35
   177          4
   178          1