##TITLE=Library Entry 18153
##JCAMP-DX=Revision 4.10 
##DATA TYPE=MASS SPECTRUM
##SAMPLE DESCRIPTION=Chemical Concepts
##NAMES=HP
##CAS NAME=Propanal, 2-(benzoyloxy)-, (R)-
##MOLFORM=C10H10O3
##CAS REGISTRY NO=78871-04-2
##MP= -300
##BP= -300
##MW= 178
##$RETENTION INDEX=0
##$CONDENSED SPECTRUM=NO
##NPOINTS= 77
##XYDATA=(XY..XY) 1 
    25         10
    26         95
    27        322
    28        143
    29        329
    30         13
    31         19
    36          3
    37         23
    38         57
    39        157
    40         14
    41         31
    42         27
    43        194
    44         38
    45         81
    46         11
    47          2
    49         21
    50        375
    51        999
    52         77
    53         21
    54          7
    55         39
    56        149
    57         20
    58          6
    59          5
    60         10
    61         10
    62         12
    63         10
    64          3
    65         17
    66          7
    67          5
    68          3
    69          8
    70          4
    71          8
    72          2
    73         15
    74         46
    75         39
    76         61
    77        947
    78         82
    79         10
    81          4
    82          2
    83          8
    84          3
    85          3
    87          2
    90          2
    91          6
    92          2
    93          3
    94          4
   103          2
   104          9
   105        825
   106         80
   107          6
   121          2
   122         30
   123          4
   132          3
   135          4
   148          5
   149         21
   150         19
   151          3
   177          1
   178          1