##TITLE=Library Entry 87138
##JCAMP-DX=Revision 4.10 
##DATA TYPE=MASS SPECTRUM
##SAMPLE DESCRIPTION=NIST Mass Spectrometry Data Center
##NAMES=HP
##CAS NAME=Norapoatropine
##MOLFORM=C16H19NO2
##CAS REGISTRY NO=78886-97-2
##MP= -300
##BP= -300
##MW= 257
##$RETENTION INDEX=2161
##$CONDENSED SPECTRUM=NO
##NPOINTS= 56
##XYDATA=(XY..XY) 1 
    27          9
    29         19
    30          8
    39         27
    41         83
    42         45
    43         62
    45          8
    50          8
    51         25
    53         31
    54         32
    55        143
    56         59
    57         85
    65         20
    67        210
    68        231
    69        148
    70         59
    72          7
    76         16
    77        113
    78         19
    80        189
    81        167
    82        199
    83        216
    84         31
    92         12
    95         82
    97         47
    98         15
    99         10
   101          8
   102         38
   103        181
   104         23
   106         11
   109         79
   110        999
   111        103
   112         14
   126         39
   137         26
   148         23
   150         14
   152          5
   154         18
   165          5
   172          5
   193         13
   210         16
   213          5
   257         96
   258         20