##TITLE=Library Entry 50571
##JCAMP-DX=Revision 4.10 
##DATA TYPE=MASS SPECTRUM
##SAMPLE DESCRIPTION=OGDEN BioServices Corp., NCI, Rockville, MD 20852
##NAMES=HP
##CAS NAME=Guanosine, 2'-deoxy-6-thio-
##MOLFORM=C10H13N5O3S
##CAS REGISTRY NO=789-61-7
##MP= -300
##BP= -300
##MW= 283
##$RETENTION INDEX=0
##$CONDENSED SPECTRUM=NO
##NPOINTS= 142
##XYDATA=(XY..XY) 1 
    41        460
    42        600
    43        328
    44        198
    45        168
    46          3
    47         31
    49         45
    50        116
    51        160
    52         97
    53        413
    54         61
    55        126
    56         33
    57        162
    58         21
    59         21
    60         40
    61         28
    62          6
    63          3
    64          5
    65         15
    66         18
    67         22
    68        151
    69        305
    70        285
    71         87
    72         19
    73        134
    74         20
    75          6
    77          4
    78          3
    79         14
    81        999
    82        130
    83         23
    84         12
    85         59
    86         14
    87         11
    88          2
    89          1
    91          4
    92         13
    93          3
    94          6
    95         47
    97        355
    98        624
    99        143
   100         10
   101          4
   103          8
   106          3
   107         30
   108         18
   109         33
   110          5
   111          4
   112         16
   113          7
   114         11
   115         20
   116         14
   117        244
   118          4
   119          6
   121          2
   123         12
   124          5
   125         60
   126         13
   127          5
   128          2
   129          2
   131          4
   133         11
   134         62
   135          9
   136          6
   137          1
   138          0
   139         32
   140          5
   141          3
   143          3
   144          2
   145          3
   147          2
   149          1
   150         15
   151          6
   152          2
   153          1
   154          0
   155          1
   165          1
   166          6
   167        299
   168         33
   169         17
   170          1
   171          0
   173          2
   178          1
   179          1
   180          1
   181          0
   183          2
   186          2
   189          1
   190          0
   192          4
   193          2
   194          3
   195          1
   196          2
   197          8
   201          2
   202          2
   203          1
   204          2
   206          9
   207          2
   214         20
   215          4
   216          1
   217          1
   218         10
   219          6
   228          1
   229          5
   230          0
   247         20
   248          3
   264          1
   265          3
   283          1