##TITLE=Library Entry 76473
##JCAMP-DX=Revision 4.10 
##DATA TYPE=MASS SPECTRUM
##SAMPLE DESCRIPTION=Japan AIST/NIMC Database- Spectrum MS-NW-9608
##NAMES=HP
##CAS NAME=Phthalimidoacetaldehyde diethyl acetal
##MOLFORM=C14H17NO4
##CAS REGISTRY NO=78902-09-7
##MP= -300
##BP= -300
##MW= 263
##$RETENTION INDEX=0
##$CONDENSED SPECTRUM=NO
##NPOINTS= 82
##XYDATA=(XY..XY) 1 
    15          2
    17          1
    18          3
    19          2
    26          1
    27         11
    28          9
    29         40
    30          2
    31         13
    39          1
    41          1
    42          1
    43         12
    44         18
    45         14
    46          4
    47        413
    48          5
    49          2
    50         13
    51         10
    52          2
    56          1
    57          1
    60          1
    61          2
    63          2
    64          1
    65          1
    66          1
    70          1
    72         14
    73          2
    74          5
    75        456
    76         54
    77         50
    78          5
    79          1
    87          1
    88          1
    89          8
    90          3
    91          1
   102          9
   103        999
   104        101
   105         33
   106          3
   116         12
   117         11
   118          1
   130         11
   131          1
   132         16
   133         48
   134          6
   135          1
   144         11
   145          9
   146          1
   147          2
   148          2
   149          1
   160        168
   161         62
   162         15
   163          1
   172         42
   173         19
   174         11
   175          3
   188          5
   189         15
   190        137
   191         15
   192          1
   217         78
   218        200
   219         35
   220          4