##TITLE=Library Entry 23454
##JCAMP-DX=Revision 4.10 
##DATA TYPE=MASS SPECTRUM
##SAMPLE DESCRIPTION=Chemical Concepts
##NAMES=HP
##CAS NAME=Dimethylsilyl tert-buthylperoxide
##MOLFORM=C6H16O2Si
##CAS REGISTRY NO=78957-19-4
##MP= -300
##BP= -300
##MW= 148
##$RETENTION INDEX=0
##$CONDENSED SPECTRUM=NO
##NPOINTS= 14
##XYDATA=(XY..XY) 1 
    41        383
    43        349
    45        275
    47         78
    56        288
    57        999
    59        130
    61        129
    75        341
    77        147
    91         38
   103          9
   133         39
   148        118