##TITLE=Library Entry 3798
##JCAMP-DX=Revision 4.10 
##DATA TYPE=MASS SPECTRUM
##SAMPLE DESCRIPTION=Chemical Concepts
##NAMES=HP
##CAS NAME=9-Borabicyclo[3.3.1]nonane, 9-(1-ethylbutyl)-
##MOLFORM=C14H27B
##CAS REGISTRY NO=78964-99-5
##MP= -300
##BP= -300
##MW= 206
##$RETENTION INDEX=0
##$CONDENSED SPECTRUM=NO
##NPOINTS= 97
##XYDATA=(XY..XY) 1 
    27        343
    29        104
    36         13
    37         58
    38         66
    39        305
    40        296
    41        999
    42        134
    43        170
    44          5
    49          6
    50         64
    51        185
    52        232
    53        755
    54        319
    55        501
    56        115
    57         34
    58          2
    59          3
    60          5
    62          8
    63         43
    64        139
    65        394
    66        256
    67        711
    68        260
    69        104
    70         19
    71         10
    74          6
    75         13
    76         58
    77        156
    78        165
    79        585
    80        341
    81        375
    82         97
    83         72
    84        308
    85         53
    87          7
    88         12
    89         56
    90         72
    91        209
    92        366
    93        926
    94        784
    95        255
    96        257
    97         82
    98         11
   103          7
   104         11
   105         34
   106         31
   107        129
   108        195
   109        190
   110         43
   111          9
   117          8
   118         16
   119         52
   120        194
   121        560
   122        690
   123         90
   124          7
   133          8
   134         12
   135         59
   136         57
   137         14
   138         14
   139          6
   148          9
   149         50
   150         77
   151          8
   162         23
   163         75
   164         60
   165         10
   176         15
   177         59
   178         12
   204          5
   205        154
   206        678
   207        112
   208          7