##TITLE=Library Entry 50649
##JCAMP-DX=Revision 4.10 
##DATA TYPE=MASS SPECTRUM
##SAMPLE DESCRIPTION=H.G.GRANT UNIV. QUEENSLAND, ST. LUCIA, QUEENSLAND, AUST
RALIA
##NAMES=HP
##CAS NAME=(2R,2'S,3'S)-3'-Methyl-2(2'-carbomethoxy-3'-methylcyclopentyl)-pr
opanoate
##MOLFORM=C12H20O4
##CAS REGISTRY NO=78962-94-4
##MP= -300
##BP= -300
##MW= 228
##$RETENTION INDEX=0
##$CONDENSED SPECTRUM=NO
##NPOINTS= 36
##XYDATA=(XY..XY) 1 
    41        350
    43         60
    53        130
    55        150
    56         70
    57        100
    59        190
    65         50
    67        210
    68         50
    69        140
    77         60
    79        160
    80         40
    81        999
    82         80
    83         40
    88        320
    91         60
    93        100
    95         50
   101        100
   107         50
   108        130
   109        490
   113         60
   139         60
   140         40
   141        390
   142         60
   153         50
   168        380
   169         70
   196         60
   197         80
   228         10