##TITLE=Library Entry 79736
##JCAMP-DX=Revision 4.10 
##DATA TYPE=MASS SPECTRUM
##SAMPLE DESCRIPTION=Japan AIST/NIMC Database- Spectrum MS-IW-3911
##NAMES=HP
##CAS NAME=Benzamide, N-(2'-ethylphenyl)-
##MOLFORM=C15H15NO
##CAS REGISTRY NO=78987-16-3
##MP= -300
##BP= -300
##MW= 225
##$RETENTION INDEX=0
##$CONDENSED SPECTRUM=NO
##NPOINTS= 68
##XYDATA=(XY..XY) 1 
    27          4
    28          3
    29          1
    38          1
    39          9
    40          1
    41          3
    42          1
    50         10
    51         56
    52          8
    53          4
    54          1
    62          1
    63          5
    64          3
    65         10
    66          2
    74          3
    75          4
    76         12
    77        399
    78         34
    79          4
    80          1
    89          3
    90          3
    91         13
    92          3
    93          7
    94          1
   102          2
   103          6
   104          8
   105        999
   106         91
   107          8
   117          2
   118          6
   119          6
   120        230
   121         27
   122          9
   128          1
   132          5
   134          1
   146          1
   148          2
   152          1
   165          1
   166          1
   167          2
   178          1
   180          3
   181          1
   195          1
   196          7
   197          4
   198          1
   207          1
   208          4
   209          2
   210          8
   211          2
   224          4
   225        380
   226         63
   227          5