##TITLE=Library Entry 98319
##JCAMP-DX=Revision 4.10 
##DATA TYPE=MASS SPECTRUM
##SAMPLE DESCRIPTION=V.Zaikin,Topchiev Inst.Petrochem.Synth.,Moscow
##NAMES=HP
##CAS NAME=3-Chloropropionic acid, 3-phenylpropyl ester
##MOLFORM=C12H15ClO2
##CAS REGISTRY NO=78987-69-6
##MP= -300
##BP= -300
##MW= 226
##$RETENTION INDEX=0
##$CONDENSED SPECTRUM=NO
##NPOINTS= 60
##XYDATA=(XY..XY) 1 
    26          4
    27         11
    29          2
    35          2
    36         14
    38          5
    39          9
    40          2
    41          7
    43          1
    45          1
    49          1
    50          6
    51         13
    52          8
    53          2
    55         12
    56          1
    57          2
    58          2
    62          2
    63         39
    64          3
    65         29
    66          3
    71          2
    72          2
    73          4
    74          2
    75          3
    76          3
    77         25
    78         21
    79         21
    80          1
    85          3
    89          9
    90          6
    91        221
    92         30
    93         10
   102          4
   103         32
   104         18
   105         46
   106          5
   107          2
   115         30
   116         11
   117        620
   118        999
   119         93
   120          6
   121          2
   125          2
   133          2
   134          1
   135          3
   137          2
   167          3