##TITLE=Library Entry 46328
##JCAMP-DX=Revision 4.10 
##DATA TYPE=MASS SPECTRUM
##SAMPLE DESCRIPTION=Leung Pu, NIH, Bethesda, Maryland, U.S.
##NAMES=HP
##CAS NAME=3,4-Dicarbethoxy-1-methyl-2-phthalimido-pyrrole
##MOLFORM=C19H18N2O6
##CAS REGISTRY NO=78994-98-6
##MP= -300
##BP= -300
##MW= 370
##$RETENTION INDEX=0
##$CONDENSED SPECTRUM=NO
##NPOINTS= 202
##XYDATA=(XY..XY) 1 
    42        555
    43         46
    44         17
    45         49
    46          1
    50        245
    51         61
    52         58
    53         83
    54          9
    55         12
    56          6
    57          1
    58         23
    59          1
    60          1
    62          5
    63         20
    64         34
    65         34
    66         55
    67         20
    68          8
    69          5
    70          8
    71          0
    72          5
    74         53
    75          8
    76        999
    77        112
    78         67
    79         37
    80         34
    81          8
    82          5
    83         28
    84          8
    86          3
    87          2
    88         10
    89          8
    90         38
    91         44
    92          1
    93        167
    94         35
    95          6
    96          6
    98         22
   100          5
   101         17
   102         75
   104        724
   105         91
   106         21
   107         10
   108         12
   109          1
   110          4
   112         20
   113          1
   114         24
   115         19
   116          9
   117          5
   118          4
   119          8
   120          6
   121         28
   122          9
   123          4
   124          2
   126         41
   127         27
   128         20
   129          1
   130        156
   131         15
   132         35
   133         16
   134          3
   135          6
   136          2
   137          4
   138          4
   139          4
   140         33
   141         10
   142          9
   143         10
   144          4
   145          1
   146          2
   147          3
   149        115
   150          8
   151          3
   152         11
   153          5
   154         12
   155         10
   156         17
   157          1
   158         57
   159          5
   160          4
   161          2
   163          5
   164          1
   165          6
   166          4
   167          6
   168         26
   169         19
   170          6
   171          7
   172          5
   173          5
   174         14
   175          1
   177          9
   178          1
   179          5
   180         11
   181          6
   182          6
   183         12
   184         81
   185         14
   187         19
   188          1
   189          1
   193         24
   194          0
   195         11
   196         15
   197         20
   198         22
   199          2
   200          4
   207          2
   208          3
   209          5
   210          5
   211          6
   212          1
   213          1
   221          1
   223         14
   224         57
   225         28
   226         45
   227          6
   237          0
   238          1
   239          3
   240          1
   241          1
   242          0
   245          0
   251         19
   252         99
   253        289
   254         41
   255          5
   257          1
   267          1
   268          3
   269          9
   270         16
   271          1
   279          3
   280          7
   281         26
   282          3
   283          4
   295         20
   296         10
   297        154
   298         82
   299         12
   300          1
   301          0
   311          7
   314          1
   322          1
   323          1
   324         18
   325        203
   326         37
   327          5
   329          0
   336          0
   342         13
   343          1
   368          1
   369          2
   370        334
   371         70
   372         10
   373          1