##TITLE=Library Entry 5372
##JCAMP-DX=Revision 4.10 
##DATA TYPE=MASS SPECTRUM
##SAMPLE DESCRIPTION=Div. of Experiment Therapeutics WRAIR, WRAMC, Washingto
n DC 20307
##NAMES=HP
##CAS NAME=3,5-Dicarbethoxy-1-methyl-1,4,5,6,7,8-hexahydropyrrolo[2,3-b]azep
in-4,7-dione
##MOLFORM=C15H18N2O6
##CAS REGISTRY NO=78994-92-0
##MP= -300
##BP= -300
##MW= 322
##$RETENTION INDEX=0
##$CONDENSED SPECTRUM=NO
##NPOINTS= 211
##XYDATA=(XY..XY) 1 
    41         23
    42        999
    43        116
    44         47
    45        117
    46         17
    47          6
    49          9
    50         19
    51         75
    52        179
    53        172
    54        100
    55        212
    56         28
    57         61
    58         11
    59          8
    60         13
    61          5
    62         16
    63         76
    64         74
    65        106
    66        104
    67        101
    68         94
    69         35
    70         17
    71         35
    72         16
    73         19
    74          8
    75         26
    76         28
    77         83
    78        141
    79         91
    80         96
    81         77
    82         30
    83         55
    84         18
    85         10
    86          5
    88         25
    89         12
    90         34
    91         86
    92        112
    93        435
    94        151
    95         46
    96         38
    97         18
    98          4
    99         84
   101         84
   103         15
   104         34
   105         57
   106         63
   107         46
   108         22
   109         13
   110         17
   111         11
   112         11
   113          4
   114          1
   115          5
   116          5
   117         23
   118         65
   119        116
   120         91
   121         69
   122        259
   123         76
   124         16
   125          7
   126          2
   127         18
   128          4
   129         25
   130          7
   131         25
   132         23
   133         32
   134         36
   135         29
   136         19
   137         18
   138         23
   139         16
   140         20
   141          3
   143          2
   144          2
   145         14
   146         53
   147        164
   148        158
   149        279
   150         34
   151         49
   152          7
   153          4
   154          2
   155          3
   157          8
   158          3
   159         10
   160         13
   161         25
   162          9
   163         25
   164         25
   165         31
   166         38
   167        138
   168         90
   169          9
   170          0
   171          1
   172          1
   173         36
   174        162
   175        429
   176        386
   177         74
   178         18
   179          8
   180          3
   181          2
   183          3
   185          2
   186          0
   187          9
   188          7
   189          5
   190          9
   191         59
   192         22
   193        187
   194         83
   195        127
   196         13
   197          2
   201         26
   202        331
   203        722
   204        226
   205         33
   206          4
   207         10
   208          1
   211          5
   212          4
   215          2
   217          5
   218          3
   219        250
   220         96
   221        103
   222         13
   223          2
   224          0
   229          6
   230        121
   231        293
   232         52
   233         10
   234          6
   235          2
   236          2
   237         10
   238          1
   239          0
   240         18
   241          3
   246          4
   247        371
   248        383
   249        396
   250        139
   251         18
   252          2
   258          1
   261          1
   262          1
   263         37
   264          7
   265         89
   266         12
   267          3
   275         23
   276        183
   277        143
   278         22
   279          4
   280          0
   292          0
   293         45
   294          9
   295          0
   320          2
   321          5
   322        293
   323         53
   324          8