##TITLE=Library Entry 3725
##JCAMP-DX=Revision 4.10 
##DATA TYPE=MASS SPECTRUM
##SAMPLE DESCRIPTION=Chemical Concepts
##NAMES=HP
##CAS NAME=(2,2,6-Trimethyl-bicyclo[4.1.0]hept-1-yl)-methanol
##MOLFORM=C11H20O
##CAS REGISTRY NO=78996-11-9
##MP= -300
##BP= -300
##MW= 168
##$RETENTION INDEX=0
##$CONDENSED SPECTRUM=NO
##NPOINTS= 107
##XYDATA=(XY..XY) 1 
    26          7
    27        260
    28         35
    29        344
    30          8
    31        102
    37          4
    38         16
    39        461
    40         78
    41        999
    42        106
    43        550
    44         28
    45         34
    50         26
    51         98
    52         49
    53        303
    54         58
    55        728
    56        183
    57        254
    58         50
    59         59
    60          7
    61          4
    62          6
    63         26
    64         12
    65        132
    66         57
    67        480
    68        203
    69        842
    70        241
    71        137
    72         29
    73         10
    74          6
    75          6
    76         10
    77        243
    78         58
    79        577
    80        104
    81        794
    82        274
    83        509
    84        849
    85        749
    86         63
    87         13
    91        262
    92         55
    93        396
    94        237
    95        700
    96        161
    97        253
    98         98
    99         68
   100         14
   101          4
   102          4
   103         21
   104         15
   105         96
   106         35
   107        457
   108         80
   109        189
   110        151
   111        184
   112         90
   113         14
   114          4
   115         12
   116          5
   117         13
   118          4
   119         30
   120         13
   121         82
   122         48
   123         57
   124         36
   125        182
   126         32
   127          4
   133          8
   134          7
   135        279
   136         35
   137        295
   138         35
   139          8
   140          5
   141          6
   149        114
   150         62
   151         13
   153         62
   154         10
   167         10
   168         27
   169          8