##TITLE=Library Entry 44491
##JCAMP-DX=Revision 4.10 
##DATA TYPE=MASS SPECTRUM
##SAMPLE DESCRIPTION=NIST Mass Spectrometry Data Center, 1998.
##NAMES=HP
##CAS NAME=Propanoic acid
##MOLFORM=C3H6O2
##CAS REGISTRY NO=79-09-4
##MP= -300
##BP= -300
##MW= 74
##$RETENTION INDEX=700
##$CONDENSED SPECTRUM=NO
##NPOINTS= 40
##XYDATA=(XY..XY) 1 
    13          1
    14         12
    15         17
    16          1
    17          4
    18          3
    19          2
    24          1
    25         30
    26        227
    27        637
    28        929
    29        833
    30        145
    31         63
    36          2
    37          2
    38          2
    39          5
    40          3
    41         17
    42         78
    43         42
    44         28
    45        900
    46         78
    47         49
    52          3
    53         39
    54          2
    55        266
    56        218
    57        466
    58         16
    59         10
    72          1
    73        647
    74        999
    75         37
    76          3