##TITLE=Library Entry 15981
##JCAMP-DX=Revision 4.10 
##DATA TYPE=MASS SPECTRUM
##SAMPLE DESCRIPTION=Japan AIST/NIMC Database- Spectrum MS-NW-4930
##NAMES=HP
##CAS NAME=Acetamide, 2-chloro-
##MOLFORM=C2H4ClNO
##CAS REGISTRY NO=79-07-2
##MP= -300
##BP= -300
##MW= 93
##$RETENTION INDEX=0
##$CONDENSED SPECTRUM=NO
##NPOINTS= 44
##XYDATA=(XY..XY) 1 
    12          4
    13          7
    14         24
    15          8
    16         19
    17          3
    18          1
    26          1
    27         10
    28         46
    29          9
    30         68
    31          2
    32          1
    35          6
    36         12
    37          1
    38          4
    39          4
    40          9
    41          9
    42         62
    43         14
    44        999
    45         14
    46          2
    47          7
    48         16
    49         77
    50          8
    51         22
    52          1
    58         24
    59          1
    64          2
    75          5
    76          7
    77          7
    78          2
    79          1
    93        141
    94          5
    95         45
    96          2