##TITLE=Library Entry 558
##JCAMP-DX=Revision 4.10 
##DATA TYPE=MASS SPECTRUM
##SAMPLE DESCRIPTION=Japan AIST/NIMC Database- Spectrum MS-NW-2719
##NAMES=HP
##CAS NAME=Propanoyl chloride
##MOLFORM=C3H5ClO
##CAS REGISTRY NO=79-03-8
##MP= -300
##BP= -300
##MW= 92
##$RETENTION INDEX=626
##$CONDENSED SPECTRUM=NO
##NPOINTS= 53
##XYDATA=(XY..XY) 1 
    12          3
    13          8
    14         21
    15         16
    16          1
    18          1
    24          6
    25         29
    26        177
    27        598
    28        158
    29        999
    30         22
    31          4
    32          2
    35         21
    36         48
    37         12
    38         14
    39         12
    40          2
    41         12
    42         39
    43          5
    44          4
    45          6
    47          5
    48          4
    49         17
    50          1
    51          5
    52          3
    53         10
    54         12
    55         33
    56         77
    57        990
    58         35
    59          3
    60          3
    61          4
    62          2
    63         83
    64          3
    65         27
    69          2
    73          5
    74          7
    75          2
    76          2
    91          4
    92          2
    93          1