##TITLE=Library Entry 46531
##JCAMP-DX=Revision 4.10 
##DATA TYPE=MASS SPECTRUM
##SAMPLE DESCRIPTION=NIST Mass Spectrometry Data Center, 1992
##NAMES=HP
##CAS NAME=Acetyl chloride, chloro-
##MOLFORM=C2H2Cl2O
##CAS REGISTRY NO=79-04-9
##MP= -300
##BP= -300
##MW= 112
##$RETENTION INDEX=622
##$CONDENSED SPECTRUM=NO
##NPOINTS= 53
##XYDATA=(XY..XY) 1 
    12         16
    13         40
    14         62
    15          1
    16          2
    17          1
    18          1
    24         11
    25         21
    26         18
    27          1
    28         46
    29         18
    32          1
    35         96
    36         16
    37         31
    38          6
    40         12
    41         49
    42        181
    43          5
    44          0
    47         60
    48         70
    49        424
    50         27
    51        135
    52          1
    59          5
    60         12
    61          6
    62          1
    63        199
    64          1
    65         68
    66          0
    70          2
    72          1
    77        999
    78         36
    79        311
    80          7
    81          2
    82          2
    83          6
    84         14
    85          4
    86          8
    88          1
    93          1
   112          1
   114          1