##TITLE=Library Entry 15748
##JCAMP-DX=Revision 4.10 
##DATA TYPE=MASS SPECTRUM
##SAMPLE DESCRIPTION=Japan AIST/NIMC Database- Spectrum MS-NW-4971
##NAMES=HP
##CAS NAME=Propanamide
##MOLFORM=C3H7NO
##CAS REGISTRY NO=79-05-0
##MP= -300
##BP= -300
##MW= 73
##$RETENTION INDEX=984
##$CONDENSED SPECTRUM=NO
##NPOINTS= 41
##XYDATA=(XY..XY) 1 
    12          1
    13          2
    14          9
    15         15
    16         20
    17         29
    18         19
    24          1
    25          7
    26         61
    27        190
    28        147
    29        344
    30         28
    31          1
    32          1
    37          2
    38          3
    39          3
    40          5
    41          6
    42         13
    43         14
    44        999
    45         49
    46          9
    50          1
    51          7
    52         10
    53          8
    54         47
    55         54
    56         30
    57        178
    58          9
    59          1
    71          2
    72         97
    73        480
    74         21
    75          1