##TITLE=Library Entry 1453
##JCAMP-DX=Revision 4.10 
##DATA TYPE=MASS SPECTRUM
##SAMPLE DESCRIPTION=Japan AIST/NIMC Database- Spectrum MS-NW-1669
##NAMES=HP
##CAS NAME=Acetic acid, hydroxy-
##MOLFORM=C2H4O3
##CAS REGISTRY NO=79-14-1
##MP= -300
##BP= -300
##MW= 76
##$RETENTION INDEX=0
##$CONDENSED SPECTRUM=NO
##NPOINTS= 33
##XYDATA=(XY..XY) 1 
    12          2
    13          6
    14         14
    15          4
    16          3
    17         12
    18         38
    19          2
    27          1
    28         53
    29        214
    30         55
    31        999
    32        320
    33          5
    36          1
    40          2
    41          6
    42         18
    43          6
    44         42
    45        118
    46         13
    47         15
    51          1
    56          4
    58         10
    59          4
    60          4
    61          1
    75          1
    76          1
    77          3