##TITLE=Library Entry 44539
##JCAMP-DX=Revision 4.10 
##DATA TYPE=MASS SPECTRUM
##SAMPLE DESCRIPTION=A.E.WILLIAMS ICI DYESTUFFS DIVISION. BLACKLEY.
##NAMES=HP
##CAS NAME=Aminoguanidine
##MOLFORM=CH6N4
##CAS REGISTRY NO=79-17-4
##MP= -300
##BP= -300
##MW= 74
##$RETENTION INDEX=0
##$CONDENSED SPECTRUM=NO
##NPOINTS= 27
##XYDATA=(XY..XY) 1 
    16         26
    17         80
    18        362
    26          4
    27         29
    28        245
    29         53
    30        277
    31        167
    32        656
    33          4
    35          1
    36          7
    38          2
    40          2
    41         28
    42        147
    43        667
    44        170
    45          3
    57        234
    58         47
    59          2
    60          1
    73          8
    74        999
    75         22