##TITLE=Library Entry 18063
##JCAMP-DX=Revision 4.10 
##DATA TYPE=MASS SPECTRUM
##SAMPLE DESCRIPTION=Exported from NIST MS Search
##NAMES=HP
##CAS NAME=Acetic acid, chloro-
##MOLFORM=C2H3ClO2
##CAS REGISTRY NO=79-11-8
##MP= -300
##BP= -300
##MW= 94
##$RETENTION INDEX=0
##$CONDENSED SPECTRUM=NO
##NPOINTS= 48
##XYDATA=(XY..XY) 1 
    13         14
    14         30
    15         16
    16          2
    17          5
    18         11
    25          2
    26          1
    28         34
    29         36
    30          4
    31         32
    32          6
    35         15
    36         51
    37          6
    38         18
    39          1
    40          4
    41         12
    42         40
    43          5
    44         20
    45        218
    46          3
    47         28
    48         45
    49        335
    50        999
    51        119
    52        341
    53          4
    55          1
    56          2
    57          2
    59          8
    60          2
    63          1
    65          2
    76          8
    77         31
    78          3
    79         11
    93          1
    94         68
    95          3
    96         23
    97          1