##TITLE=Library Entry 58921
##JCAMP-DX=Revision 4.10 
##DATA TYPE=MASS SPECTRUM
##SAMPLE DESCRIPTION=Japan AIST/NIMC Database- Spectrum MS-NW-1167
##NAMES=HP
##CAS NAME=Hydrazinecarbothioamide
##MOLFORM=CH5N3S
##CAS REGISTRY NO=79-19-6
##MP= -300
##BP= -300
##MW= 91
##$RETENTION INDEX=0
##$CONDENSED SPECTRUM=NO
##NPOINTS= 48
##XYDATA=(XY..XY) 1 
    12          2
    13          5
    14          4
    15          2
    16         21
    17         41
    18          4
    26          5
    27         21
    28        127
    29         37
    30         22
    31        156
    32        680
    33         31
    34         31
    35          3
    36          1
    40          1
    41         12
    42         59
    43         86
    44         17
    45         21
    46         11
    47         16
    48         16
    49          1
    55          3
    56          2
    57         29
    58         20
    59         81
    60        354
    61         27
    62         16
    63          2
    64          6
    66          1
    69          3
    70          1
    71          4
    74         22
    75          4
    76          4
    91        999
    92         30
    93         45