##TITLE=Library Entry 6511
##JCAMP-DX=Revision 4.10 
##DATA TYPE=MASS SPECTRUM
##SAMPLE DESCRIPTION=NIST Mass Spectrometry Data Center, 1998.
##NAMES=HP
##CAS NAME=Butane, 2,3-dimethyl-
##MOLFORM=C6H14
##CAS REGISTRY NO=79-29-8
##MP= -300
##BP= -300
##MW= 86
##$RETENTION INDEX=568
##$CONDENSED SPECTRUM=NO
##NPOINTS= 40
##XYDATA=(XY..XY) 1 
    14          1
    15         13
    16          1
    26          8
    27        126
    28          4
    29         55
    30          1
    37          5
    38         17
    39        204
    40         34
    41        451
    42        825
    43        999
    44         39
    49          1
    50         12
    51         20
    52          7
    53         41
    54          8
    55        116
    56         21
    57          9
    61          1
    62          2
    63          3
    65          4
    66          1
    67          6
    68          1
    69         12
    70         17
    71        334
    72         20
    73          1
    85         17
    86         70
    87          5