##TITLE=Library Entry 6226
##JCAMP-DX=Revision 4.10 
##DATA TYPE=MASS SPECTRUM
##SAMPLE DESCRIPTION=Japan AIST/NIMC Database- Spectrum MS-NW-2559
##NAMES=HP
##CAS NAME=Propanoic acid, 2-methyl-
##MOLFORM=C4H8O2
##CAS REGISTRY NO=79-31-2
##MP= -300
##BP= -300
##MW= 88
##$RETENTION INDEX=772
##$CONDENSED SPECTRUM=NO
##NPOINTS= 43
##XYDATA=(XY..XY) 1 
    13          1
    14          3
    15         14
    17          1
    18          6
    19          2
    25          2
    26         20
    27        244
    28         20
    29         50
    30          1
    31          8
    32          2
    36          1
    37          9
    38         13
    39         91
    40         15
    41        391
    42         98
    43        999
    44         35
    45         76
    46          3
    47          6
    53          3
    55         38
    56          3
    57          1
    58          1
    59          6
    60         15
    69          5
    70          5
    71         19
    72          1
    73        258
    74          9
    75          1
    87          8
    88         79
    89          4