##TITLE=Library Entry 31567
##JCAMP-DX=Revision 4.10 
##DATA TYPE=MASS SPECTRUM
##SAMPLE DESCRIPTION=Exported from NIST MS Search
##NAMES=HP
##CAS NAME=Oxalyl chloride
##MOLFORM=C2Cl2O2
##CAS REGISTRY NO=79-37-8
##MP= -300
##BP= -300
##MW= 126
##$RETENTION INDEX=0
##$CONDENSED SPECTRUM=NO
##NPOINTS= 52
##XYDATA=(XY..XY) 1 
    28        255
    29          7
    30          1
    31          3
    32          2
    33          1
    34          1
    35        246
    36         11
    37         78
    38          4
    39          1
    40         11
    41          1
    42          1
    43          1
    44         18
    45          3
    46          2
    47         53
    48          1
    49         13
    50          1
    51          1
    53          1
    55          1
    56        138
    57          4
    58          1
    59          3
    60          1
    61          3
    62          4
    63        999
    64         12
    65        322
    66          5
    67          1
    68          1
    69          1
    91          7
    92          1
    93          2
    94          1
    98         11
    99          1
   100          7
   101          1
   126          9
   127          1
   128          6
   129          1