##TITLE=Library Entry 3731
##JCAMP-DX=Revision 4.10 
##DATA TYPE=MASS SPECTRUM
##SAMPLE DESCRIPTION=Japan AIST/NIMC Database- Spectrum MS-NW-1520
##NAMES=HP
##CAS NAME=Methacrylamide
##MOLFORM=C4H7NO
##CAS REGISTRY NO=79-39-0
##MP= -300
##BP= -300
##MW= 85
##$RETENTION INDEX=0
##$CONDENSED SPECTRUM=NO
##NPOINTS= 44
##XYDATA=(XY..XY) 1 
    12          1
    13          1
    14          3
    15         19
    16         15
    17         19
    18          7
    25          7
    26         23
    27         44
    28         21
    29          6
    30         20
    36          6
    37         52
    38         98
    39        534
    40        142
    41        999
    42        197
    43         19
    44        486
    45         37
    46         10
    50          2
    51          6
    52         13
    53         20
    54          6
    55          2
    56          6
    57          9
    58          1
    59          2
    66          2
    67          6
    68         22
    69        215
    70         14
    71          1
    84          6
    85        824
    86         45
    87          3