##TITLE=Library Entry 18020
##JCAMP-DX=Revision 4.10 
##DATA TYPE=MASS SPECTRUM
##SAMPLE DESCRIPTION=Japan AIST/NIMC Database- Spectrum MS-NW- 841
##NAMES=HP
##CAS NAME=Acetic acid, dichloro-
##MOLFORM=C2H2Cl2O2
##CAS REGISTRY NO=79-43-6
##MP= -300
##BP= -300
##MW= 128
##$RETENTION INDEX=0
##$CONDENSED SPECTRUM=NO
##NPOINTS= 66
##XYDATA=(XY..XY) 1 
    12         11
    13         30
    14          7
    15          3
    16          1
    17          1
    18          3
    24          3
    25          3
    27          9
    28        100
    29        156
    30          7
    31          2
    35         67
    36        126
    37         19
    38         38
    39          5
    40          6
    41         14
    43          9
    44         96
    45        420
    46          7
    47        143
    48        999
    49        699
    50        315
    51        223
    52          6
    55          9
    56          1
    59         12
    60         52
    61          6
    63          9
    64          4
    65         34
    66          1
    67          9
    68          1
    69          4
    73         30
    74          2
    76         59
    77          2
    78         13
    79          1
    82         16
    83        307
    84        620
    85        207
    86        419
    87         35
    88         61
    93         32
    94          2
    95          9
   110          2
   111          7
   113          5
   115          1
   128          5
   130          4
   132          1