##TITLE=Library Entry 31330
##JCAMP-DX=Revision 4.10 
##DATA TYPE=MASS SPECTRUM
##SAMPLE DESCRIPTION=NIST Mass Spectrometry Data Center, 1998.
##NAMES=HP
##CAS NAME=2-Mercaptopropanoic acid
##MOLFORM=C3H6O2S
##CAS REGISTRY NO=79-42-5
##MP= -300
##BP= -300
##MW= 106
##$RETENTION INDEX=1057
##$CONDENSED SPECTRUM=NO
##NPOINTS= 54
##XYDATA=(XY..XY) 1 
    15          3
    25          5
    26         36
    27        144
    28         39
    29         41
    30          2
    31          3
    32         10
    33         26
    34         20
    35        110
    36          3
    37          6
    38          2
    39          2
    41          2
    42          4
    43         18
    44         13
    45        280
    46         24
    47         35
    48          3
    49          4
    52          2
    53         12
    54          4
    55         73
    56         23
    57         31
    58         67
    59        132
    60        176
    61        999
    62         44
    63         51
    64          2
    71          2
    72          3
    73         16
    74          2
    77          2
    78         24
    79          1
    80          2
    87          2
    88         50
    89          3
    90          4
    91          3
   106        407
   107         18
   108         20