##TITLE=Library Entry 3741
##JCAMP-DX=Revision 4.10 
##DATA TYPE=MASS SPECTRUM
##SAMPLE DESCRIPTION=NIST Mass Spectrometry Data Center, 1998.
##NAMES=HP
##CAS NAME=2-Propenoic acid, 2-methyl-
##MOLFORM=C4H6O2
##CAS REGISTRY NO=79-41-4
##MP= -300
##BP= -300
##MW= 86
##$RETENTION INDEX=711
##$CONDENSED SPECTRUM=NO
##NPOINTS= 47
##XYDATA=(XY..XY) 1 
    14          2
    15          3
    17          1
    18          1
    19          1
    25          2
    26         24
    27         43
    28          1
    29         34
    30          1
    31          8
    36          8
    37         87
    38        152
    39        794
    40        230
    41        999
    42        100
    43         84
    44         23
    45        184
    46          2
    47          2
    49          1
    50          2
    51          1
    52          1
    53         40
    54          2
    55         14
    56          1
    57         63
    58         83
    59          1
    60          3
    66          1
    67          1
    68        101
    69        171
    70          2
    71         22
    72          1
    85         48
    86        905
    87         41
    88          2