##TITLE=Library Entry 74558
##JCAMP-DX=Revision 4.10 
##DATA TYPE=MASS SPECTRUM
##SAMPLE DESCRIPTION=NIST Mass Spectrometry Data Center, 1994
##NAMES=HP
##CAS NAME=1,1,3-Trichlorotrifluoroacetone
##MOLFORM=C3Cl3F3O
##CAS REGISTRY NO=79-52-7
##MP= -300
##BP= -300
##MW= 214
##$RETENTION INDEX=0
##$CONDENSED SPECTRUM=NO
##NPOINTS= 87
##XYDATA=(XY..XY) 1 
    12         52
    14          7
    16          9
    17          5
    18         14
    19          6
    20          4
    24         14
    28         97
    31        615
    32         21
    35        174
    36         22
    37         60
    38          4
    40         14
    43         16
    44          3
    47        150
    49         51
    50        246
    51          3
    55         15
    58         11
    59         10
    62          5
    63          9
    66        388
    67         12
    68        127
    69          7
    70          2
    71          5
    72          3
    74         20
    75          2
    78         57
    80          4
    81          3
    82         38
    83         15
    84          2
    85        682
    86         15
    87        207
    90          3
    93         18
    94        163
    95          5
    96         56
    97          5
    98          3
    99          2
   100          2
   101        999
   102          2
   103        631
   104          2
   105        108
   109          5
   110          7
   111          1
   112          5
   113          7
   115          3
   116          3
   117         15
   118          2
   119         13
   121          4
   132          2
   133          2
   135          3
   151        465
   153        301
   154          7
   155         41
   167          7
   169          7
   171          2
   179         70
   181         43
   182          1
   183          7
   214         17
   216         15
   218          5