##TITLE=Library Entry 73337
##JCAMP-DX=Revision 4.10 
##DATA TYPE=MASS SPECTRUM
##SAMPLE DESCRIPTION=Patti Price, Georgia Bureau of Investigation, Decatur,
 Georgia
##NAMES=HP
##CAS NAME=Oxytetracycline
##MOLFORM=C22H24N2O9
##CAS REGISTRY NO=79-57-2
##MP= -300
##BP= -300
##MW= 460
##$RETENTION INDEX=0
##$CONDENSED SPECTRUM=NO
##NPOINTS= 322
##XYDATA=(XY..XY) 1 
    39         20
    40          8
    41         38
    42        184
    43        161
    44        296
    45         51
    46        319
    47         16
    51         18
    52          8
    53         34
    54         15
    55        115
    56         56
    57        100
    58        436
    59         25
    60          6
    63         20
    64          9
    65         41
    66         18
    67         40
    68         70
    69        142
    70        144
    71        184
    72        151
    73         15
    74         27
    75         14
    76         14
    77         68
    78         17
    79         40
    80         18
    81         29
    82        160
    83         45
    84        107
    85        111
    86         47
    87         39
    88          9
    89         39
    90         12
    91         68
    92         20
    93         35
    94         35
    95         52
    96         37
    97         39
    98        736
    99         79
   100        999
   101         77
   102         44
   103         32
   104         11
   105         25
   106         11
   107         53
   108         24
   109         32
   110         26
   111         25
   112         17
   113         16
   114         14
   115        104
   116         30
   117         24
   118         16
   119         23
   120         14
   121         87
   122         19
   123         53
   124         47
   125         21
   126         67
   127        146
   128         72
   129        102
   130         22
   131         51
   132         13
   133         12
   134         11
   135         13
   136         16
   137         29
   138         26
   139         38
   140         21
   142         35
   143         21
   144         26
   145         76
   146         27
   147         74
   148         21
   149         21
   150         20
   151         67
   152        177
   153        121
   154         44
   155         80
   156         31
   157         24
   158         17
   159         28
   160         31
   161         30
   162         15
   163        384
   164         68
   165         31
   166         35
   167         19
   168        128
   169         90
   170        262
   171         54
   172         21
   173         80
   174        100
   175         61
   176         31
   177         13
   178         21
   179         26
   180         59
   181         39
   182         18
   183         12
   184         23
   185         29
   186         23
   187         40
   188         14
   189         29
   190         23
   191         21
   192          7
   193         12
   194         82
   195         70
   196        139
   197         51
   198         21
   199         27
   200         90
   201        651
   202        159
   203         66
   204         31
   205         15
   206         16
   207         18
   208         22
   209         14
   210         12
   211         36
   212         44
   213        209
   214         41
   215         32
   216         13
   217         45
   218         28
   219         31
   220          6
   222         10
   223         16
   224         33
   225         27
   226         23
   227         27
   228         13
   229         56
   230         68
   231         75
   232         19
   234         19
   235         13
   236          6
   237         13
   238         14
   239         32
   240         31
   241         30
   242         22
   243         10
   244         15
   246         12
   247         13
   250         15
   251         10
   252         17
   253         15
   254         11
   255         23
   256         24
   257         18
   258         14
   260         11
   261          8
   262         84
   263         21
   265         11
   266         28
   267         20
   268         18
   269         15
   270         32
   271         21
   272        110
   273         22
   274         10
   275          4
   276          4
   278         10
   279         28
   280         54
   281         25
   283         12
   284         16
   285         10
   286          4
   288         22
   289         11
   290          4
   291          6
   293          8
   294         11
   295          9
   296         12
   297         13
   298          8
   299          4
   300         18
   301          4
   305          4
   306         11
   307         14
   308         15
   309         11
   310         11
   311         11
   312         19
   313          7
   318         16
   320          7
   321         13
   322          5
   323          9
   324         24
   325         10
   326         52
   328         10
   330          4
   334         20
   335         24
   336         50
   337         26
   338         14
   340          5
   342          5
   343          6
   346         61
   347        178
   348         36
   350          4
   351          7
   352         31
   353         28
   354         20
   358          6
   359          4
   362         49
   363         21
   364        112
   365         31
   366          5
   369         16
   370         32
   371          9
   379         18
   380         63
   381         57
   382         28
   383          6
   396          7
   397         46
   398         25
   399         19
   400         13
   407          7
   408         11
   413          2
   414          7
   415         23
   416          9
   417         17
   418          3
   424          8
   425         23
   426         61
   427         16
   428         14
   442         28
   443         58
   444         18
   445         25
   459          5
   460        162
   461         38
   462          7