##TITLE=Library Entry 34730
##JCAMP-DX=Revision 4.10 
##DATA TYPE=MASS SPECTRUM
##SAMPLE DESCRIPTION=LAC, NIDDK, NIH, Bethesda, MD 20892
##NAMES=HP
##CAS NAME=Lanosterol
##MOLFORM=C30H50O
##CAS REGISTRY NO=79-63-0
##MP= -300
##BP= -300
##MW= 426
##$RETENTION INDEX=3293
##$CONDENSED SPECTRUM=NO
##NPOINTS= 182
##XYDATA=(XY..XY) 1 
    41        640
    43        913
    44         10
    45         35
    53         69
    55        643
    57        322
    59         47
    65         21
    67        188
    69        999
    70         27
    71        201
    72          7
    73          6
    77         53
    79        159
    81        334
    83        240
    85         63
    91        159
    93        210
    95        421
    97        162
    98          4
    99         28
   103         14
   105        217
   107        279
   109        442
   110         13
   111        109
   113         18
   115         28
   117         70
   119        226
   121        248
   123        204
   125         57
   127         28
   128         24
   129         39
   131        114
   133        184
   135        248
   136         30
   137         82
   138          4
   139         24
   141         26
   142         17
   143         70
   145        149
   147        155
   149        135
   150         16
   151         38
   153         45
   154          5
   155         32
   157         72
   159        146
   161        199
   163        102
   165         43
   166          4
   167          6
   168          6
   169         29
   171         75
   173        111
   175        116
   177         52
   179         36
   181         11
   183         24
   185         64
   187        143
   189        143
   191         67
   193         32
   195          8
   197         25
   199         57
   201         75
   203         69
   205         60
   206          4
   207         35
   211         21
   213         61
   214         21
   215        106
   217         53
   219         37
   221         11
   225         25
   227         69
   229         89
   230          4
   231         39
   233         31
   235         20
   236          3
   239         21
   240         24
   241         99
   242          7
   243         64
   245         41
   247         60
   248         10
   251          3
   253         30
   255         57
   257         50
   258          6
   259        123
   260         18
   261         40
   262         16
   263          5
   267         17
   269         29
   271         78
   272         14
   273         78
   274         28
   275         29
   276          3
   281         14
   283         29
   285         20
   286          7
   287         26
   288         18
   289          8
   290          3
   295         13
   297         26
   299         30
   301         23
   302          8
   303          8
   309         14
   311         36
   312          3
   313         31
   314         13
   315         19
   323         17
   325         18
   327         21
   329         20
   337         12
   339         17
   341         34
   342          8
   343          3
   355         15
   357          4
   383          7
   391         11
   393        219
   394         69
   395         21
   396          6
   397          0
   398          0
   409         32
   410         13
   411        538
   412        174
   413         49
   414         13
   415          2
   424         45
   425         36
   426        346
   427        114
   428         44
   429          5