##TITLE=Library Entry 11588
##JCAMP-DX=Revision 4.10 
##DATA TYPE=MASS SPECTRUM
##SAMPLE DESCRIPTION=TAT 1019 9
##NAMES=HP
##CAS NAME=3-Buten-2-one, 4-(2,2-dimethyl-6-methylenecyclohexyl)-
##MOLFORM=C13H20O
##CAS REGISTRY NO=79-76-5
##MP= -300
##BP= -300
##MW= 192
##$RETENTION INDEX=1340
##$CONDENSED SPECTRUM=NO
##NPOINTS= 28
##XYDATA=(XY..XY) 1 
    39        180
    41        270
    43        999
    51         80
    53        110
    55        140
    65        100
    67         80
    69         80
    77        240
    78         70
    79        120
    91        230
    92        120
    93        680
    94         90
    95         70
   105        100
   107        110
   108        100
   109        230
   121        790
   122        130
   136        460
   137         90
   149         80
   177         80
   192        120