##TITLE=Library Entry 14244
##JCAMP-DX=Revision 4.10 
##DATA TYPE=MASS SPECTRUM
##SAMPLE DESCRIPTION=Japan AIST/NIMC Database- Spectrum MS-NW-4706
##NAMES=HP
##CAS NAME=Vitamin A palmitate
##MOLFORM=C36H60O2
##CAS REGISTRY NO=79-81-2
##MP= -300
##BP= -300
##MW= 524
##$RETENTION INDEX=0
##$CONDENSED SPECTRUM=NO
##NPOINTS= 324
##XYDATA=(XY..XY) 1 
    14          2
    15          9
    16          1
    17          1
    18          4
    25          1
    26         11
    27        146
    28         37
    29        301
    30          8
    31          8
    32          1
    36          1
    37          2
    38          5
    39        130
    40         25
    41        708
    42        120
    43        999
    44         32
    45         30
    46          1
    47          1
    49          1
    50          8
    51         31
    52         12
    53        104
    54         69
    55        765
    56        172
    57        810
    58         41
    59         29
    60        590
    61        174
    62          9
    63         15
    64          7
    65         55
    66         20
    67        205
    68         78
    69        699
    70        134
    71        403
    72         22
    73        690
    74         57
    75          8
    76          7
    77        142
    78         39
    79        197
    80         64
    81        417
    82        103
    83        334
    84        122
    85        245
    86         17
    87        111
    88         14
    89         12
    90          7
    91        291
    92         74
    93        344
    94        101
    95        323
    96         85
    97        201
    98        200
    99         69
   100         10
   101         63
   102         26
   103         34
   104         31
   105        439
   106        109
   107        259
   108         53
   109        162
   110         45
   111        135
   112         64
   113         49
   114          9
   115        155
   116         68
   117        127
   118         67
   119        505
   120        164
   121        254
   122         70
   123        171
   124         36
   125         51
   126         23
   127         51
   128         76
   129        364
   130        100
   131        215
   132        409
   133        237
   134         71
   135         85
   136         33
   137        153
   138         29
   139         23
   140         13
   141         64
   142         68
   143        222
   144        341
   145        593
   146        123
   147        130
   148         50
   149         70
   150         17
   151         13
   152         18
   153         32
   154         24
   155         95
   156         72
   157        318
   158        128
   159        228
   160         50
   161        150
   162         42
   163         26
   164          9
   165         28
   166         18
   167         34
   168         30
   169        115
   170         56
   171        237
   172         90
   173        148
   174         48
   175        177
   176         69
   177         53
   178         14
   179         15
   180         10
   181         28
   182         27
   183        239
   184         86
   185        240
   186         94
   187         63
   188         30
   189         43
   190         10
   191          9
   192          7
   193         19
   194         30
   195         25
   196         29
   197        254
   198        108
   199        174
   200         47
   201         28
   202          9
   203          9
   204          3
   205          6
   206         12
   207          8
   208          6
   209         16
   210         14
   211         93
   212         80
   213        195
   214         42
   215         15
   216          4
   217          4
   218          4
   219          9
   220          9
   221          7
   222          4
   223         12
   224          8
   225         87
   226         26
   227         50
   228         16
   229          7
   230          2
   231          3
   232          3
   233          3
   234          6
   235          4
   236          6
   237         11
   238         13
   239         79
   240         24
   241         18
   242          7
   243          6
   244          3
   245          3
   246          2
   247          4
   248          2
   249          4
   250          3
   251          9
   252          8
   253        439
   254        105
   255        226
   256        367
   257         65
   258          9
   259          4
   260         10
   261          9
   262         49
   263         19
   264         14
   265         12
   266         12
   267         26
   268        887
   269        531
   270        138
   271         22
   272          3
   273          1
   274          1
   275          1
   276          2
   277          1
   278          2
   279          4
   280          5
   281          3
   282          3
   283          3
   284         24
   285         25
   286          9
   287          2
   288          1
   289          1
   291          1
   293          1
   294          1
   295          1
   296          2
   297          2
   298          1
   299          1
   300          1
   305          1
   306          1
   307          1
   308          2
   309          1
   311          1
   312          3
   313          9
   314          2
   317          1
   318          1
   319          1
   320          1
   321          1
   322          1
   323          1
   324          1
   325          2
   326          1
   333          1
   334          1
   335          3
   336          6
   337          7
   338          4
   339         10
   340          4
   341          2
   351          1
   353          1
   354          1
   367          1
   368          1
   381          1
   382          2
   383          1
   391          1
   393          1
   394          1
   395          1
   396          4
   397          1
   509          2
   510          1
   523          1
   524         93
   525         32
   526          7
   527          1