##TITLE=Library Entry 29821
##JCAMP-DX=Revision 4.10 
##DATA TYPE=MASS SPECTRUM
##SAMPLE DESCRIPTION=MI-0038
##NAMES=HP
##CAS NAME=2,3-Butanediol, 2-(p-chlorophenyl)-3-methyl-
##MOLFORM=C11H15ClO2
##CAS REGISTRY NO=79-93-6
##MP= -300
##BP= -300
##MW= 214
##$RETENTION INDEX=0
##$CONDENSED SPECTRUM=NO
##NPOINTS= 43
##XYDATA=(XY..XY) 1 
    41         79
    42         19
    43        719
    44         24
    50         29
    51         49
    57         39
    58         49
    59        999
    60         49
    73         14
    74         19
    75         69
    76         19
    77         79
    78         24
   111         74
   112         39
   113         49
   114         19
   115         19
   120         19
   121        409
   122         39
   125         49
   138         34
   139        109
   140         24
   141         99
   142         14
   143         29
   153         69
   154         34
   155        379
   156        449
   157        149
   158        139
   159         19
   179          9
   180         19
   181         69
   182         24
   183         29