##TITLE=Library Entry 12361
##JCAMP-DX=Revision 4.10 
##DATA TYPE=MASS SPECTRUM
##SAMPLE DESCRIPTION=Japan AIST/NIMC Database- Spectrum MS-NW-9372
##NAMES=HP
##CAS NAME=Terebic acid
##MOLFORM=C7H10O4
##CAS REGISTRY NO=79-91-4
##MP= -300
##BP= -300
##MW= 158
##$RETENTION INDEX=0
##$CONDENSED SPECTRUM=NO
##NPOINTS= 78
##XYDATA=(XY..XY) 1 
    14          2
    15         20
    17          1
    18          3
    25          1
    26         17
    27         87
    28         31
    29         28
    30          1
    31         27
    32          1
    37          2
    38          6
    39         61
    40         11
    41        173
    42         31
    43        999
    44         45
    45         37
    46          3
    50          5
    51          8
    52          3
    53         31
    54         12
    55        507
    56        103
    57         14
    58          8
    59        466
    60         17
    61          2
    62          1
    63          1
    65          3
    66          1
    67         19
    68         21
    69        130
    70         10
    71         38
    72        125
    73         27
    74          1
    81         12
    82         23
    83          9
    84          1
    85          2
    86          1
    87          1
    95          3
    96         11
    97         43
    98          4
    99         26
   100        190
   101         37
   102          2
   112          1
   113          6
   114        111
   115        170
   116          9
   117          1
   125         18
   126          1
   140          1
   141         21
   142          2
   143        537
   144         36
   145          5
   158         12
   159         45
   160          3