##TITLE=Library Entry 14248
##JCAMP-DX=Revision 4.10 
##DATA TYPE=MASS SPECTRUM
##SAMPLE DESCRIPTION=Japan AIST/NIMC Database- Spectrum MS-IW-6263
##NAMES=HP
##CAS NAME=2-(2,4-Dinitrophenylhydrazono)propionic acid
##MOLFORM=C9H8N4O6
##CAS REGISTRY NO=790-12-5
##MP= -300
##BP= -300
##MW= 268
##$RETENTION INDEX=0
##$CONDENSED SPECTRUM=NO
##NPOINTS= 192
##XYDATA=(XY..XY) 1 
    12          3
    13          1
    14          9
    15         65
    16          9
    17         33
    18        180
    20          1
    22          3
    25          2
    26         22
    27         71
    28        218
    29         16
    30        353
    31         12
    32         13
    37         22
    38         88
    39        128
    40        112
    41        216
    42        303
    43        999
    44        407
    45        110
    46         10
    47          2
    48          1
    49          5
    50         63
    51        165
    52        151
    53         48
    54         17
    55         41
    56          4
    57          4
    58          1
    59          5
    60          6
    61         40
    62        161
    63        278
    64        169
    65         87
    66         42
    67         15
    68         20
    69          6
    70          3
    71         10
    72          4
    73          8
    74         71
    75        200
    76        122
    77        284
    78        236
    79        268
    80         56
    81          8
    82          7
    83          4
    84          1
    85          2
    86          3
    87         13
    88         45
    89         84
    90        107
    91        228
    92         99
    93         45
    94         11
    95         12
    96          6
    97          5
    98          1
    99          2
   100          2
   101         22
   102         40
   103         41
   104         77
   105         61
   106         57
   107         62
   108         10
   109          3
   110          1
   111         13
   112          2
   114          2
   115          8
   116         44
   117         16
   118         18
   119         35
   120         20
   121         12
   122        126
   123         11
   124          3
   125          1
   128          1
   129          8
   130          9
   131         61
   132         39
   133         14
   134         10
   135         95
   136         28
   137         33
   138         16
   139          2
   142          2
   143          2
   144          9
   145          7
   146          9
   147         14
   148         21
   149         16
   150          7
   151         17
   152        220
   153         79
   154         11
   155          1
   158          1
   159          3
   160         43
   161         17
   162         78
   163         15
   164         27
   165         58
   166         11
   167         24
   168          6
   169          1
   174          1
   175          3
   176         13
   177         39
   178         29
   179         12
   180        266
   181        169
   182         70
   183        296
   184         26
   185          4
   186          1
   188          1
   189          2
   190         16
   191          6
   192          6
   193          2
   194          2
   195          4
   196          1
   198          2
   204          1
   205          3
   206         52
   207         22
   208          4
   209          2
   210          1
   214          1
   220          1
   221          1
   222        465
   223         56
   224         13
   225          1
   234          2
   236          1
   238          5
   246          1
   250          4
   251         14
   252         14
   253          2
   268        980
   269        129
   270         20
   271          2