##TITLE=Library Entry 70762
##JCAMP-DX=Revision 4.10 
##DATA TYPE=MASS SPECTRUM
##SAMPLE DESCRIPTION=Chemical Concepts
##NAMES=HP
##CAS NAME=Cyclododecanamine, N-cyclohexylidene-
##MOLFORM=C18H33N
##CAS REGISTRY NO=79014-38-3
##MP= -300
##BP= -300
##MW= 263
##$RETENTION INDEX=0
##$CONDENSED SPECTRUM=NO
##NPOINTS= 178
##XYDATA=(XY..XY) 1 
    24          0
    25          1
    26          6
    27         73
    29        157
    30         75
    31          0
    37          1
    38          1
    39         83
    40         14
    41        525
    42         86
    43        165
    44         20
    45          0
    47          0
    49          0
    50          1
    51          4
    52          6
    53         82
    54        204
    55        505
    56        101
    57         64
    58         50
    59          1
    62          0
    63          0
    64          0
    65         16
    66         12
    67        199
    68         73
    69        243
    70         42
    71         15
    72          6
    73          1
    74          1
    75          0
    77         17
    78          3
    79         65
    80         88
    81        232
    82        102
    83        163
    84         22
    85          8
    86          2
    87          0
    88          1
    89          1
    90          0
    91         11
    92          2
    93         16
    94         70
    95         77
    96        109
    97        161
    98        999
    99         70
   100         16
   101          1
   102          0
   103          0
   104          1
   105          3
   106          8
   107          9
   108         48
   109         54
   110        119
   111        199
   112         31
   113          1
   114          1
   116          0
   117          1
   118          1
   119          3
   120          7
   121          7
   122         90
   123        220
   124        358
   125         98
   126         18
   127          1
   128          1
   130          0
   131          0
   132          2
   133          3
   134          8
   135          6
   136        231
   137         98
   138         91
   139        325
   140         37
   141          2
   142          0
   145          0
   146          0
   147          1
   148          5
   149          4
   150        114
   151         46
   152        210
   153         91
   154         10
   155          1
   160          0
   161          0
   162          4
   163          3
   164         93
   165         36
   166        130
   167         34
   168          4
   169          0
   175          0
   176          3
   177          1
   178         66
   179         64
   180         89
   181         23
   182         18
   183          3
   184          1
   185          0
   186          0
   188          0
   190          1
   191          0
   192        105
   193         29
   194         48
   195         16
   196          1
   204          1
   205          0
   206         86
   207         46
   208         50
   209         14
   210          1
   216          1
   218          2
   219          1
   220        230
   221         47
   222         88
   223         14
   224          1
   232          0
   233          0
   234         65
   235         21
   236          3
   237          0
   248         25
   249          5
   259          1
   260          1
   261          2
   262         58
   263        397
   264         93
   265         10
   266          0