##TITLE=Library Entry 20933
##JCAMP-DX=Revision 4.10 
##DATA TYPE=MASS SPECTRUM
##SAMPLE DESCRIPTION=TNO Volatile Compounds in Food - Chemical Concepts
##NAMES=HP
##CAS NAME=2-Butene, 1,4-bis(ethylthio)-, (E)-
##MOLFORM=C8H16S2
##CAS REGISTRY NO=79029-65-5
##MP= -300
##BP= -300
##MW= 176
##$RETENTION INDEX=0
##$CONDENSED SPECTRUM=NO
##NPOINTS= 74
##XYDATA=(XY..XY) 1 
    25          8
    26         59
    27        361
    29        124
    30          7
    33          3
    34          6
    35         76
    36          0
    37          5
    38          8
    39        140
    41         82
    42          4
    43          6
    44          3
    45        455
    46         41
    47        161
    48          8
    49         10
    50         21
    51         35
    52         15
    53        265
    54        110
    55        999
    56         51
    57         11
    58         50
    59        189
    60         59
    61        410
    62         36
    63         40
    64          5
    65          6
    66          9
    67         11
    68          2
    69         14
    71         26
    72          3
    73         50
    74          3
    75         75
    76          4
    77          8
    79         11
    81         27
    82          4
    83          3
    84         70
    85        980
    86         78
    87        186
    88         14
    89          7
    90          3
    93         22
    94          7
    99          7
   101         27
   103          3
   113          4
   114        639
   115        283
   116         49
   117         18
   119          2
   122          6
   147          7
   176         11
   177          2