##TITLE=Library Entry 24582
##JCAMP-DX=Revision 4.10 
##DATA TYPE=MASS SPECTRUM
##SAMPLE DESCRIPTION=Chemical Concepts
##NAMES=HP
##CAS NAME=Carbamic acid, (2-hydroxy-1-methylethyl)-, 1,1-dimethylethyl este
r, (s)-
##MOLFORM=C8H17NO3
##CAS REGISTRY NO=79069-13-9
##MP= -300
##BP= -300
##MW= 175
##$RETENTION INDEX=0
##$CONDENSED SPECTRUM=NO
##NPOINTS= 80
##XYDATA=(XY..XY) 1 
    26          6
    27         70
    28         72
    29        216
    30         16
    31        224
    33          0
    34          0
    36          0
    37          2
    38          1
    39         88
    40         10
    41        388
    42         57
    43         53
    44        771
    45         19
    46          1
    47          0
    49          1
    50          1
    51          6
    52          1
    53          6
    54          2
    55         27
    56         44
    57        999
    58         49
    59        361
    60         33
    61          1
    62          8
    65          3
    67          1
    68          0
    69          0
    70          4
    71          1
    72          0
    73          7
    74          7
    75          1
    76          7
    77          0
    79          0
    82          0
    83          0
    84          1
    86          5
    87          2
    88        164
    89         15
    90          3
    91          1
    92          1
    93          0
    94          0
   100          1
   101          3
   102        104
   103          3
   104          3
   110          0
   118          1
   119          0
   120          1
   129          0
   130          0
   142          0
   143          0
   144        215
   145         33
   146          2
   147          0
   155          0
   158          1
   175          4
   176          0