##TITLE=Library Entry 59369
##JCAMP-DX=Revision 4.10 
##DATA TYPE=MASS SPECTRUM
##SAMPLE DESCRIPTION=A.I. Gren, Phys.-Chem. Inst., Acad. Sci. Ukraine, Odess
a, Ukraine
##NAMES=HP
##CAS NAME=7H-Purine, 7-benzyl-2,6-dichloro-
##MOLFORM=C12H8Cl2N4
##CAS REGISTRY NO=79064-26-9
##MP= -300
##BP= -300
##MW= 278
##$RETENTION INDEX=0
##$CONDENSED SPECTRUM=NO
##NPOINTS= 54
##XYDATA=(XY..XY) 1 
    50         20
    51         31
    54         21
    55        144
    56        176
    57        187
    58         55
    59         65
    60         99
    63         25
    64         20
    65        125
    67         43
    68         38
    69        101
    70         54
    71         74
    72         27
    73         38
    74         15
    77         24
    79         29
    81         37
    82         27
    83         62
    84         44
    85         25
    87         15
    89         29
    91        999
    92         92
    94         22
    95         38
    96         29
    97         50
    98         51
   102         17
   105         35
   107         22
   109         22
   114         22
   115         29
   121         17
   122         21
   123         17
   129         29
   139         19
   180         21
   181         25
   274         16
   277         31
   278        128
   279         38
   280         85