##TITLE=Library Entry 67387
##JCAMP-DX=Revision 4.10 
##DATA TYPE=MASS SPECTRUM
##SAMPLE DESCRIPTION=NIST Mass Spectrometry Data Center
##NAMES=HP
##CAS NAME=(Z)-epi-.beta.-Santalol
##MOLFORM=C15H24O
##CAS REGISTRY NO=79081-90-6
##MP= -300
##BP= -300
##MW= 220
##$RETENTION INDEX=1709
##$CONDENSED SPECTRUM=NO
##NPOINTS= 127
##XYDATA=(XY..XY) 1 
    26          1
    27         19
    28          5
    29         33
    30          2
    31         12
    38          2
    39         61
    40         14
    41        148
    42         10
    43        144
    44          6
    45          7
    50          4
    51         19
    52         10
    53         64
    54          9
    55        103
    56         10
    57         23
    58          4
    62          2
    63          6
    64          4
    65         54
    66         23
    67        154
    68         21
    69         61
    70         10
    71         16
    72          1
    74          1
    76          1
    77        151
    78         33
    79        290
    80         38
    81         94
    82         11
    83         22
    84         42
    85          5
    87          1
    88          1
    89          3
    90          1
    91        198
    92         41
    93        297
    94        999
    95        120
    96         13
    97         17
    98          5
   102          2
   103         13
   104          6
   105        100
   106         49
   107        132
   108         33
   109         61
   110          9
   111          5
   112          1
   115         13
   116          4
   117         26
   118         10
   119         99
   120         39
   121         98
   122        387
   123         54
   124          5
   127          1
   128          5
   129          6
   130          4
   131         28
   132         16
   133         67
   134         94
   135         53
   136         10
   137         12
   138          3
   140          1
   141          1
   142          1
   143          2
   144          2
   145         17
   146          8
   147         28
   148         14
   151          3
   152         34
   153          7
   154          5
   155          1
   158          1
   159         31
   160          7
   161         44
   162          6
   163          2
   164          1
   165          1
   173         13
   174         10
   177          2
   178          1
   179          1
   187         26
   188          4
   189          9
   191          1
   192          1
   202         28
   203          3
   205          2
   220          3
   221          1