##TITLE=Library Entry 24459
##JCAMP-DX=Revision 4.10 
##DATA TYPE=MASS SPECTRUM
##SAMPLE DESCRIPTION=PYTCAS 20(6); 1315(1981); ANIMESH GOSWAMI
##NAMES=HP
##CAS NAME=Tritriacontan-3-one
##MOLFORM=C33H66O
##CAS REGISTRY NO=79097-23-7
##MP= -300
##BP= -300
##MW= 478
##$RETENTION INDEX=0
##$CONDENSED SPECTRUM=NO
##NPOINTS= 24
##XYDATA=(XY..XY) 1 
    29        200
    43        610
    57        999
    72         70
    85        210
    99        170
   113        140
   127         70
   141         70
   155         30
   169         30
   183         30
   197         30
   211         30
   225         30
   253         30
   267         30
   281         30
   295         30
   309         30
   323         30
   337         30
   449         70
   478        140