##TITLE=Library Entry 29387
##JCAMP-DX=Revision 4.10 
##DATA TYPE=MASS SPECTRUM
##SAMPLE DESCRIPTION=Patti Price, Georgia Bureau of Investigation, Decatur,
 Georgia
##NAMES=HP
##CAS NAME=Clofedanol
##MOLFORM=C17H20ClNO
##CAS REGISTRY NO=791-35-5
##MP= -300
##BP= -300
##MW= 289
##$RETENTION INDEX=2082
##$CONDENSED SPECTRUM=NO
##NPOINTS= 177
##XYDATA=(XY..XY) 1 
    42         39
    43         14
    44         30
    45         42
    50          7
    51         21
    52          2
    53          1
    54          1
    55          6
    56         17
    57         16
    58        999
    59         40
    61          1
    62          1
    64          1
    65          5
    66          1
    68          1
    69          1
    70         13
    71         16
    72         45
    73         54
    74         20
    75         27
    76         16
    77        109
    78         18
    79          4
    80          1
    81          1
    82          2
    84          1
    85          2
    86          1
    87          3
    88          3
    89         11
    90          2
    91         24
    92          2
    94          3
    95          1
    96          1
    97          1
    98          2
    99          3
   100          1
   101          6
   102          6
   103          7
   104          2
   105         93
   106          7
   107          2
   108          1
   109          1
   110          2
   111         67
   112          8
   113         24
   114          4
   115         18
   116          3
   117          1
   118          1
   120          3
   121          5
   122          1
   123          1
   125         12
   126          6
   127         10
   128          3
   130          1
   131          2
   132          4
   133          2
   134          2
   136          1
   137          3
   138          2
   139        161
   140         13
   141         52
   142          4
   143          1
   144          3
   145          1
   146          2
   147          1
   148          1
   149          4
   150          9
   151         23
   152         52
   153         13
   154          3
   155          1
   159          1
   160          7
   161          1
   162          2
   163          9
   164          8
   165         28
   166          9
   167          4
   168          3
   169          1
   174          1
   175          2
   176         16
   177         12
   178         67
   179         48
   180          8
   181          7
   182          3
   183          6
   184          1
   187          1
   188          2
   189          9
   190          4
   191          8
   192          5
   193          3
   194         10
   195          3
   196          3
   197          1
   199          3
   200          1
   207          3
   208          1
   209          1
   210          2
   211          1
   212         13
   213          2
   214         19
   215          4
   216         10
   217         17
   218         19
   219          8
   220         10
   221          2
   222          1
   225          1
   226          7
   227          3
   229          1
   236          6
   237          1
   238          1
   239          2
   240          1
   250          1
   252          1
   254        831
   255        145
   256         16
   257          1
   263          1
   264          1
   270          2
   272          1
   273          1
   287          1
   288          1
   289          2
   290          1
   291          1