##TITLE=Library Entry 36453
##JCAMP-DX=Revision 4.10 
##DATA TYPE=MASS SPECTRUM
##SAMPLE DESCRIPTION=NIST Mass Spectrometry Data Center, 2010
##NAMES=HP
##CAS NAME=(3R,3aR,7R,8aS)-3,8,8-Trimethyl-6-methyleneoctahydro-1H-3a,7-meth
anoazulene
##MOLFORM=C15H24
##CAS REGISTRY NO=79120-98-2
##MP= -300
##BP= -300
##MW= 204
##$RETENTION INDEX=1414
##$CONDENSED SPECTRUM=NO
##NPOINTS= 88
##XYDATA=(XY..XY) 1 
    27         32
    29         50
    39        134
    40         29
    41        502
    42         26
    43         97
    51         59
    52         24
    53        156
    54         22
    55        315
    56        101
    57        278
    58         20
    63         18
    64         11
    65        104
    66         31
    67        234
    68         42
    69        999
    70         88
    71        294
    72         14
    76         10
    77        359
    78        100
    79        324
    80         82
    81        196
    82        212
    83         47
    84         40
    91        539
    92        452
    93        716
    94        146
    95        132
    97         16
   102          9
   103         46
   104         24
   105        427
   106        134
   107        139
   108         48
   109        258
   110         31
   111         21
   112         75
   113         32
   115         77
   116         21
   117         66
   118         20
   119        620
   120        458
   121        222
   122         38
   123         30
   127         15
   128         47
   129         40
   130         17
   131         33
   133        458
   134        138
   135         65
   136         54
   137         27
   141         20
   142         11
   143         28
   144         16
   145         19
   147        113
   148         75
   160         35
   161        976
   162        182
   163         13
   175         26
   176         12
   189         53
   190          7
   204        203
   205         34