##TITLE=Library Entry 96814
##JCAMP-DX=Revision 4.10 
##DATA TYPE=MASS SPECTRUM
##SAMPLE DESCRIPTION=NIST Mass Spectrometry Data Center, 1998.
##NAMES=HP
##CAS NAME=Carbamic acid, (2-(4-phenoxyphenoxy)ethyl)-, ethyl ester
##MOLFORM=C17H19NO4
##CAS REGISTRY NO=79127-80-3
##MP= -300
##BP= -300
##MW= 301
##$RETENTION INDEX=2459
##$CONDENSED SPECTRUM=NO
##NPOINTS= 156
##XYDATA=(XY..XY) 1 
    14          1
    15         17
    25          2
    26         15
    27         54
    28         25
    29        121
    30         72
    31        106
    37          2
    38         20
    39         65
    40         13
    41         17
    42        187
    43         38
    44        210
    45         98
    46         35
    47          2
    49          1
    50         89
    51        308
    52         36
    53         35
    54         30
    55         21
    56         26
    57         12
    60          2
    61          4
    62         20
    63         99
    64         67
    65         78
    66         17
    67          3
    68          3
    69          2
    70        192
    71         11
    72          3
    73          2
    74         21
    75         24
    76         56
    77        750
    78        105
    79         21
    80          6
    81         42
    82         19
    83          1
    84          3
    85          1
    86          2
    88        832
    89         41
    90          8
    91         24
    92         21
    93         25
    94         19
    95          3
    96          1
   101          4
   102         36
   103         24
   104          6
   105         12
   106         13
   107          9
   108          2
   109        101
   110         36
   111          3
   113          4
   114          7
   115        205
   116        999
   117         61
   118         10
   119          5
   120         11
   121          4
   122          3
   123          1
   126          4
   127         45
   128        115
   129        231
   130         32
   131         25
   132          4
   133          2
   134          4
   135         20
   136          3
   137          1
   138          2
   139         44
   140         12
   141        131
   142         17
   143          4
   144          4
   145          2
   150          1
   151          2
   152          4
   153         12
   154          3
   155          9
   156          3
   157         88
   158         52
   159          7
   160          1
   163          2
   165          2
   167          4
   168         24
   169         33
   170         11
   171         21
   172          3
   179          2
   181          4
   182          1
   183          8
   184         10
   185        270
   186        752
   187        102
   188          8
   195          1
   196          2
   197          7
   198          5
   199         38
   200          6
   211          3
   212         21
   213          4
   214          2
   226          5
   227          2
   228          1
   253          1
   255        847
   256        177
   257         21
   258          2
   301         48
   302          9
   303          1