##TITLE=Library Entry 20827
##JCAMP-DX=Revision 4.10 
##DATA TYPE=MASS SPECTRUM
##SAMPLE DESCRIPTION=M. RYSKA, MS LAB., PHARM. BIOCHEM. RES. INST., PRAGUE,
 CZECH.
##NAMES=HP
##CAS NAME=(.+/-.)-5-Chloro-2-(2-propenyl)pentanal
##MOLFORM=C8H13ClO
##CAS REGISTRY NO=79228-14-1
##MP= -300
##BP= -300
##MW= 160
##$RETENTION INDEX=0
##$CONDENSED SPECTRUM=NO
##NPOINTS= 30
##XYDATA=(XY..XY) 1 
    51         40
    53        150
    54         80
    55        999
    56        230
    63         20
    65         40
    67        200
    68         60
    69        100
    70         30
    75         30
    77         60
    79         50
    81         60
    83        480
    84        330
    85         20
    89         30
    91         20
    93         20
    95         50
    97        120
    98         20
   105        140
   107         40
   118        120
   120         30
   131         30
   133         10