##TITLE=Library Entry 60069
##JCAMP-DX=Revision 4.10 
##DATA TYPE=MASS SPECTRUM
##SAMPLE DESCRIPTION=ASES Database, Dalian Institute, P.R. China
##NAMES=HP
##CAS NAME=1,5-Bis(5-methylthio-1,3,4-thiadiazole-2-ylthio)-2,4-dinitrobenze
ne
##MOLFORM=C12H8N6O4S6
##CAS REGISTRY NO=79236-81-0
##MP= -300
##BP= -300
##MW= 492
##$RETENTION INDEX=0
##$CONDENSED SPECTRUM=NO
##NPOINTS= 50
##XYDATA=(XY..XY) 1 
    64        631
    73        717
    75        281
    88        519
    91        999
   105        146
   106         99
   120         99
   131        156
   136         65
   149         54
   152         43
   164        478
   166         74
   178         61
   184         30
   195         27
   196         63
   210         46
   212         31
   254        118
   255         50
   257         46
   311        116
   312         38
   326         66
   327        232
   328         66
   329        144
   330         38
   341         39
   344        228
   345         38
   346         50
   372        207
   373         38
   374         66
   388         38
   402         20
   419         46
   427         82
   428         38
   445         27
   446         70
   475        625
   476        120
   477        174
   492        108
   493         28
   494         31