##TITLE=Library Entry 24147
##JCAMP-DX=Revision 4.10 
##DATA TYPE=MASS SPECTRUM
##SAMPLE DESCRIPTION=NIST Mass Spectrometry Data Center, 1990.
##NAMES=HP
##CAS NAME=8-Octadecanone
##MOLFORM=C18H36O
##CAS REGISTRY NO=79246-41-6
##MP= -300
##BP= -300
##MW= 268
##$RETENTION INDEX=0
##$CONDENSED SPECTRUM=NO
##NPOINTS= 77
##XYDATA=(XY..XY) 1 
    14         10
    27         91
    28        117
    29        206
    31          5
    32         23
    39         70
    41        546
    42        134
    43        686
    44         23
    53         34
    54         39
    55        421
    56        121
    57        999
    58        579
    59        206
    60          8
    65          8
    67        109
    68         51
    69        134
    70         81
    71        530
    72         71
    73          6
    77          8
    79         17
    80          8
    81         97
    82        201
    83        123
    84         75
    85        228
    86         72
    87          7
    93          5
    95        164
    96         82
    97         52
    98         39
    99        105
   100         92
   101          9
   109         85
   110         36
   111         15
   112         10
   113         64
   114         33
   123         11
   124        112
   125         17
   126         40
   127        408
   128         44
   137          7
   141         27
   142        103
   143        114
   144         10
   149         29
   151          7
   155         59
   156          9
   166         14
   167         12
   169        296
   170         38
   184         46
   185         34
   197         28
   198          5
   211         11
   225         10
   268          9