##TITLE=Library Entry 30429
##JCAMP-DX=Revision 4.10 
##DATA TYPE=MASS SPECTRUM
##SAMPLE DESCRIPTION=Chemical Concepts
##NAMES=HP
##CAS NAME=2-Naphthalenemethanol, 1,2,3,4,4a,5,6,8a-octahydro-.alpha.,.alpha
.,4a,8-tetramethyl-, (2.alpha.,4a.alpha.,8a.alpha.)-
##MOLFORM=C15H26O
##CAS REGISTRY NO=79254-46-9
##MP= -300
##BP= -300
##MW= 222
##$RETENTION INDEX=0
##$CONDENSED SPECTRUM=NO
##NPOINTS= 130
##XYDATA=(XY..XY) 1 
    27         30
    28          0
    29         51
    31         43
    39         46
    40          8
    41        173
    42         10
    43        144
    44          7
    45         14
    50          2
    51         12
    52          5
    53         54
    54          7
    55        126
    56         11
    57         20
    58         18
    59        999
    60         28
    61          3
    63          3
    64          3
    65         33
    66         11
    67        133
    68         32
    69         61
    70          8
    71         28
    72          2
    73          2
    74          1
    75          2
    76          2
    77         84
    78         19
    79        126
    80         22
    81        179
    82         39
    83         35
    84          6
    85          6
    87          2
    89          3
    91        162
    92         28
    93        220
    94         42
    95        168
    96         89
    97         20
    98          4
    99          1
   102          1
   103          9
   104          6
   105        126
   106         40
   107        213
   108        129
   109        578
   110         74
   111          9
   112          1
   115         10
   116          4
   117         12
   118          3
   119         55
   120         52
   121         90
   122         83
   123         79
   124         11
   125         12
   127          2
   128          5
   129          5
   130          2
   131         12
   132          3
   133         56
   134         19
   135        153
   136         35
   137         12
   138          2
   139          2
   141          2
   142          1
   143          2
   144          1
   145         10
   146          3
   147         37
   148         20
   149        443
   150         57
   151        131
   152         15
   157          1
   159          3
   160          8
   161        183
   162         29
   163         17
   164         70
   165         12
   166         42
   167          6
   173          2
   175         20
   176          5
   177          2
   178          1
   185          2
   189        198
   190         28
   191         12
   204        344
   205         57
   206          6
   207         17
   208          2
   222         34
   223          6