##TITLE=Library Entry 35179
##JCAMP-DX=Revision 4.10 
##DATA TYPE=MASS SPECTRUM
##SAMPLE DESCRIPTION=A.Pleshkova, Nesmeyanov Inst.Org.Elem.Cpds, Moscow
##NAMES=HP
##CAS NAME=1,1,1,4,4,5,5,5-Octafluoro-2-trifluoromethylpentane-3-thione
##MOLFORM=C6HF11S
##CAS REGISTRY NO=79272-22-3
##MP= -300
##BP= -300
##MW= 314
##$RETENTION INDEX=0
##$CONDENSED SPECTRUM=NO
##NPOINTS= 52
##XYDATA=(XY..XY) 1 
    44         51
    45         32
    50         42
    51         22
    57         23
    63        703
    64         25
    65         43
    69        999
    70         11
    75         73
    76         25
    82         21
    85         32
    87         65
    93          3
    94         93
   100         34
   106         45
   107        354
   108         25
   109         22
   113        287
   114         32
   115         44
   119         54
   124         21
   125         57
   126         76
   137         23
   143         21
   144         29
   145         25
   157         21
   163        465
   164         28
   165         32
   175        122
   176         11
   177         18
   194         25
   195        701
   196         42
   197         56
   207          6
   213          8
   245          7
   294          7
   295         10
   314        186
   315         19
   316         11