##TITLE=Library Entry 36443
##JCAMP-DX=Revision 4.10 
##DATA TYPE=MASS SPECTRUM
##SAMPLE DESCRIPTION=A.Pleshkova, Nesmeyanov Inst.Org.Elem.Cpds, Moscow
##NAMES=HP
##CAS NAME=4,4,5,5,6,6,6-Heptafluoro-3,3-bis(trifluoromethyl-1-hexene
##MOLFORM=C8H3F13
##CAS REGISTRY NO=79272-26-7
##MP= -300
##BP= -300
##MW= 346
##$RETENTION INDEX=0
##$CONDENSED SPECTRUM=NO
##NPOINTS= 47
##XYDATA=(XY..XY) 1 
    51        105
    52          9
    57         13
    64         38
    65         55
    69        999
    70          8
    75         68
    77         22
    88         20
    89         43
    93         23
    95         18
    99          4
   100         53
   101          4
   113         40
   119         83
   120         11
   127          9
   138         45
   139        143
   140          5
   145         35
   150          5
   157        141
   158        375
   159         13
   163         98
   169        340
   170          6
   177        117
   178          3
   181         37
   189         25
   195         26
   207         61
   208          3
   227         27
   239          4
   257         92
   258         26
   263         11
   307        140
   308         11
   327          5
   346         21