##TITLE=Library Entry 5213
##JCAMP-DX=Revision 4.10 
##DATA TYPE=MASS SPECTRUM
##SAMPLE DESCRIPTION=A.A.Kutin, Moscow, Russia
##NAMES=HP
##CAS NAME=2-(4-Chlorophenoxy)-N'-hydroxyethanimidamide
##MOLFORM=C8H9ClN2O2
##CAS REGISTRY NO=79295-18-4
##MP= -300
##BP= -300
##MW= 200
##$RETENTION INDEX=0
##$CONDENSED SPECTRUM=NO
##NPOINTS= 118
##XYDATA=(XY..XY) 1 
    34          0
    35          1
    36          6
    37          7
    38         21
    39         32
    40         16
    41         35
    42        999
    43        142
    44         28
    45          3
    46          3
    47          3
    49          7
    50         32
    51         26
    52          2
    53          6
    54          1
    55         24
    56         59
    57         13
    58         49
    59          8
    60          2
    61          9
    62         15
    63         54
    64         24
    65         44
    66          4
    67          0
    71          0
    72          7
    73        172
    74         28
    75        110
    76         19
    77         32
    78          7
    79          5
    80          3
    82          0
    84          2
    85         10
    86          1
    87          5
    89          5
    90          1
    92         13
    93         11
    94          7
    97          0
    99         92
   100         22
   101         30
   102          8
   104          2
   105          3
   106          3
   107          6
   108          0
   110          0
   111        111
   112         15
   113         47
   114          9
   115          6
   116          1
   119          6
   120          6
   121          2
   125          7
   126          5
   127         55
   128        509
   129         53
   130        169
   131         13
   132          1
   133          6
   134          1
   135          0
   136          0
   138          6
   139          3
   140          6
   141         37
   142         15
   143         15
   144          5
   145          0
   147         35
   148         21
   149          4
   152          3
   153         20
   154          5
   155         10
   156          4
   166         10
   167         14
   168         11
   169          4
   170          3
   171          0
   181          0
   183        234
   184         30
   185        125
   186         14
   187         17
   188          1
   200        251
   201         29
   202         85
   203          8