##TITLE=Library Entry 61535
##JCAMP-DX=Revision 4.10 
##DATA TYPE=MASS SPECTRUM
##SAMPLE DESCRIPTION=A.A.Kutin, Moscow, Russia
##NAMES=HP
##CAS NAME=Phenyl-acetic acid N'-phenylacetyl-hydrazide
##MOLFORM=C16H16N2O2
##CAS REGISTRY NO=793-25-9
##MP= -300
##BP= -300
##MW= 268
##$RETENTION INDEX=0
##$CONDENSED SPECTRUM=NO
##NPOINTS= 140
##XYDATA=(XY..XY) 1 
    33          3
    34          1
    36          2
    37          2
    38          7
    39         46
    40         31
    41         23
    43         22
    44         41
    45         10
    47          1
    48          1
    49          1
    50         10
    51         25
    52          8
    53          3
    54          1
    55         10
    56          4
    57          8
    58          2
    59          1
    60          7
    61          2
    62          8
    63         28
    64         14
    65        136
    66          8
    67          2
    68          1
    69          5
    70          3
    71          4
    72          1
    73          5
    74          2
    75          3
    76          3
    77         14
    78          7
    79          5
    80          1
    81          2
    82          3
    83          8
    85          9
    86          1
    87          3
    88          3
    89         47
    90        105
    91        999
    92        128
    93          8
    94          2
    95          2
    96          2
    97          3
    98          1
    99          8
   100          1
   101          1
   102          0
   103          2
   104          6
   105          7
   106         16
   107          3
   108          1
   109          2
   110          1
   111          2
   112          1
   113          1
   114          1
   115          3
   116         15
   117         46
   118        694
   119         72
   120          6
   121          4
   122         13
   123          3
   124          0
   125          1
   126          1
   127          3
   128          3
   129          1
   131          1
   132          7
   133          3
   134          3
   135         10
   136          6
   137          1
   145          1
   147          0
   149         21
   150        113
   151         14
   152          2
   153          0
   157          0
   159          6
   160          1
   161          1
   163          0
   165          1
   166          1
   167          1
   176          3
   177         51
   178          7
   179          2
   180          1
   181          2
   183          0
   193          1
   194          0
   205          1
   207          1
   208          0
   209          0
   211          0
   223          1
   224          0
   249          1
   250          5
   251          1
   253          1
   266          1
   267          4
   268        157
   269         29
   270          3