##TITLE=Library Entry 28068
##JCAMP-DX=Revision 4.10 
##DATA TYPE=MASS SPECTRUM
##SAMPLE DESCRIPTION=Div. of Experiment Therapeutics WRAIR, WRAMC, Washingto
n DC 20307
##NAMES=HP
##CAS NAME=5-[[7-Chloro-4-quinolinyl]amino]-3-[[diethylamino]methyl]-2'-meth
oxy-[1,1'-biphenyl]-2-ol, N(quin)-oxide
##MOLFORM=C27H28ClN3O3
##CAS REGISTRY NO=79305-49-0
##MP= -300
##BP= -300
##MW= 477
##$RETENTION INDEX=0
##$CONDENSED SPECTRUM=NO
##NPOINTS= 232
##XYDATA=(XY..XY) 1 
    41         71
    42        187
    43         70
    44        364
    45          9
    49         11
    50          5
    51         17
    52         11
    53          9
    54         16
    55         21
    56         91
    57         14
    58        999
    59         38
    63          8
    65          7
    66          4
    67          7
    68          9
    69         12
    70         14
    71         17
    72        207
    73        334
    74         54
    75          7
    76          4
    77         18
    78         24
    79          7
    81          4
    82          5
    83          7
    84         10
    85          6
    86         28
    87          3
    88          3
    89          9
    90          3
    91         11
    95          5
    97          4
    99         12
   100          5
   101          5
   102          5
   103          4
   105          5
   106         10
   107          8
   108          4
   109          3
   111          5
   113          6
   114          6
   115         14
   116          3
   118          4
   119          7
   121         13
   123          3
   124          8
   125          5
   126         12
   127         18
   128         14
   129          6
   131         11
   132          4
   133          7
   134          5
   135         19
   137          6
   138          4
   139         16
   140         13
   141         10
   145         10
   146         15
   147          3
   149          5
   150          5
   151          7
   152         13
   153          9
   154          7
   155         10
   156          3
   157          6
   158          6
   159          5
   160          5
   161          7
   162         18
   163          9
   164         16
   165         10
   166          6
   167          5
   168         17
   169         10
   170          4
   171          6
   172          6
   173          4
   176          3
   177          6
   178         12
   179         13
   180          7
   181         10
   182          6
   183         10
   184          4
   185          4
   186          7
   187          6
   188          3
   189          6
   191          3
   192          4
   193          5
   194         10
   195          5
   197          4
   198          3
   200          3
   201          3
   202          4
   203          3
   205          3
   210          3
   211         22
   212         11
   213          4
   215          7
   217          3
   218          4
   223          9
   224          4
   226          3
   227          5
   228          3
   229          3
   230         11
   231         12
   239          4
   240          4
   241          6
   242          5
   252          5
   253          8
   254          5
   255          4
   266          4
   267          5
   268          3
   269          4
   279          7
   280          6
   281          7
   282          4
   291          3
   292          6
   293          9
   294          6
   295          4
   307          3
   308          7
   309          8
   310          4
   315          5
   316          3
   317          4
   321          5
   322          6
   323          3
   324          3
   326          3
   327          5
   328          5
   329         11
   330          5
   331          7
   342          8
   343         16
   344         11
   345         16
   346          6
   347          5
   353          3
   355          7
   356          4
   357         16
   358          9
   359         24
   360          8
   361          8
   369          3
   370          5
   371         17
   372         10
   373         16
   374          9
   375          8
   376          3
   385          4
   386          6
   387         19
   388        286
   389         90
   390        107
   391         28
   392          7
   402          7
   404         69
   405         18
   406         27
   407          6
   420          4
   430          5
   432          3
   459         27
   460          9
   461        123
   462         36
   463         40
   464         10
   477          3