##TITLE=Library Entry 55067
##JCAMP-DX=Revision 4.10 
##DATA TYPE=MASS SPECTRUM
##SAMPLE DESCRIPTION=Chemical Concepts
##NAMES=HP
##CAS NAME=2H-Pyran, tetrahydro-2-(3-pentynyloxy)-
##MOLFORM=C10H16O2
##CAS REGISTRY NO=79322-55-7
##MP= -300
##BP= -300
##MW= 168
##$RETENTION INDEX=0
##$CONDENSED SPECTRUM=NO
##NPOINTS= 96
##XYDATA=(XY..XY) 1 
    26          7
    27         61
    28         30
    29         97
    30          3
    31         31
    37          1
    38          6
    39        100
    40         25
    41        283
    42         18
    43        119
    44          8
    45          3
    49          0
    50          8
    51         18
    52         12
    53         41
    54         60
    55        123
    56         59
    57        141
    58          7
    59          4
    60          0
    61          2
    62          2
    63          9
    64          3
    65         89
    66        121
    67        573
    68         54
    69         23
    70          4
    71          2
    72          1
    73          1
    74          1
    77          3
    78          1
    79         15
    80          4
    81         13
    82          6
    83         33
    84         61
    85        999
    86         79
    87          4
    91          5
    92          1
    93          4
    94          4
    95         16
    96          4
    97         34
    98          8
    99          3
   100         48
   101        123
   102          6
   103          6
   104          1
   105          1
   107          3
   109         11
   110         26
   111          6
   112         22
   113         39
   114          3
   115        151
   116         10
   117          1
   121          1
   122          1
   123         11
   124          6
   125         15
   126          3
   127          0
   128          2
   135          1
   137          1
   138          5
   139          8
   140         23
   141          2
   153         13
   154          1
   167          6
   168          1
   169          0