##TITLE=Library Entry 2260
##JCAMP-DX=Revision 4.10 
##DATA TYPE=MASS SPECTRUM
##SAMPLE DESCRIPTION=A.A.Kutin, Moscow, Russia
##NAMES=HP
##CAS NAME=Azabicyclo[2.2.2]octan-3-one, 2-[(4-nitrophenyl)methylene]-
##MOLFORM=C14H14N2O3
##CAS REGISTRY NO=79331-03-6
##MP= -300
##BP= -300
##MW= 258
##$RETENTION INDEX=0
##$CONDENSED SPECTRUM=NO
##NPOINTS= 182
##XYDATA=(XY..XY) 1 
    33          3
    34          2
    36          1
    37         11
    38         65
    39        476
    40        143
    41        999
    42        343
    43         80
    44         49
    45          6
    46         12
    48          0
    50        106
    51        144
    52         76
    53        147
    54         85
    55        269
    56         30
    57         19
    58          2
    60          1
    61         14
    62         86
    63        178
    64         60
    65         66
    66         20
    67         86
    68         54
    69         71
    70         36
    71          6
    72          2
    74         69
    75        117
    76        127
    77        128
    78         57
    79         21
    80         71
    81         57
    82         15
    83          6
    84          9
    85          4
    86         15
    87         39
    88         89
    89        175
    90         70
    91         46
    92         14
    93          6
    94         24
    95          2
    96          2
    97          2
    98         11
    99         11
   100         17
   101         93
   102        199
   103        120
   104         20
   105          7
   106         12
   107          8
   108         28
   109          3
   111          1
   112          2
   113         13
   114         80
   115        261
   116         85
   117         66
   118         18
   119         27
   120          5
   122          0
   124          0
   125          2
   126         10
   127         55
   128        217
   129        243
   130         67
   131         22
   132         19
   133          7
   134          2
   135          0
   136          7
   137          0
   138          0
   139          7
   140         10
   141         38
   142         46
   143         58
   144         21
   145         19
   146         13
   147          2
   148          5
   149         21
   150          5
   151          3
   152          8
   153         16
   154         66
   155        151
   156        128
   157         26
   158         27
   159         13
   160          5
   161         19
   162         19
   163          6
   164          1
   165          3
   166          5
   167         18
   168         36
   169         46
   170         12
   171         13
   172         19
   173          9
   174         14
   175         55
   176         22
   177          3
   180          6
   181         12
   182         72
   183        277
   184        263
   185        112
   186         17
   187          4
   188          6
   189          9
   190          1
   191          1
   192          1
   194          0
   195          0
   196          0
   197          1
   198          4
   199         10
   200         42
   201         76
   202        124
   203         17
   204          2
   205          0
   209          0
   210          3
   211          8
   213        301
   214         44
   215         16
   216          2
   217          2
   226          0
   227          8
   229        397
   230        258
   231         35
   232          3
   242          0
   255          1
   256          2
   258        258
   259         38
   260          4