##TITLE=Library Entry 100933
##JCAMP-DX=Revision 4.10 
##DATA TYPE=MASS SPECTRUM
##SAMPLE DESCRIPTION=Chemical Concepts
##NAMES=HP
##CAS NAME=Carbamothioic acid, [[(4-methylbenzoyl)amino](phenylamino)methyle
ne]-, S-methyl ester
##MOLFORM=C17H17N3O2S
##CAS REGISTRY NO=79340-27-5
##MP= -300
##BP= -300
##MW= 327
##$RETENTION INDEX=0
##$CONDENSED SPECTRUM=NO
##NPOINTS= 141
##XYDATA=(XY..XY) 1 
    25          0
    26          1
    27          6
    28          5
    29          6
    30          0
    32          2
    33          3
    34          0
    36          0
    37          1
    38          4
    39         49
    40          4
    41         16
    42          9
    43         44
    44          9
    45         43
    46         11
    47        112
    48         89
    49          7
    50         10
    51         34
    52          6
    53          2
    54          0
    59          0
    61          0
    62          5
    63         23
    64         13
    65        168
    66         17
    67          1
    68          0
    69         13
    70          2
    73          0
    74          1
    75         21
    76          5
    77         52
    78          5
    79          1
    80          0
    86          0
    87          0
    88          1
    89         29
    90         29
    91        494
    92         44
    93         26
    94          2
    96          0
   103          2
   104          2
   105          1
   106          1
   107          2
   115          0
   116          2
   117          8
   118         29
   119        999
   120        157
   121          9
   122          0
   123          0
   124          0
   125          0
   130          0
   131          1
   132          1
   133          1
   134          0
   135          1
   136          0
   139          0
   140          0
   144          1
   145         15
   146          1
   152          0
   153          0
   155          0
   159          1
   160          9
   161          3
   162          1
   163          4
   164          0
   165          1
   166          0
   167          0
   173          0
   180          0
   181          0
   182          0
   183          0
   187          1
   188          7
   189          0
   192          0
   194          0
   206          0
   207          0
   208          0
   209          1
   210          0
   211          0
   224          0
   234          0
   235          1
   236          6
   237          3
   238          0
   240          0
   250          2
   251          2
   252          1
   262          0
   264          0
   277          3
   278         50
   279         59
   280        566
   281        103
   282         11
   283          1
   284          1
   285          0
   312          0
   314          0
   326          0
   327         20
   328          5
   329          1
   330          0