##TITLE=Library Entry 99756
##JCAMP-DX=Revision 4.10 
##DATA TYPE=MASS SPECTRUM
##SAMPLE DESCRIPTION=Chemical Concepts
##NAMES=HP
##CAS NAME=Carbamothioic acid, [[(4-methylbenzoyl)amino](methylthio)methylen
e]-, S-methyl ester
##MOLFORM=C12H14N2O2S2
##CAS REGISTRY NO=79340-31-1
##MP= -300
##BP= -300
##MW= 282
##$RETENTION INDEX=0
##$CONDENSED SPECTRUM=NO
##NPOINTS= 155
##XYDATA=(XY..XY) 1 
    26          2
    27          9
    29          0
    33          3
    34          1
    36          0
    37          1
    38          5
    39         62
    40          6
    41         24
    42          2
    43          6
    44         15
    45         70
    46         21
    47        161
    48        112
    49          9
    50         16
    51         25
    52          5
    53          2
    54          0
    55          0
    56          0
    58          1
    59          2
    60          2
    61          3
    62          9
    63         40
    64         14
    65        225
    66         12
    67          0
    68          3
    69         13
    70          3
    71          0
    72          3
    73          5
    74          8
    75         52
    76          4
    77          6
    78          1
    79          1
    83          0
    84          0
    85          0
    86          7
    87          2
    88          2
    89         49
    90         42
    91        606
    92         46
    93          2
    94          0
    95          0
    97          0
    99          0
   101          0
   102          0
   103          1
   104          1
   105          0
   106          0
   111          0
   113          0
   114          0
   115          1
   116         10
   117         13
   118         18
   119        999
   120        200
   121         13
   122          1
   123          1
   124          0
   128          0
   129          0
   130          0
   131          0
   132          1
   133          0
   135          0
   136          0
   137          1
   138          0
   139          1
   141          0
   142          0
   143         12
   144          2
   145          1
   146          0
   148          0
   150          1
   153          0
   154          0
   158          0
   159          0
   160          0
   161          4
   162          0
   163          0
   164          0
   165          1
   166          2
   167          0
   173          1
   174          0
   175          0
   176          0
   177          0
   178          0
   187          2
   188          0
   189          0
   190          1
   191          1
   192          9
   193          1
   194          0
   201          1
   202          0
   205          1
   206          2
   207          1
   208          0
   219         14
   220          1
   221          2
   222          0
   223          0
   224          0
   232          1
   233         25
   234         55
   235        529
   236         74
   237         29
   238          3
   239          1
   255          0
   265          0
   267          0
   268          0
   280          0
   282          1
   283          1
   284          0