##TITLE=Library Entry 79704
##JCAMP-DX=Revision 4.10 
##DATA TYPE=MASS SPECTRUM
##SAMPLE DESCRIPTION=Chemical Concepts
##NAMES=HP
##CAS NAME=Carbamothioic acid, [(benzoylamino)(methylthio)methylene]-, S-met
hyl ester
##MOLFORM=C11H12N2O2S2
##CAS REGISTRY NO=79340-34-4
##MP= -300
##BP= -300
##MW= 268
##$RETENTION INDEX=0
##$CONDENSED SPECTRUM=NO
##NPOINTS= 116
##XYDATA=(XY..XY) 1 
    25          0
    26          2
    27          9
    29          0
    33          2
    34          1
    36          0
    37          0
    38          2
    39          5
    40          0
    41          0
    42          0
    43          3
    44         12
    45         50
    46         16
    47        120
    48         84
    49          7
    50         28
    51        101
    52          6
    53          1
    54          0
    56          0
    58          0
    59          0
    60          1
    61          0
    62          1
    63          2
    64          1
    65          1
    68          2
    69          8
    70          1
    72          2
    73          3
    74          8
    75         32
    76         19
    77        370
    78         27
    79          1
    84          0
    85          0
    86          4
    88          0
    89          0
    90          0
    91          0
   102          1
   103         10
   104          6
   105        999
   106         78
   107          4
   108          0
   109          0
   110          0
   111          0
   116          0
   117          0
   118          0
   119          0
   120          0
   121          0
   122          0
   129          3
   130          0
   131          0
   134          0
   136          1
   139          2
   141          0
   143          2
   144          0
   145          0
   146          0
   147          2
   148          0
   152          3
   153          0
   154          0
   173          4
   174          0
   175          0
   176          0
   177          0
   178         15
   179          1
   180          0
   187          1
   188          0
   191          3
   192          5
   193          1
   194          0
   205          9
   206          1
   207          1
   218          0
   219         31
   220         32
   221        257
   222         31
   223         15
   224          1
   225          0
   253          0
   255          0
   260          0
   262          0
   268          1
   269          0