##TITLE=Library Entry 12239
##JCAMP-DX=Revision 4.10 
##DATA TYPE=MASS SPECTRUM
##SAMPLE DESCRIPTION=D. Rasala, Inst. Chem., Pedagogical Univ., Kielce, Pola
nd
##NAMES=HP
##CAS NAME=4-Pyridinamine, N-acetyl-3-nitro-
##MOLFORM=C7H7N3O3
##CAS REGISTRY NO=79371-42-9
##MP= -300
##BP= -300
##MW= 181
##$RETENTION INDEX=0
##$CONDENSED SPECTRUM=NO
##NPOINTS= 17
##XYDATA=(XY..XY) 1 
    43        999
    52        120
    53         40
    64         50
    65         50
    66        100
    79         60
    93        160
   122         50
   135        150
   139        280
   140         40
   153         80
   154          6
   180          2
   181         60
   182         10