##TITLE=Library Entry 24124
##JCAMP-DX=Revision 4.10 
##DATA TYPE=MASS SPECTRUM
##SAMPLE DESCRIPTION=NIST Mass Spectrometry Data Center
##NAMES=HP
##CAS NAME=Octadecyl trifluoroacetate
##MOLFORM=C20H37F3O2
##CAS REGISTRY NO=79392-43-1
##MP= -300
##BP= -300
##MW= 366
##$RETENTION INDEX=2007
##$CONDENSED SPECTRUM=NO
##NPOINTS= 124
##XYDATA=(XY..XY) 1 
    26          2
    27         38
    28         13
    29        131
    30          4
    31          2
    33          1
    37          1
    38          2
    39         50
    40         14
    41        514
    42        141
    43        845
    44         31
    45          3
    47          3
    50          4
    51          4
    52          2
    53         35
    54         87
    55        787
    56        342
    57        999
    58         45
    59          3
    61          1
    65          6
    66         11
    67        109
    68        129
    69        652
    70        291
    71        469
    72         25
    73          1
    77          4
    78          3
    79         12
    80          6
    81         73
    82        277
    83        634
    84        224
    85        295
    86         19
    87          2
    91          2
    93          2
    94          3
    95         44
    96        147
    97        681
    98        161
    99         82
   100          5
   101          1
   107          1
   108          1
   109         18
   110         70
   111        418
   112        117
   113         37
   114          3
   115          2
   122          2
   123         12
   124         45
   125        210
   126         76
   127         24
   128          2
   136          1
   137          7
   138         31
   139         73
   140         51
   141         13
   142          1
   151          2
   152         23
   153         31
   154         31
   155          9
   156          1
   165          1
   166         11
   167         15
   168         22
   169          6
   170          1
   179          1
   180          7
   181          8
   182         12
   183          4
   193          1
   194          4
   195          5
   196          7
   197          2
   208          2
   209          2
   210          3
   211          1
   222          2
   223          1
   224         18
   225          3
   249          1
   250          3
   251          1
   252         24
   253          5
   279          2
   280          1
   297         29
   298          6
   299          1
   328          1
   348         10
   349          2