##TITLE=Library Entry 38625
##JCAMP-DX=Revision 4.10 
##DATA TYPE=MASS SPECTRUM
##SAMPLE DESCRIPTION=PYTCAS 20(4) 840(1981); J W KLIMASH ET AL
##NAMES=HP
##CAS NAME=Melcanthin E
##MOLFORM=C22H28O9
##CAS REGISTRY NO=79405-86-0
##MP= -300
##BP= -300
##MW= 436
##$RETENTION INDEX=0
##$CONDENSED SPECTRUM=NO
##NPOINTS= 14
##XYDATA=(XY..XY) 1 
    43        750
    71        999
    77        150
    83        236
    91        160
   128        259
   149         87
   161        137
   170          9
   211        125
   228        237
   256        196
   260        109
   376          7