##TITLE=Library Entry 58445
##JCAMP-DX=Revision 4.10 
##DATA TYPE=MASS SPECTRUM
##SAMPLE DESCRIPTION=Chemical Concepts
##NAMES=HP
##CAS NAME=Methyl 5-hydroxy-2-hexenoate, (E)-, TBDMS derivative
##MOLFORM=C13H26O3Si
##CAS REGISTRY NO=79414-02-1
##MP= -300
##BP= -300
##MW= 258
##$RETENTION INDEX=0
##$CONDENSED SPECTRUM=NO
##NPOINTS= 94
##XYDATA=(XY..XY) 1 
    27         27
    28         35
    29         51
    31         10
    39         56
    40         19
    41        129
    42         19
    43         70
    44         13
    45         62
    47         53
    51          8
    53         18
    55         23
    56         13
    57         50
    58         59
    59        218
    60         21
    61        106
    65         10
    66         11
    67         45
    68         29
    69         32
    70          9
    71        147
    72         22
    73        930
    74         88
    75        312
    76         22
    77         17
    81         18
    83         25
    85         57
    87         23
    88         10
    89        999
    90         89
    91         61
    93          9
    95         47
    96          9
    97         22
    98         25
    99         29
   100         21
   101         40
   102         14
   103         85
   104          9
   105          9
   111         18
   113          9
   115        161
   116         21
   117         22
   119         29
   125         18
   127         62
   128         11
   129         11
   131         42
   132          7
   133        891
   134        106
   135         40
   141          8
   143         10
   145         12
   147        177
   148         27
   149         18
   155         10
   157        350
   158         44
   159        550
   160         79
   161         25
   169         92
   170         13
   175         60
   189         40
   190          7
   199         11
   201        359
   202         54
   203         17
   211          4
   214          3
   227          4
   243         19