##TITLE=Library Entry 40858
##JCAMP-DX=Revision 4.10 
##DATA TYPE=MASS SPECTRUM
##SAMPLE DESCRIPTION=Chemical Concepts
##NAMES=HP
##CAS NAME=2-Hexenoic acid, 5-(1-ethoxyethoxy)-, methyl ester, [R*,S*-(E)]-(
.+-.)-
##MOLFORM=C11H20O4
##CAS REGISTRY NO=79414-01-0
##MP= -300
##BP= -300
##MW= 216
##$RETENTION INDEX=0
##$CONDENSED SPECTRUM=NO
##NPOINTS= 76
##XYDATA=(XY..XY) 1 
    26          4
    27         36
    28         14
    29         58
    31         13
    39         53
    40         18
    41         75
    42         26
    43         92
    44         39
    45        714
    46         23
    47         11
    51          5
    53         26
    54          6
    55         38
    56          5
    57          7
    58          3
    59        144
    60          5
    61         12
    65         13
    66         11
    67         76
    68         43
    69         46
    70          9
    71        153
    72         27
    73        999
    74         71
    75         14
    77          3
    79          3
    81         36
    82          4
    83          5
    84          3
    85         39
    86          3
    87         17
    89          6
    91          2
    93          3
    94          4
    95        162
    96         22
    97         18
    98          4
    99         22
   100         56
   101         14
   103          3
   111         23
   112          4
   113         37
   114          4
   115         14
   117         20
   125          3
   126          9
   127        513
   128         55
   129          6
   139          5
   141         22
   142          3
   143          3
   145          6
   171         16
   172          3
   201         11
   202          3