##TITLE=Library Entry 40807
##JCAMP-DX=Revision 4.10 
##DATA TYPE=MASS SPECTRUM
##SAMPLE DESCRIPTION=Chemical Concepts
##NAMES=HP
##CAS NAME=2-Hexenoic acid, 5-(1-ethoxyethoxy)-, (2-trimethylsilyl)ethyl est
er
##MOLFORM=C15H30O4Si
##CAS REGISTRY NO=79414-16-7
##MP= -300
##BP= -300
##MW= 302
##$RETENTION INDEX=0
##$CONDENSED SPECTRUM=NO
##NPOINTS= 162
##XYDATA=(XY..XY) 1 
    25          2
    26          6
    27         30
    29         34
    30          3
    31         18
    38          2
    39         24
    40         13
    41         42
    42         14
    43         75
    44         40
    45        355
    46         14
    47         14
    48          1
    49          1
    50          2
    51          3
    52          2
    53         17
    54          5
    55         13
    56          3
    57          8
    58         16
    59         30
    60          5
    61         13
    62          2
    63          2
    65          7
    66          6
    67         41
    68         64
    69         29
    70          4
    71         20
    72         29
    73        999
    74         73
    75        152
    76         13
    77          9
    78          1
    79          3
    80          1
    81         33
    82          3
    83          5
    84          5
    85         20
    86          6
    87          7
    88          1
    89          4
    91          4
    92          1
    93          2
    94          3
    95         71
    96         24
    97         19
    98         13
    99         26
   100          4
   101         25
   102          4
   103         23
   104          4
   105          3
   107          1
   109          2
   110          6
   111          9
   112          8
   113         17
   114          3
   115          5
   116          3
   117         30
   118          3
   119          3
   122          1
   123          1
   124          1
   125         22
   126          4
   127          6
   128          2
   129         40
   130          6
   131          3
   132          1
   133          1
   137          1
   138          3
   139          6
   140          4
   141         15
   142         26
   143         33
   144          5
   145          4
   146          2
   147          6
   148          1
   149          3
   150          1
   151          2
   153          2
   154          1
   155          7
   156          2
   157          6
   158         36
   159          6
   160          3
   161          1
   167          1
   168          2
   169         70
   170         11
   171         52
   172         10
   173          5
   174          1
   175          1
   182          1
   183          2
   184          3
   185         71
   186         15
   187         17
   188          3
   189          1
   197          6
   198          1
   199          3
   200          1
   201          3
   202          1
   203          1
   211          1
   212          5
   213          5
   214          2
   215          8
   216          2
   228          1
   229         15
   230          3
   231          1
   241          1
   242          1
   273          2
   274          1
   275          1
   285          0
   287          3
   288          1