##TITLE=Library Entry 81516
##JCAMP-DX=Revision 4.10 
##DATA TYPE=MASS SPECTRUM
##SAMPLE DESCRIPTION=Chemical Concepts
##NAMES=HP
##CAS NAME=Benzoic acid, 3-(1-methoxy-1-methylethoxy) butyl ester
##MOLFORM=C15H22O4
##CAS REGISTRY NO=79427-00-2
##MP= -300
##BP= -300
##MW= 266
##$RETENTION INDEX=0
##$CONDENSED SPECTRUM=NO
##NPOINTS= 80
##XYDATA=(XY..XY) 1 
    26          3
    27         30
    29         44
    30          3
    31         57
    33          1
    37          2
    38          5
    39         38
    40         13
    41         86
    42         84
    43         81
    44          4
    45         42
    46          1
    50         15
    51         73
    52          4
    53          5
    54         15
    55        327
    56         15
    57         26
    58         36
    59          5
    65          3
    67          1
    69          3
    70          1
    71         17
    72        124
    73          7
    74          4
    75          4
    76         20
    77        281
    78         22
    79         33
    80          2
    81          1
    83          3
    89          8
    91          3
    93          1
    94          1
    95          1
    97          4
   103          1
   104          7
   105        999
   106         74
   107          4
   109          1
   111          3
   112          1
   115          1
   121          1
   122        117
   123        315
   124         23
   125          2
   129          1
   131          2
   133          1
   134         14
   135          4
   148          3
   149         12
   150         34
   151          3
   161          6
   163          7
   164          1
   176         19
   177        358
   178         33
   179          5
   219          1
   234          1