##TITLE=Library Entry 67090
##JCAMP-DX=Revision 4.10 
##DATA TYPE=MASS SPECTRUM
##SAMPLE DESCRIPTION=ASES Database, Dalian Institute, P.R. China
##NAMES=HP
##CAS NAME=Methyl 1-trimethylsilyl-2-ethyl-cyclopropene-3-carboxylate
##MOLFORM=C10H18O2Si
##CAS REGISTRY NO=79427-46-6
##MP= -300
##BP= -300
##MW= 198
##$RETENTION INDEX=0
##$CONDENSED SPECTRUM=NO
##NPOINTS= 26
##XYDATA=(XY..XY) 1 
    43         87
    44         27
    45        161
    55         23
    57         49
    59        216
    65         39
    66        358
    67         47
    73        799
    74         72
    75         64
    79        151
    83         52
    85         16
    89        241
    94        999
    95         81
    99         39
   139        159
   140         19
   155         19
   183        100
   184         11
   198        103
   199         16