##TITLE=Library Entry 26876
##JCAMP-DX=Revision 4.10 
##DATA TYPE=MASS SPECTRUM
##SAMPLE DESCRIPTION=Chemical Concepts
##NAMES=HP
##CAS NAME=2-Ethyl-3-formylaminosuccinic acid, di-t-butyl ester
##MOLFORM=C15H27NO5
##CAS REGISTRY NO=79435-79-3
##MP= -300
##BP= -300
##MW= 301
##$RETENTION INDEX=0
##$CONDENSED SPECTRUM=NO
##NPOINTS= 133
##XYDATA=(XY..XY) 1 
    26          9
    27         57
    28         79
    29        149
    30         31
    31          8
    35          1
    36          6
    37          7
    38         14
    39        122
    40         26
    41        409
    42         27
    43         44
    44         10
    45          4
    46         62
    47          2
    49          4
    50         14
    51         15
    52          5
    53         23
    54         19
    55         78
    56        209
    57        999
    58         48
    59         54
    60          3
    65          2
    67          2
    68          6
    69         15
    70         63
    71         52
    72          6
    73         14
    74         43
    75         12
    76          3
    77          6
    78          1
    80          3
    81          5
    82         12
    83          6
    84         51
    85          9
    86          2
    87         10
    88         11
    89          1
    91          4
    92          1
    93          2
    94          1
    95          3
    96          2
    97          4
    98        100
    99        217
   100         55
   101          6
   102          6
   103         18
   104          2
   105          3
   109          1
   111          2
   112          2
   113          2
   114          3
   115          7
   116        133
   117         12
   118          2
   120          3
   121          2
   123          1
   125          7
   126         78
   127         48
   128          8
   129          2
   130          4
   131          2
   132          2
   137          1
   139          1
   141          3
   142          3
   143         10
   144        706
   145        308
   146         28
   147          4
   153          1
   154          3
   155          2
   157          1
   158         10
   159          3
   160          2
   161          2
   165          4
   167          3
   168          2
   170          2
   171          8
   172        303
   173         26
   174          4
   181          2
   183          1
   186          7
   188          5
   189         13
   190          5
   191          1
   195          1
   200         51
   201          9
   202          2
   203          1
   214          2
   216          1
   217          2
   228          4
   230          4
   244          3
   246          1