##TITLE=Library Entry 26733
##JCAMP-DX=Revision 4.10 
##DATA TYPE=MASS SPECTRUM
##SAMPLE DESCRIPTION=Chemical Concepts
##NAMES=HP
##CAS NAME=2-Aminosuccinic acid, 2-benzyl-N-formyl-, di-t-butyl ester
##MOLFORM=C20H29NO5
##CAS REGISTRY NO=79435-85-1
##MP= -300
##BP= -300
##MW= 363
##$RETENTION INDEX=0
##$CONDENSED SPECTRUM=NO
##NPOINTS= 132
##XYDATA=(XY..XY) 1 
    26          4
    27         32
    28         28
    29        157
    30          6
    31          7
    37          3
    38          7
    39         73
    40         16
    41        311
    42         74
    43         39
    44         10
    45          3
    46         78
    50          9
    51         16
    52          5
    53         12
    54          6
    55         49
    56         90
    57        999
    58         48
    59         31
    60          5
    63          8
    65         45
    66          4
    67          4
    68          6
    69          8
    70         20
    71          7
    74          3
    75          3
    76          7
    77         16
    78          6
    79          7
    81          5
    83          8
    85          3
    86         19
    87         10
    88         42
    89         13
    90         10
    91        346
    92         76
    93         10
    94          3
    95          4
    96          3
    97          8
    98         10
   101         17
   102          3
   103          7
   104          9
   105         11
   107          3
   109          3
   113          3
   114         49
   115         65
   116        145
   117         67
   118         60
   119         10
   120          5
   121          3
   127          5
   128          3
   129          3
   130          9
   131          8
   132        463
   133         34
   134         21
   135          4
   141          3
   142          7
   143          8
   144         29
   145         23
   146          4
   152          3
   158          3
   159          7
   160        205
   161         43
   162        312
   163         36
   164         11
   165          3
   167          3
   171          6
   177          8
   178        187
   179         23
   180          3
   181          3
   188        163
   189        103
   190         15
   192          4
   202          3
   206        244
   207         45
   208          5
   216         43
   217          6
   218         12
   219          3
   234        196
   235         28
   236          3
   244         19
   245          3
   251        225
   252         33
   253          4
   262         38
   263          6
   272          9
   276          4
   290          4
   307         48
   308          9
   363          4