##TITLE=Library Entry 91347
##JCAMP-DX=Revision 4.10 
##DATA TYPE=MASS SPECTRUM
##SAMPLE DESCRIPTION=Chemical Concepts
##NAMES=HP
##CAS NAME=1,3-Dioxolane, 2-(2,2-dimethylpropyl)-2,4,5-trimethyl-
##MOLFORM=C11H22O2
##CAS REGISTRY NO=79449-67-5
##MP= -300
##BP= -300
##MW= 186
##$RETENTION INDEX=0
##$CONDENSED SPECTRUM=NO
##NPOINTS= 79
##XYDATA=(XY..XY) 1 
    26          4
    27         18
    28         10
    29         64
    30          2
    31          4
    32          1
    36          0
    38          0
    39         18
    40          4
    41         97
    42          9
    43        928
    44         25
    45        105
    46          2
    47          1
    51          0
    52          0
    53          6
    54          4
    55        178
    56         31
    57        318
    58         76
    59         17
    60          0
    61         16
    62          0
    65          1
    66          1
    67         11
    68          2
    69          7
    70          2
    71         35
    72         30
    73        179
    74          8
    75          0
    77          1
    78          1
    79          1
    80          0
    81          2
    82          1
    83         50
    84          5
    85         55
    86        113
    87          6
    96          0
    97          2
    98          1
    99         54
   100          3
   101          1
   111          2
   112          0
   113          2
   114          9
   115        999
   116         68
   117         12
   126          0
   127         72
   128          7
   129          1
   135          6
   142         27
   143          3
   150          1
   155          5
   169          0
   170          2
   171        163
   172         19
   173          2