##TITLE=Library Entry 54686
##JCAMP-DX=Revision 4.10 
##DATA TYPE=MASS SPECTRUM
##SAMPLE DESCRIPTION=Chemical Concepts
##NAMES=HP
##CAS NAME=2-Butanol, 1,4-dimethoxy-3-(1,2,2-trimethylpropoxy)-
##MOLFORM=C12H26O4
##CAS REGISTRY NO=79449-92-6
##MP= -300
##BP= -300
##MW= 234
##$RETENTION INDEX=0
##$CONDENSED SPECTRUM=NO
##NPOINTS= 105
##XYDATA=(XY..XY) 1 
    26          6
    27         37
    28         36
    29        102
    30          3
    31        142
    32          2
    33         25
    38          2
    39          9
    40          2
    41        114
    42         14
    43        692
    44         28
    45        498
    46         11
    47          2
    50          1
    51          3
    53          6
    54          2
    55         44
    56         13
    57        170
    58         14
    59        205
    60          8
    61          7
    63          1
    65          0
    67          3
    68          2
    69         92
    70         13
    71         26
    72          3
    73         22
    74         34
    75        133
    76          6
    77          9
    79          0
    81          1
    82          0
    83          9
    84         78
    85        999
    86         67
    87         73
    88          7
    89         12
    91          0
    93          0
    95          1
    97          1
    98          0
    99          3
   100          5
   101        164
   102          9
   103         11
   104          3
   105         43
   106          2
   107          0
   111          1
   112          0
   113          1
   114          1
   115        204
   116         13
   117          1
   118          1
   119         38
   120          1
   128         12
   129          3
   131         21
   132          2
   133         74
   134          5
   145         12
   146          1
   147          0
   151          3
   158          0
   159         17
   160          1
   161          0
   162          0
   163          3
   169          3
   171          3
   172          0
   175          1
   176          1
   177        111
   178         10
   179          1
   181          4
   189         11
   190          1
   219          2
   234          1