##TITLE=Library Entry 50073
##JCAMP-DX=Revision 4.10 
##DATA TYPE=MASS SPECTRUM
##SAMPLE DESCRIPTION=Dmitri Zagorevskii, Scientific Instruments & Applicatio
ns
##NAMES=HP
##CAS NAME=(E)-2-Ethylidenetetrahydrothiophene 1-oxide
##MOLFORM=C6H10OS
##CAS REGISTRY NO=79496-69-8
##MP= -300
##BP= -300
##MW= 130
##$RETENTION INDEX=0
##$CONDENSED SPECTRUM=NO
##NPOINTS= 38
##XYDATA=(XY..XY) 1 
    51         45
    52         24
    53        205
    54        160
    55         53
    57          7
    58         13
    59         26
    60         11
    61         22
    63        605
    64         13
    65         47
    66         33
    67        428
    68        509
    69         30
    71         17
    73         13
    74         12
    76         27
    77         34
    78          8
    79        200
    80         71
    81        999
    82         89
    83          6
    85         28
    86          9
    87         18
    89         39
    90         23
   113         23
   114         13
   130        275
   131         45
   132         19