##TITLE=Library Entry 17131
##JCAMP-DX=Revision 4.10 
##DATA TYPE=MASS SPECTRUM
##SAMPLE DESCRIPTION=V. Nevalainen, Dep. Chem., Univ. Helsinki, Helsinki, Fi
nland
##NAMES=HP
##CAS NAME=Ethanol, 2-[(2-chloroethyl)dithio]-
##MOLFORM=C4H9ClOS2
##CAS REGISTRY NO=79503-74-5
##MP= -300
##BP= -300
##MW= 172
##$RETENTION INDEX=0
##$CONDENSED SPECTRUM=NO
##NPOINTS= 23
##XYDATA=(XY..XY) 1 
    27        300
    31        130
    45        999
    46        120
    47        130
    59        110
    60        840
    63        350
    64        220
    65        120
    66         60
    76        190
    77        100
    79        360
    92        350
   128        430
   130        190
   137         30
   141         30
   172        580
   173         35
   174        240
   175         10