##TITLE=Library Entry 48291
##JCAMP-DX=Revision 4.10 
##DATA TYPE=MASS SPECTRUM
##SAMPLE DESCRIPTION=Div. of Experiment Therapeutics WRAIR, WRAMC, Washingto
n DC 20307
##NAMES=HP
##CAS NAME=1-Piperazinecarboselenoic acid, 4-(2-pyridinyl)-, (1-(2-pyridinyl
)ethylidene)hydrazide
##MOLFORM=C17H20N6Se
##CAS REGISTRY NO=79514-41-3
##MP= -300
##BP= -300
##MW= 388
##$RETENTION INDEX=0
##$CONDENSED SPECTRUM=NO
##NPOINTS= 152
##XYDATA=(XY..XY) 1 
    42        140
    43         21
    44         11
    45          2
    47          5
    48          1
    49         27
    50         93
    51        344
    52        181
    53         35
    54         25
    55         23
    56        119
    57         35
    58          9
    59          0
    60          2
    61          3
    62          5
    63         14
    64         15
    65         26
    66         13
    67         23
    68         14
    69         14
    70          4
    71          3
    74         11
    75         13
    76         33
    77         42
    78        999
    79        360
    80         77
    81         12
    82          7
    83          8
    84         31
    85         10
    86         37
    87          0
    88          6
    89          2
    90          8
    91          6
    92         57
    93         38
    94         35
    95        331
    96         17
    97          2
   102          5
   103          6
   104         53
   105         49
   106         54
   107        321
   108         66
   109          5
   110          2
   111          2
   112          0
   113          2
   115          0
   116          2
   117         10
   118         13
   119        230
   120         39
   121        431
   122         31
   123          2
   129          1
   130          2
   131          9
   132          9
   133        104
   134         20
   135          7
   136          1
   141          0
   144          2
   145         41
   146         18
   147         27
   148          8
   149          3
   151          0
   155          0
   156          2
   157          3
   158          2
   159          3
   160         19
   161         19
   162         19
   163        117
   164         12
   165          0
   170          4
   172          3
   173          3
   174          3
   175          2
   177          2
   179          0
   181          0
   183          2
   184          2
   185          3
   186          2
   187         38
   188          7
   189          5
   197          2
   198          2
   199          2
   200          2
   212          1
   219          2
   221         16
   222         13
   223         38
   225         79
   226         10
   227         13
   228          3
   234          2
   236          3
   237          0
   243          2
   252          1
   253          0
   254          1
   264          4
   265          3
   266          9
   268         18
   269          2
   270          3
   272          1
   307          4
   364          3
   384          3
   385          3
   386          9
   387          2
   388         17
   389          3
   390          4