##TITLE=Library Entry 48309
##JCAMP-DX=Revision 4.10 
##DATA TYPE=MASS SPECTRUM
##SAMPLE DESCRIPTION=Div. of Experiment Therapeutics WRAIR, WRAMC, Washingto
n DC 20307
##NAMES=HP
##CAS NAME=Pyridine, 2-[1-[N',N'-bis(methylthio)methylene]hydrazono]ethyl-
##MOLFORM=C10H13N3S2
##CAS REGISTRY NO=79514-52-6
##MP= -300
##BP= -300
##MW= 239
##$RETENTION INDEX=0
##$CONDENSED SPECTRUM=NO
##NPOINTS= 110
##XYDATA=(XY..XY) 1 
    42         32
    44          5
    45         81
    46         45
    47         90
    49         38
    50         57
    51        237
    52        103
    53         12
    54          1
    55          3
    56          2
    58         15
    59         21
    61          9
    62          4
    63         18
    64         12
    65         15
    66          3
    67          2
    69          1
    70          1
    72         11
    73         16
    74         54
    75          1
    76         54
    77         14
    78        999
    79        265
    80         14
    81          0
    82          0
    88          4
    89          1
    90          3
    91        263
    92         97
    93         30
    94          2
    95          0
    97          0
    99          0
   102          1
   103          3
   104         86
   105         62
   106         32
   107         10
   108          0
   109          1
   110          0
   112          0
   116          1
   117          9
   119        312
   120         60
   121         18
   122          1
   124          4
   125          9
   126          0
   130          3
   131          2
   133        539
   134         44
   135          2
   137          1
   138          2
   144          0
   145          1
   146          1
   148         16
   149          4
   150          2
   151         12
   152          7
   153          1
   160          9
   161          1
   163          6
   166         42
   167          3
   168          2
   169          0
   174          1
   175          1
   176          1
   177          3
   178          2
   181          7
   182          0
   183          1
   185          0
   187          1
   190          1
   192        524
   193         57
   194         28
   195          1
   196          6
   197          0
   198          0
   224          3
   239         42
   240         10
   241          4
   242          0