##TITLE=Library Entry 94512
##JCAMP-DX=Revision 4.10 
##DATA TYPE=MASS SPECTRUM
##SAMPLE DESCRIPTION=NIST Mass Spectrometry Data Center, 1994
##NAMES=HP
##CAS NAME=3,5-Difluorobenzyl alcohol
##MOLFORM=C7H6F2O
##CAS REGISTRY NO=79538-20-8
##MP= -300
##BP= -300
##MW= 144
##$RETENTION INDEX=0
##$CONDENSED SPECTRUM=NO
##NPOINTS= 92
##XYDATA=(XY..XY) 1 
    14          2
    15          6
    17          8
    18         13
    19          7
    25          5
    26         18
    27         36
    28         27
    29        391
    30         51
    31        394
    33         14
    36          7
    37         63
    38         87
    39         89
    40          4
    44         21
    45         22
    46          5
    47          9
    48         18
    49         38
    50        179
    51        142
    52         22
    53         15
    55         13
    56         41
    57        151
    58          8
    60          6
    61         71
    62        113
    63        335
    64         37
    65         17
    66          6
    67          6
    68         93
    69         77
    70         65
    71          6
    72         36
    73         24
    74        106
    75        273
    76         36
    77         69
    79          9
    80         21
    81         88
    82         13
    83         17
    84          9
    85         12
    86         18
    87         21
    88         79
    89         16
    92         24
    93         51
    94         69
    95        813
    96        191
    97        112
    98         10
    99         19
   100         11
   101        118
   102          7
   105         17
   107         80
   108          9
   112         24
   113        190
   114        237
   115        999
   116         80
   117          5
   123        605
   124        143
   125        142
   126        107
   127        274
   128         23
   141         71
   143        428
   144        840
   145         63
   146          4