##TITLE=Library Entry 29239
##JCAMP-DX=Revision 4.10 
##DATA TYPE=MASS SPECTRUM
##SAMPLE DESCRIPTION=AAFS Toxicology Section MS DB Committee, U. Alberta, Ca
nada
##NAMES=HP
##CAS NAME=Hydroxyimipramine, 10-
##MOLFORM=C19H24N2O
##CAS REGISTRY NO=796-28-1
##MP= -300
##BP= -300
##MW= 296
##$RETENTION INDEX=0
##$CONDENSED SPECTRUM=NO
##NPOINTS= 170
##XYDATA=(XY..XY) 1 
    41         34
    42        262
    43         83
    44         62
    45         10
    50          8
    51         33
    52         10
    53          7
    54          6
    55          8
    56         67
    58        999
    59         45
    60          4
    62          7
    63         32
    64         10
    65         45
    66          7
    67          5
    68          9
    70        128
    71         35
    72         19
    74          7
    75         24
    76         25
    77        124
    78         30
    79         14
    80          4
    81          9
    84        143
    85        218
    86         54
    87         10
    88         10
    89         62
    90         34
    91         84
    92         20
    93         42
    94          8
    95         11
    96          3
    98         25
    99          8
   100          3
   101         18
   102         27
   103         22
   104         42
   105         33
   106         42
   107         17
   108          4
   111          3
   113         14
   114          9
   115         56
   116         36
   117         70
   118        114
   119         34
   120         18
   121         21
   122          6
   125          5
   126         18
   127         26
   128         50
   129         23
   130        114
   131         41
   132         55
   133         48
   134         15
   135          3
   137          6
   138          7
   139         43
   140         30
   141         13
   142          6
   143          5
   144          8
   146        120
   147         16
   149         18
   151         46
   152         98
   153         31
   154         20
   155          5
   156          3
   158          4
   160          4
   162          4
   163         32
   164         36
   165        135
   166         57
   167        112
   168         22
   176         33
   177         41
   178        134
   179        135
   180        371
   181         83
   182         58
   183         15
   188          4
   189         15
   190         64
   191         99
   192        123
   193        503
   194        337
   195         69
   196         23
   197          6
   202          8
   203         14
   204        166
   205        157
   206        251
   207        196
   208        115
   209         46
   210        105
   211        109
   212         14
   215         10
   216         14
   217         87
   218        268
   219         76
   220        194
   221         42
   222        213
   223        156
   224         64
   225         12
   230         15
   232        401
   233        213
   234        137
   235         33
   236         36
   237         21
   238         22
   239          5
   250        120
   251        355
   252         62
   253          8
   263          6
   265          3
   266          5
   267         11
   278        157
   279         39
   280          5
   281          6
   294          3
   296        204
   297         51
   298          5