##TITLE=Library Entry 38971
##JCAMP-DX=Revision 4.10 
##DATA TYPE=MASS SPECTRUM
##SAMPLE DESCRIPTION=NIST Mass Spectrometry Data Center, 1990.
##NAMES=HP
##CAS NAME=1-Cyclohexyl-2-buten-1-ol (c,t)
##MOLFORM=C10H18O
##CAS REGISTRY NO=79605-62-2
##MP= -300
##BP= -300
##MW= 154
##$RETENTION INDEX=0
##$CONDENSED SPECTRUM=NO
##NPOINTS= 60
##XYDATA=(XY..XY) 1 
    14          2
    26         14
    27        128
    28         17
    29         80
    31         14
    32          2
    39        264
    40         53
    41        346
    42         42
    43        147
    44          9
    50         33
    51        100
    52         53
    53        187
    54        125
    55        342
    56         22
    57         57
    58         12
    62         10
    63         35
    65        118
    66         57
    67        468
    68        175
    69         77
    70         88
    71        999
    72        110
    73         11
    77        249
    78         82
    79        612
    80        139
    81        351
    82        125
    83         96
    91        235
    92         59
    93        216
    94        153
    95         84
    96         16
    99         30
   103         10
   105         33
   107        306
   108         41
   110         15
   111         68
   115         15
   121        102
   122         10
   134         14
   136        260
   137         32
   154         14