##TITLE=Library Entry 47124
##JCAMP-DX=Revision 4.10 
##DATA TYPE=MASS SPECTRUM
##SAMPLE DESCRIPTION=Asinex Ltd, Moscow, Russia
##NAMES=HP
##CAS NAME=Benzophenone, 4-(5-bromo-2-hydroxybenzylidenamino)-
##MOLFORM=C20H14BrNO2
##CAS REGISTRY NO=79602-46-3
##MP= -300
##BP= -300
##MW= 379
##$RETENTION INDEX=0
##$CONDENSED SPECTRUM=NO
##NPOINTS= 217
##XYDATA=(XY..XY) 1 
    33         14
    34          3
    35          2
    36         10
    37         11
    38         42
    39         97
    40         56
    41         20
    42          8
    43         27
    44         65
    45         47
    46          1
    48          2
    50        274
    51        426
    52         38
    53         33
    54          4
    55         13
    56          4
    57         10
    58          1
    59          2
    60          2
    61          8
    62         41
    63        135
    64         61
    65         70
    66          9
    67          2
    68          2
    69         11
    70         32
    72          2
    74         65
    75        147
    76        369
    77        999
    78         86
    79         26
    80         15
    81          9
    82         19
    83         39
    85          3
    86          7
    87         14
    88         17
    89         30
    90         29
    91         28
    92         15
    93         11
    94          6
    96          3
    97          8
    98          8
    99          5
   100          8
   101         12
   102         26
   103         38
   104        209
   105        838
   106         63
   107          7
   108          6
   109          2
   110          2
   111          3
   112          5
   113         17
   114         21
   115         22
   116         11
   117          9
   118          7
   119         13
   120         27
   122          5
   123          2
   124          2
   125          5
   126         10
   127         17
   128          9
   129          6
   130          6
   131          4
   132          1
   133          0
   135          5
   136          5
   137          8
   138         18
   139         93
   140         61
   141         21
   142          6
   143          8
   144          6
   145          6
   146          1
   148          0
   149          4
   150         18
   151         39
   152         81
   153         43
   154         10
   155         19
   156          5
   157         12
   158          1
   163          5
   164         11
   165         24
   166         91
   167        119
   168         65
   169         23
   170          6
   171          7
   172          5
   173          2
   174          4
   175         12
   177         24
   178         19
   179         10
   180         25
   181         66
   182        291
   183         42
   184          4
   185          2
   187          0
   189         10
   190          6
   194        143
   195        106
   196         16
   197         11
   198         13
   199          9
   200         13
   201          3
   202          1
   203          0
   204          0
   206          2
   208          8
   209          2
   210          0
   213          1
   214          0
   215          1
   216          0
   217          1
   219          0
   221          0
   222          5
   223          1
   224          2
   231          0
   232          0
   234          0
   240          0
   241          2
   242          1
   243          0
   244          0
   245          1
   246          2
   247          2
   248          2
   249          0
   254          0
   255          1
   256          1
   257          6
   258          2
   259          6
   260          1
   270          3
   271          5
   272          7
   273         15
   274         35
   275         18
   276         29
   277          4
   297          2
   298          6
   299         11
   300         34
   302        222
   304        210
   305         24
   306          1
   350          0
   351          0
   352          0
   353          0
   360          0
   362          4
   363          2
   364          2
   365          0
   379        562
   380        152
   381        536
   382        148
   383          7