##TITLE=Library Entry 10573
##JCAMP-DX=Revision 4.10 
##DATA TYPE=MASS SPECTRUM
##SAMPLE DESCRIPTION=NIST Mass Spectrometry Data Center, 1990.
##NAMES=HP
##CAS NAME=2,4,6-Trimethyl-1,6-heptadien-4-ol
##MOLFORM=C10H18O
##CAS REGISTRY NO=79604-66-3
##MP= -300
##BP= -300
##MW= 154
##$RETENTION INDEX=0
##$CONDENSED SPECTRUM=NO
##NPOINTS= 55
##XYDATA=(XY..XY) 1 
    15          6
    26          5
    27         52
    28          6
    29         55
    31          6
    38         14
    39        133
    40         30
    41        115
    42          5
    43        999
    44         24
    45          5
    50         14
    51         26
    52         11
    53         56
    54         13
    55        108
    56         41
    57         29
    58         12
    63          8
    65         15
    66          6
    67         20
    69         13
    77         41
    78          9
    79         72
    80         10
    81         24
    82          6
    83         60
    85          3
    91         39
    92          6
    93         50
    94         11
    95          9
    96         24
    97          5
    98         25
    99        241
   100         15
   103          6
   105         36
   106          9
   107         22
   108         22
   119         15
   121         58
   122          6
   136         14