##TITLE=Library Entry 3843
##JCAMP-DX=Revision 4.10 
##DATA TYPE=MASS SPECTRUM
##SAMPLE DESCRIPTION=A.Pleshkova, Nesmeyanov Inst.Org.Elem.Cpds, Moscow
##NAMES=HP
##CAS NAME=1,7-Diazabicyclo[2.2.0]heptane, 7-chloro-
##MOLFORM=C5H9ClN2
##CAS REGISTRY NO=79614-45-2
##MP= -300
##BP= -300
##MW= 132
##$RETENTION INDEX=0
##$CONDENSED SPECTRUM=NO
##NPOINTS= 52
##XYDATA=(XY..XY) 1 
    26         62
    27        201
    28        567
    29        254
    30         71
    31         43
    32         76
    36         61
    38         20
    39        283
    40         92
    41        999
    42        672
    43        352
    44        162
    45         41
    46         21
    51         23
    52         43
    53        162
    54        365
    55        703
    56        201
    57         82
    58         23
    59         65
    60         23
    67        101
    68        143
    69        654
    70        443
    71         32
    78        153
    79         31
    82         31
    83        641
    84         62
    85         23
    91         72
    92         22
    97        876
    98        182
    99         23
   102         24
   103        151
   104        412
   105         56
   106        133
   132        540
   133         42
   134        180
   135         14