##TITLE=Library Entry 36386
##JCAMP-DX=Revision 4.10 
##DATA TYPE=MASS SPECTRUM
##SAMPLE DESCRIPTION=NIST Mass Spectrometry Data Center, 2010
##NAMES=HP
##CAS NAME=2,2,3,3,4,4,5,5-Octafluoropentyl 2,2,2-trifluoroacetate
##MOLFORM=C7H3F11O2
##CAS REGISTRY NO=79614-48-5
##MP= -300
##BP= -300
##MW= 328
##$RETENTION INDEX=0
##$CONDENSED SPECTRUM=NO
##NPOINTS= 100
##XYDATA=(XY..XY) 1 
    28          1
    29         26
    30          5
    31         15
    32          2
    33         28
    43          1
    44          4
    45          8
    47          2
    49          1
    50         26
    51        280
    52          3
    56          2
    57          5
    61         14
    62          2
    63          8
    64         47
    65          1
    67          1
    69        999
    73          1
    74          2
    75         20
    76          2
    77         16
    78         27
    79          3
    80          5
    81          5
    82         37
    83        131
    84          3
    88          1
    91          2
    93         10
    95        173
    97        196
    99        379
   100         74
   101         87
   102          2
   106          1
   107          3
   108          1
   109          2
   111         10
   112          3
   113         87
   114          5
   117         41
   118          1
   119         12
   120          1
   123          4
   124          1
   125          6
   127        448
   128         14
   129          7
   131         78
   132          5
   133         46
   134          2
   142          8
   143          4
   145        712
   146         30
   148          3
   149          1
   151         57
   152          2
   157          1
   161          4
   163         13
   164          1
   173          3
   175          6
   177        165
   178          8
   179         45
   180          2
   182          3
   193         27
   194          1
   195          9
   207          1
   211          8
   213          3
   215        178
   216         10
   227          2
   259          4
   261         22
   262          2
   289          1
   309         32
   310          2