##TITLE=Library Entry 97047
##JCAMP-DX=Revision 4.10 
##DATA TYPE=MASS SPECTRUM
##SAMPLE DESCRIPTION=O A MAMER, MCGILL UNIVERSITY, MONTRE
##NAMES=HP
##CAS NAME=Bis(trimethyl) derivative of 5-Hydroxyhexanoic acid
##MOLFORM=C12H28O3Si2
##CAS REGISTRY NO=79628-63-0
##MP= -300
##BP= -300
##MW= 276
##$RETENTION INDEX=1366
##$CONDENSED SPECTRUM=NO
##NPOINTS= 83
##XYDATA=(XY..XY) 1 
    26          8
    27         21
    28         11
    29         18
    32          5
    39         17
    40         11
    41         77
    42         35
    43         89
    44         31
    45        115
    47         64
    50          2
    51          2
    52          4
    55        167
    56         37
    57         12
    58         24
    59         67
    60         14
    61         57
    67         10
    68         17
    69        281
    70         34
    71         14
    72         50
    73        899
    74         90
    75        433
    76         41
    77         22
    78         11
    79          5
    83         14
    84         10
    85         37
    89         10
    91         10
    95         10
    97         71
    99         20
   101         46
   111         13
   113         46
   115         24
   116         27
   117        999
   118        113
   119         34
   123         16
   127         12
   129        189
   130         39
   131         47
   132         32
   133         48
   135          3
   143        110
   144         16
   145         20
   147        309
   148         53
   149         87
   150         12
   171        349
   172         49
   173         17
   185         30
   186         31
   187         10
   203         16
   204        221
   205         41
   206         18
   232         63
   233         16
   245         35
   261        194
   262         48
   263         18