##TITLE=Library Entry 42595
##JCAMP-DX=Revision 4.10 
##DATA TYPE=MASS SPECTRUM
##SAMPLE DESCRIPTION=James Shoemaker, St. Louis Online Library of Metabolic
 Mass Spectra
##NAMES=HP
##CAS NAME=3-Trimethylsiloxyvaleric acid, trimethylsilyl ester
##MOLFORM=C11H26O3Si2
##CAS REGISTRY NO=79628-62-9
##MP= -300
##BP= -300
##MW= 262
##$RETENTION INDEX=1244
##$CONDENSED SPECTRUM=NO
##NPOINTS= 81
##XYDATA=(XY..XY) 1 
    51          3
    52          1
    53          4
    55         36
    56          3
    57          9
    58          9
    59         43
    60          6
    61         17
    66         35
    69          2
    70          3
    71          6
    72         30
    73        999
    74         92
    75        191
    76         12
    77         23
    81         73
    83         19
    84          1
    85          6
    87          4
    89          1
    91          1
    95         48
    99          8
   101         64
   102          6
   103          7
   105         21
   106          1
   113          3
   114          4
   115         19
   116         10
   117         43
   118          3
   119          4
   129         24
   130         23
   131        410
   132         47
   133         68
   134          8
   135         13
   136          1
   143          4
   144         54
   145          7
   147        589
   148         89
   149         49
   150          4
   151          1
   157          8
   163          1
   172          1
   179         19
   180          1
   189         81
   190         12
   191         35
   192          5
   193          1
   194          1
   204         21
   205        168
   206         30
   207         10
   217          5
   231          4
   233         94
   234         16
   235          7
   247         59
   248         10
   249          3
   261          1