##TITLE=Library Entry 21584
##JCAMP-DX=Revision 4.10 
##DATA TYPE=MASS SPECTRUM
##SAMPLE DESCRIPTION=Chemical Concepts
##NAMES=HP
##CAS NAME=2-(4-Nitrobutyryl)cyclooctanone
##MOLFORM=C12H19NO4
##CAS REGISTRY NO=79630-93-6
##MP= -300
##BP= -300
##MW= 241
##$RETENTION INDEX=0
##$CONDENSED SPECTRUM=NO
##NPOINTS= 193
##XYDATA=(XY..XY) 1 
    26         13
    27        123
    28         29
    29        138
    30         59
    31         17
    35          3
    36          3
    37          3
    38          7
    39        205
    40         56
    41        551
    42        245
    43        347
    44         27
    45         43
    46         19
    47         11
    48          6
    49         62
    50          7
    51         38
    52         19
    53        106
    54         71
    55        999
    56         82
    57        102
    58         38
    59         22
    60         51
    61          5
    62          4
    63          6
    64          4
    65         43
    66         25
    67        212
    68        253
    69        359
    70         91
    71        161
    72         37
    73         51
    74          7
    75          3
    76          4
    77         64
    78         18
    79        215
    80         69
    81        324
    82        121
    83        230
    84        195
    85         79
    86         39
    87         61
    88        118
    89          8
    90          3
    91         89
    92         18
    93         92
    94         28
    95        207
    96        106
    97        401
    98        300
    99         57
   100         30
   101         31
   102         20
   103          7
   104          5
   105         64
   106         18
   107        136
   108         43
   109        186
   110        120
   111        139
   112         32
   113         29
   114         16
   115         15
   116        202
   117         25
   118          7
   119         35
   120         15
   121         33
   122         30
   123        241
   124         73
   125        216
   126        122
   127         24
   128          9
   129          9
   130         13
   131         14
   132          6
   133         35
   134         15
   135         61
   136         26
   137         58
   138         44
   139         37
   140         23
   141         36
   142         12
   143          8
   144          8
   145          6
   146          4
   147         30
   148         15
   149         40
   150         31
   151        115
   152         41
   153        705
   154         81
   155         13
   156          7
   157         15
   158          7
   159          3
   160          7
   161         13
   162          9
   163         14
   164         10
   165        129
   166         42
   167         16
   168         15
   169          7
   170         10
   171          3
   172          2
   173         21
   174          5
   175         19
   176          9
   177          9
   178         25
   179         34
   180         18
   181         12
   182          4
   183         20
   184          9
   185          8
   186         34
   187          6
   188          6
   189          6
   190          4
   191         10
   192          5
   193        136
   194         38
   195         68
   196         21
   197          4
   198         13
   199         12
   200          4
   205          4
   206         20
   207         19
   208          6
   209         17
   210          5
   211         27
   212          5
   213         50
   214          6
   221          2
   222          2
   223         13
   224          8
   225          4
   226          3
   227          2
   241        132
   242         41
   243          6
   244          1