##TITLE=Library Entry 88048
##JCAMP-DX=Revision 4.10 
##DATA TYPE=MASS SPECTRUM
##SAMPLE DESCRIPTION=Chemical Concepts
##NAMES=HP
##CAS NAME=2-(4-Nitrobutyryl)-cyclopentanone
##MOLFORM=C9H13NO4
##CAS REGISTRY NO=79630-91-4
##MP= -300
##BP= -300
##MW= 199
##$RETENTION INDEX=0
##$CONDENSED SPECTRUM=NO
##NPOINTS= 108
##XYDATA=(XY..XY) 1 
    26         18
    27        143
    28         47
    29         83
    30         52
    31         11
    38         11
    39        173
    40         33
    41        218
    42        114
    43         86
    44         16
    45         10
    46         10
    50         15
    51         34
    52         28
    53        100
    54         59
    55        657
    56         73
    57         44
    60         43
    63         12
    65         45
    66         24
    67         62
    68         43
    69        160
    70         34
    71         26
    72         19
    73         29
    74          7
    76          8
    77         46
    78         14
    79         57
    80         19
    81         76
    82         76
    83        413
    84        321
    85         41
    87         16
    88         87
    91         36
    92         12
    93         31
    94         24
    95         61
    96         81
    97        165
    98         24
    99         32
   100         19
   104          8
   105         26
   106         11
   107         27
   108         20
   109        208
   110         72
   111        999
   112         87
   113         25
   114          7
   115         15
   116        141
   117         11
   119          8
   120          9
   121         17
   122         13
   123         59
   124         39
   125         28
   126         30
   127         13
   133         16
   134         10
   135         14
   136         27
   137         56
   138         21
   139         19
   141         33
   143         10
   144         16
   148         11
   149         70
   150         21
   151        167
   152         53
   154         12
   158         10
   163         14
   164         19
   165         27
   166          9
   167         18
   169         18
   181         24
   182          8
   184          6
   199         56
   200          8