##TITLE=Library Entry 37361
##JCAMP-DX=Revision 4.10 
##DATA TYPE=MASS SPECTRUM
##SAMPLE DESCRIPTION=Institute of Organic Chemistry, Novosibirsk, USSR 1988
##NAMES=HP
##CAS NAME=1,5-Dioxa-10,15-diazacyclononadecane-6,9,16,19-tetrone
##MOLFORM=C15H24N2O6
##CAS REGISTRY NO=79688-11-2
##MP= -300
##BP= -300
##MW= 328
##$RETENTION INDEX=0
##$CONDENSED SPECTRUM=NO
##NPOINTS= 71
##XYDATA=(XY..XY) 1 
    54         77
    55        799
    56        471
    57        215
    58        112
    59        135
    68         59
    69        751
    70        999
    71         85
    72         91
    73         83
    82         44
    83         74
    84        327
    85        107
    86         79
    97         52
    98         87
    99         67
   100        335
   101        295
   112         95
   113        416
   114        239
   115        168
   125         32
   126        106
   127        127
   128         46
   140        207
   141         63
   142         33
   151         39
   153         97
   154         63
   157         35
   158        107
   159         83
   169        167
   170         46
   171         59
   184         39
   186         62
   197         33
   198         43
   226         84
   229         12
   230         10
   232         32
   233          4
   243          9
   252         50
   253         33
   254          8
   255         26
   256         14
   257          6
   270          3
   271          8
   272          4
   282          4
   283         32
   284          9
   298          3
   300         35
   301         14
   310         13
   328         36
   329         12
   330          4