##TITLE=Library Entry 97914
##JCAMP-DX=Revision 4.10 
##DATA TYPE=MASS SPECTRUM
##SAMPLE DESCRIPTION=A.A.Kutin, Moscow, Russia
##NAMES=HP
##CAS NAME=Formamide, N-[3-(2,2,2-trifluoro-1-hydroximinoethyl)phenyl-
##MOLFORM=C9H7F3N2O2
##CAS REGISTRY NO=79684-38-1
##MP= -300
##BP= -300
##MW= 232
##$RETENTION INDEX=0
##$CONDENSED SPECTRUM=NO
##NPOINTS= 163
##XYDATA=(XY..XY) 1 
    33         10
    34          1
    35          2
    37        127
    38        250
    39        500
    40         99
    41        153
    42         38
    44         97
    46         15
    47         22
    50        292
    51        241
    52        280
    53        157
    54         72
    55         24
    56         12
    57         27
    59         10
    62        263
    63        441
    64        413
    65        643
    66        109
    67         98
    69        470
    73         50
    74         87
    75        151
    76        118
    77        119
    78        157
    80        716
    81        170
    82         34
    83         18
    84          6
    85         10
    86         18
    87         37
    88         59
    90        497
    91        444
    92        453
    93        403
    94         41
    95         22
    96         26
    97          9
    99         65
   100         23
   101         32
   102         43
   103         23
   104         53
   105         76
   106         72
   107        163
   108        151
   109        133
   110         18
   111          7
   112          8
   113         13
   114         16
   116         76
   118        999
   119         96
   120         64
   121         26
   122         15
   123          9
   124         26
   125         38
   126         40
   127         70
   128         21
   129         18
   130          4
   131          5
   133         56
   134        142
   135        253
   136         31
   137         14
   138          7
   139          7
   140          7
   141          3
   142          5
   143         14
   144         16
   145         47
   146         37
   147         30
   148         19
   149          4
   150          6
   152         59
   153         11
   154         25
   155          8
   156          7
   157          5
   158          2
   159          4
   160          4
   161          4
   163         33
   164          5
   165          1
   166          2
   167          3
   168          4
   169          2
   170          2
   171          2
   172          8
   173          2
   174          3
   175          5
   176          3
   177          1
   178          1
   179          1
   180          2
   182         23
   183          5
   184          2
   185          1
   186          2
   187          3
   188          2
   189          0
   191          0
   193          6
   194          0
   197          0
   199          0
   200          0
   202          3
   203          8
   204          9
   205          1
   206          0
   210          0
   211          0
   212          3
   213          4
   214          5
   215          5
   216          4
   217          3
   218          0
   219          0
   226          0
   228          4
   229          6
   232        224
   233         19
   234          1