##TITLE=Library Entry 76065
##JCAMP-DX=Revision 4.10 
##DATA TYPE=MASS SPECTRUM
##SAMPLE DESCRIPTION=Institute of Organic Chemistry, Novosibirsk, USSR 1988
##NAMES=HP
##CAS NAME=1,4,7,10,13-Pentaoxacyclopentadecane-2,5,9-trione
##MOLFORM=C10H14O8
##CAS REGISTRY NO=79687-33-5
##MP= -300
##BP= -300
##MW= 262
##$RETENTION INDEX=0
##$CONDENSED SPECTRUM=NO
##NPOINTS= 76
##XYDATA=(XY..XY) 1 
    51         48
    52          7
    55         31
    56         13
    57        160
    58        222
    59        103
    60         62
    61        547
    62         18
    63          5
    67          9
    68          5
    69         14
    70        145
    71         58
    72        565
    73        528
    74         41
    75         67
    76          7
    77          7
    81         11
    82          7
    83         13
    84          7
    85         13
    86        320
    87        377
    88        113
    89        452
    90         22
    91         18
    99         20
   100        490
   101        641
   102        999
   103        603
   104         43
   105         18
   113         50
   114          5
   115        128
   116         62
   117         60
   118          7
   119         22
   130        114
   131         52
   132         67
   133         20
   144        339
   145        211
   146         24
   147         16
   148         31
   149          7
   158         13
   159        490
   160         48
   161         69
   162          7
   163         13
   173          9
   174         28
   175         18
   190         14
   191          9
   218         58
   219        528
   220         45
   221         14
   235          7
   262         20
   263          9
   264          3