##TITLE=Library Entry 4468
##JCAMP-DX=Revision 4.10 
##DATA TYPE=MASS SPECTRUM
##SAMPLE DESCRIPTION=Institute of Organic Chemistry, Novosibirsk, USSR 1988
##NAMES=HP
##CAS NAME=4,4,6-Trimethyltetrahydro-1,3-thiazin-2-one
##MOLFORM=C7H13NOS
##CAS REGISTRY NO=79696-62-1
##MP= -300
##BP= -300
##MW= 159
##$RETENTION INDEX=0
##$CONDENSED SPECTRUM=NO
##NPOINTS= 62
##XYDATA=(XY..XY) 1 
    25          1
    26         13
    27        178
    28        211
    29        281
    30         68
    31          4
    32          9
    33          1
    34          1
    37          2
    38         11
    39        278
    40         50
    41        674
    42        999
    43        317
    44         38
    45         25
    46          9
    47          2
    53          1
    54          7
    55         85
    56        167
    57        137
    58         19
    59        144
    60        623
    61        563
    62         11
    67          9
    68          7
    69         78
    70         31
    71         40
    72          6
    81         31
    82         28
    83        324
    84        414
    85         28
    86          7
    95          6
    96          3
    97         10
    98        161
    99         33
   100          7
   101        104
   102          8
   103          1
   116         77
   117         55
   118          5
   126         14
   127         27
   144        317
   145         11
   146          4
   160         18
   161          6