##TITLE=Library Entry 87274
##JCAMP-DX=Revision 4.10 
##DATA TYPE=MASS SPECTRUM
##SAMPLE DESCRIPTION=A.A.Kutin, Moscow, Russia
##NAMES=HP
##CAS NAME=Butanedioic acid, dihydrazide, N2,N2'-bis(2-furfurylideno)-
##MOLFORM=C14H14N4O4
##CAS REGISTRY NO=797-24-0
##MP= -300
##BP= -300
##MW= 302
##$RETENTION INDEX=0
##$CONDENSED SPECTRUM=NO
##NPOINTS= 141
##XYDATA=(XY..XY) 1 
    33          2
    34          1
    36          3
    37         33
    38         82
    39        336
    40         44
    41         31
    42         58
    43         65
    44         75
    45          6
    46          0
    48          1
    49         11
    50         85
    51        156
    52        280
    53        134
    54        127
    55        316
    56        132
    57         73
    58          5
    59          8
    60          1
    61          1
    62          2
    63          6
    64         24
    65         22
    66         81
    67         18
    68         26
    69         24
    70         26
    71         16
    72         45
    73         11
    74          0
    75          1
    76          1
    77          5
    78          5
    79         27
    80         56
    81        153
    82         44
    83         15
    84          9
    85          4
    86          5
    87          4
    88          0
    89          1
    90          1
    91          5
    93        184
    94        678
    95         94
    96         32
    97         35
    98         19
    99         48
   100        167
   101          8
   102          2
   103          1
   104          2
   105          2
   106          2
   107          9
   108         19
   110        999
   111         81
   112          6
   113          0
   114          2
   115         14
   116          1
   117          1
   118          2
   119          2
   120          5
   121         12
   122          8
   123          9
   124          7
   125         60
   126          4
   127          1
   128          0
   129          0
   131          2
   132          1
   133          0
   134          1
   135          2
   137         34
   138          3
   139          0
   145          0
   146          1
   147          3
   149          7
   150          1
   151          2
   152          1
   158          0
   159          1
   160          1
   161          0
   163          2
   164          3
   165         27
   166          3
   167          0
   169          0
   171          1
   172          0
   174          1
   175          1
   176          0
   179          5
   180          0
   188          1
   189          2
   190          1
   192         28
   193        257
   194         26
   195          2
   207          0
   208          0
   209          0
   224          0
   272          0
   288          0
   301          0
   302          5
   303          0