##TITLE=Library Entry 107290
##JCAMP-DX=Revision 4.10 
##DATA TYPE=MASS SPECTRUM
##SAMPLE DESCRIPTION=Japan AIST/NIMC Database- Spectrum MS-IW-6783
##NAMES=HP
##CAS NAME=(4-Methoxyphenoxy)acetic acid methyl ester
##MOLFORM=C10H12O4
##CAS REGISTRY NO=79704-02-2
##MP= -300
##BP= -300
##MW= 196
##$RETENTION INDEX=0
##$CONDENSED SPECTRUM=NO
##NPOINTS= 76
##XYDATA=(XY..XY) 1 
    14          1
    15         10
    18          1
    26          4
    27          2
    28          6
    29          5
    30          1
    31          1
    37          1
    38          7
    39         10
    40          1
    41         18
    42          6
    43          4
    45         28
    50         12
    51         12
    52         10
    53          9
    54          9
    55          2
    57          1
    59          4
    61          1
    62          5
    63         26
    64         44
    65         13
    66          6
    67          4
    68          9
    69          3
    73         46
    74          5
    75          4
    76          9
    77         78
    78          9
    79         12
    80          9
    81          3
    82          3
    91          1
    92         54
    93          4
    94          8
    95         89
    96          6
   105          6
   106          1
   107         78
   108         11
   109         33
   110          3
   121          1
   122          2
   123        999
   124         84
   125          7
   135          5
   136          4
   137        110
   138         22
   139          2
   163          1
   164          2
   165          2
   181         17
   182          9
   183          1
   195          1
   196        724
   197         81
   198          9