##TITLE=Library Entry 13703
##JCAMP-DX=Revision 4.10 
##DATA TYPE=MASS SPECTRUM
##SAMPLE DESCRIPTION=A. Brossi, LAC, NIDDK, NIH, Bethesda, MD 20892
##NAMES=HP
##CAS NAME=Morphinan-4-ol-6-one, N-formyl-, acetate(ester)
##MOLFORM=C19H21NO4
##CAS REGISTRY NO=79700-29-1
##MP= -300
##BP= -300
##MW= 327
##$RETENTION INDEX=0
##$CONDENSED SPECTRUM=NO
##NPOINTS= 123
##XYDATA=(XY..XY) 1 
    41          9
    42         81
    43        999
    44         27
    45          4
    46          5
    51         11
    53         13
    54          5
    55         41
    56         11
    58         43
    63         11
    65         17
    67         12
    68         14
    72         15
    73        303
    74         17
    77         35
    78         12
    79         11
    80          9
    82          3
    83          3
    87         18
    89         12
    91         32
    93          5
    94          3
   101          4
   102         15
   103         20
   104          4
   105         10
   107         14
   115        117
   116         27
   117         16
   118          7
   126          4
   127         70
   128         87
   129         51
   130         14
   131         35
   132         10
   133         10
   134          4
   139         22
   140          9
   141         50
   142         16
   143         11
   144         30
   145         26
   146         28
   151          9
   152         41
   153         37
   154         18
   155         76
   156         13
   157        168
   158         36
   159         11
   160          4
   165         57
   166         15
   167         35
   168         34
   169         69
   170         54
   171         37
   172         16
   173          3
   177         21
   178         12
   179          3
   181         25
   182        122
   183        100
   184         46
   185         35
   186         12
   193          9
   194         31
   195        114
   196         26
   197         33
   198         17
   199         15
   200          4
   207          8
   209         33
   210         38
   211         45
   212        157
   213        457
   214         77
   215          9
   222         19
   224          5
   226          4
   227         16
   228         15
   236         15
   237        114
   238         20
   239         14
   240        156
   241         29
   254         36
   255         34
   256         17
   267         84
   268         18
   284         11
   285        146
   286         28
   327        339
   328         82
   329         12