##TITLE=Library Entry 41158
##JCAMP-DX=Revision 4.10 
##DATA TYPE=MASS SPECTRUM
##SAMPLE DESCRIPTION=Japan AIST/NIMC Database- Spectrum MS-NW-7362
##NAMES=HP
##CAS NAME=.alpha.-D-Glucoheptonic acid .gamma. lactone
##MOLFORM=C7H12O7
##CAS REGISTRY NO=79703-26-7
##MP= -300
##BP= -300
##MW= 208
##$RETENTION INDEX=0
##$CONDENSED SPECTRUM=NO
##NPOINTS= 117
##XYDATA=(XY..XY) 1 
    14          5
    15         61
    16          1
    17          6
    18         24
    19          4
    26          9
    27         65
    28         23
    29        145
    30         33
    31        197
    32          6
    37          1
    38          4
    39         32
    40          7
    41         47
    42         86
    43        273
    44        109
    45        119
    46          4
    47         13
    49          2
    50          1
    51          3
    52          1
    53          7
    54         15
    55         61
    56         52
    57        124
    58         38
    59         20
    60        186
    61        325
    62         10
    63          2
    67          2
    68          5
    69         50
    70         11
    71        175
    72         75
    73        999
    74         79
    75          9
    76         74
    77          5
    79          1
    81          6
    82          7
    83         20
    84         12
    85         92
    86         34
    87         12
    88          5
    89         25
    90          4
    91         77
    92          4
    95          1
    96          2
    97         35
    98         10
    99         12
   100         52
   101         18
   102         13
   103         35
   104          3
   105          2
   109          1
   110          1
   111          3
   112          3
   113         10
   114         19
   115         33
   116          4
   117          1
   118          3
   119         27
   120          1
   123          1
   124          1
   126          1
   127          1
   128          1
   129          2
   130          5
   131         39
   132          4
   133         17
   134          1
   141          4
   142         21
   143          2
   144          6
   145          4
   146          1
   147         23
   148         21
   149          2
   159         56
   160         12
   161          2
   162          1
   163          2
   172          1
   173          1
   177          3
   190         16
   191          2
   209          1