##TITLE=Library Entry 65344
##JCAMP-DX=Revision 4.10 
##DATA TYPE=MASS SPECTRUM
##SAMPLE DESCRIPTION=Chemical Concepts
##NAMES=HP
##CAS NAME=4-(2,7,7-Trimethylbicyclo[3.2.0]hept-2-en-1-yl)butan-2-one
##MOLFORM=C14H22O
##CAS REGISTRY NO=79718-88-0
##MP= -300
##BP= -300
##MW= 206
##$RETENTION INDEX=0
##$CONDENSED SPECTRUM=NO
##NPOINTS= 106
##XYDATA=(XY..XY) 1 
    26          2
    27         37
    28         11
    29         35
    30          1
    31          3
    38          2
    39         59
    40         10
    41        103
    42          9
    43        202
    44          7
    45          8
    50          6
    51         25
    52         13
    53         47
    54          5
    55         43
    56         11
    57          9
    58         18
    59          6
    62          2
    63         12
    64          6
    65         58
    66         12
    67         24
    68          3
    69         11
    70          3
    71         28
    72          2
    73          4
    74          2
    75          4
    76          4
    77        147
    78         47
    79        140
    80         67
    81         20
    82          5
    83          4
    85          4
    89          9
    90         15
    91        382
    92        999
    93        373
    94         37
    95         12
    96          3
    97          2
   102          4
   103         17
   104         10
   105         90
   106         39
   107        985
   108        117
   109         15
   110          2
   111          2
   115         15
   116         10
   117         66
   118         11
   119         36
   120         11
   121         16
   122          9
   123          7
   124          2
   125          2
   127          2
   128          6
   129          5
   130          3
   131         15
   132         74
   133         77
   134         14
   135         43
   136          6
   137          3
   145          6
   146          3
   147          9
   148         19
   149         13
   150        610
   151         80
   152          8
   153          2
   159          2
   161          2
   162          2
   163          5
   164          2
   165          2
   173          5
   191          5
   206          1