##TITLE=Library Entry 84677
##JCAMP-DX=Revision 4.10 
##DATA TYPE=MASS SPECTRUM
##SAMPLE DESCRIPTION=Philip Morris R&D
##NAMES=HP
##CAS NAME=3-Oxo-.alpha.-ionone
##MOLFORM=C13H18O2
##CAS REGISTRY NO=79734-43-3
##MP= -300
##BP= -300
##MW= 206
##$RETENTION INDEX=1670
##$CONDENSED SPECTRUM=NO
##NPOINTS= 99
##XYDATA=(XY..XY) 1 
    42         10
    43        421
    44         71
    45          4
    47          9
    48          6
    49        102
    50         11
    51         50
    52         12
    53         24
    54          5
    55         37
    56         12
    57         26
    58          6
    59          4
    60          2
    63          7
    65         18
    66          4
    67         17
    68          3
    69         28
    70          9
    71         11
    72          4
    73          3
    75          8
    76          3
    77         94
    78         22
    79         79
    80         37
    81         21
    82         22
    83         19
    84         83
    85          6
    86         47
    87          2
    88          9
    89          6
    90         16
    91         58
    92          5
    93         17
    94          5
    95         17
    96          9
    97         11
    98          4
    99          6
   100          2
   103          8
   104          2
   105         22
   106          8
   107        152
   108        999
   109        149
   110         17
   111          3
   115          7
   117          5
   119         12
   120          4
   121         32
   122         14
   123          7
   128          3
   129          5
   130          5
   131         16
   132          4
   133          8
   134          3
   135         55
   136          8
   137          6
   138          3
   143          2
   145          6
   147         10
   148          3
   149         47
   150        357
   151         47
   152          5
   155          2
   162          2
   164         13
   165         18
   166          3
   168          3
   173          6
   174          2
   191         29
   192          3