##TITLE=Library Entry 63213
##JCAMP-DX=Revision 4.10 
##DATA TYPE=MASS SPECTRUM
##SAMPLE DESCRIPTION=G. Lange, Inst. Org. Chem., Univ. Wurzburg, Germany
##NAMES=HP
##CAS NAME=2-Propanone, 1-[3,5-bis(benzyloxy)phenyl]-
##MOLFORM=C23H22O3
##CAS REGISTRY NO=79755-46-7
##MP= -300
##BP= -300
##MW= 346
##$RETENTION INDEX=0
##$CONDENSED SPECTRUM=NO
##NPOINTS= 25
##XYDATA=(XY..XY) 1 
    39         13
    41          7
    43         42
    51          7
    63          6
    65         71
    77          6
    89         13
    91        999
    92         75
   105          6
   165          6
   166         11
   167          8
   178          7
   179         12
   180         66
   181        138
   182         19
   213          8
   255         25
   256          5
   303          8
   346         93
   347         23