##TITLE=Library Entry 48989
##JCAMP-DX=Revision 4.10 
##DATA TYPE=MASS SPECTRUM
##SAMPLE DESCRIPTION=F. TURECEK,HEYROVSKY INST PHYS CHEM & ELECTROCHEM,PRAGU
E,CZECH
##NAMES=HP
##CAS NAME=Pentacyclo[7.5.0.0(2,8).0(5,14).0(7,11)]tetradecane
##MOLFORM=C14H20
##CAS REGISTRY NO=79772-15-9
##MP= -300
##BP= -300
##MW= 188
##$RETENTION INDEX=0
##$CONDENSED SPECTRUM=NO
##NPOINTS= 77
##XYDATA=(XY..XY) 1 
    26          8
    27        130
    29         61
    38          4
    39        220
    40         30
    41        370
    42         19
    43         32
    50         13
    51         57
    52         30
    53        140
    54         34
    55        180
    56         10
    63         27
    64         13
    65        180
    66        170
    67        560
    68         63
    69         36
    77        420
    78        190
    79        999
    80        410
    81        240
    82         67
    83          8
    89         13
    91        890
    92        630
    93        630
    94        260
    95        470
    96         76
    97         67
   103         44
   104        140
   105        350
   106        270
   107        160
   108        120
   109         76
   110         53
   115         67
   116         19
   117        310
   118        140
   119        290
   120        180
   121        300
   122         76
   123         16
   127          8
   128         28
   129         44
   130         23
   131        530
   132        250
   133        180
   134        280
   135         23
   145        480
   146        330
   147        210
   148         20
   159        310
   160        240
   161         30
   173        280
   174         44
   187         15
   188        480
   189         69
   190          4