##TITLE=Library Entry 114950
##JCAMP-DX=Revision 4.10 
##DATA TYPE=MASS SPECTRUM
##SAMPLE DESCRIPTION=LAC, NIDDK, NIH, Bethesda, MD 20892
##NAMES=HP
##CAS NAME=3-[2,2-Dicarbmethoxyethyl]indole
##MOLFORM=C14H15NO4
##CAS REGISTRY NO=79782-15-3
##MP= -300
##BP= -300
##MW= 261
##$RETENTION INDEX=0
##$CONDENSED SPECTRUM=NO
##NPOINTS= 169
##XYDATA=(XY..XY) 1 
    41         25
    42         10
    43         44
    44         99
    45         23
    46          0
    50          8
    51         21
    52          8
    53          4
    54          2
    55         24
    56          5
    57         28
    59         32
    60          2
    61          4
    62          9
    63         26
    64         10
    65         13
    66          2
    67          5
    68          2
    69         15
    71         27
    72         17
    73          3
    74          7
    75         10
    76         12
    77         63
    78          7
    79          3
    80          1
    81          7
    82          3
    83          6
    84          3
    85         10
    86          5
    87          9
    88          9
    89         36
    90         20
    91         10
    92          2
    93          2
    94          0
    95          6
    96          2
    97          4
    98          2
    99          3
   100          3
   101         10
   102         26
   103         45
   104          7
   105          3
   107          2
   109          2
   110          1
   111          2
   112          0
   113         10
   114         13
   115         72
   116         25
   117        115
   118         16
   119          2
   120          4
   121          2
   122          1
   123          1
   125          1
   126          1
   127          4
   128         28
   130        999
   131         88
   132          4
   133          5
   134          1
   135          2
   137          0
   139          0
   140         10
   141         12
   142         26
   143         42
   144         22
   145          6
   146         10
   147          2
   148          0
   149          2
   151          3
   152          0
   153          1
   154          4
   155          2
   156          6
   157          2
   158          5
   159          2
   160          8
   161          1
   163          0
   165          0
   167          2
   168          2
   169          1
   170         43
   171         15
   172          3
   173          1
   174          1
   175          0
   182          2
   183          1
   184          5
   185          1
   186          4
   187          7
   188          8
   189         48
   190          6
   191          1
   196          1
   198          7
   199          1
   200          3
   201          5
   202          7
   203         22
   204          3
   210          4
   214          1
   215          2
   216          7
   217          2
   218          0
   219          0
   228          0
   229          0
   230          2
   231          0
   233         28
   234          3
   236          1
   242          0
   243          1
   244          2
   245          5
   246         86
   247         10
   248          1
   250          0
   251          0
   255          0
   256          0
   257          0
   258          0
   259          0
   260          2
   261         30
   262          4