##TITLE=Library Entry 58096
##JCAMP-DX=Revision 4.10 
##DATA TYPE=MASS SPECTRUM
##SAMPLE DESCRIPTION=Institute of Organic Chemistry, Novosibirsk, USSR 1988
##NAMES=HP
##CAS NAME=1,4,13-Trioxa-7,10,16,19-tetraazacycloheneicosane-6,9,17,20-tetro
ne
##MOLFORM=C14H24N4O7
##CAS REGISTRY NO=79795-30-5
##MP= -300
##BP= -300
##MW= 360
##$RETENTION INDEX=0
##$CONDENSED SPECTRUM=NO
##NPOINTS= 163
##XYDATA=(XY..XY) 1 
    54         50
    55         83
    56        360
    57        244
    58        469
    59        244
    60        183
    61         71
    62        115
    64         50
    67         18
    68         25
    69         95
    70        238
    71        428
    72        482
    73        231
    74        299
    75        163
    76         54
    81         93
    82         60
    83        197
    84         61
    85        292
    86        360
    87        421
    88        999
    89        217
    90         30
    91         25
    93         32
    95         23
    96         22
    97         41
    98         49
    99        292
   100        244
   101        435
   102        482
   103        129
   104         59
   105         21
   109         14
   110         15
   111         59
   112         48
   113        340
   114        251
   115        278
   116        387
   117        224
   118         43
   119         40
   120         95
   123         27
   125         25
   126         43
   127        421
   128        149
   129        231
   130         94
   131        693
   132        299
   133         65
   134         39
   139         21
   140         31
   141        142
   142        176
   143        496
   144        170
   145        136
   146        197
   147         55
   149         25
   155         27
   156         43
   157        516
   158        142
   159        170
   160        238
   161         60
   170         20
   171         73
   172        204
   173        258
   174         89
   175         48
   176         18
   177         25
   183         28
   184         20
   185         54
   186         70
   187         89
   188        326
   189        163
   190         46
   191         13
   198         15
   199         32
   200         63
   201        122
   202         48
   203         95
   204         42
   212         14
   213         14
   214         25
   215         47
   216         57
   217        173
   218        217
   219         30
   228         90
   229        115
   230        170
   231         51
   232         22
   233         27
   243         19
   244         80
   245         27
   246         36
   247         44
   248         16
   256         96
   257         34
   258         14
   259         16
   260         46
   261         33
   272         74
   273        142
   274        122
   275         23
   277         60
   287         46
   288         16
   289         10
   290         29
   291         14
   299         12
   300         16
   301         66
   302         33
   303         27
   304         29
   315         36
   316         35
   317         57
   318         97
   319         14
   330         12
   331         14
   332         38
   333          8
   342          6
   343          5
   360        360
   361         68
   362         12