##TITLE=Library Entry 98620
##JCAMP-DX=Revision 4.10 
##DATA TYPE=MASS SPECTRUM
##SAMPLE DESCRIPTION=Japan AIST/NIMC Database- Spectrum MS-NW-9464
##NAMES=HP
##CAS NAME=(-)-Indoline-2-carboxylic acid
##MOLFORM=C9H9NO2
##CAS REGISTRY NO=79815-20-6
##MP= -300
##BP= -300
##MW= 163
##$RETENTION INDEX=0
##$CONDENSED SPECTRUM=NO
##NPOINTS= 57
##XYDATA=(XY..XY) 1 
    17          1
    18          3
    26          1
    27          3
    28          2
    37          2
    38          6
    39         21
    40          3
    41          5
    42          1
    43          2
    44         14
    45          4
    50          8
    51         14
    52          6
    53          1
    55          1
    57          4
    58         44
    59         18
    61          3
    62         11
    63         31
    64         12
    65         30
    66          2
    67          1
    71          1
    74          2
    75          3
    76          2
    77          5
    78          3
    79          1
    85          1
    86          2
    87          3
    88          5
    89         71
    90         82
    91        193
    92         16
   106          1
   114          3
   115         16
   116         17
   117        198
   118        999
   119         94
   120          4
   145          1
   162          2
   163        286
   164         30
   165          3