##TITLE=Library Entry 34842
##JCAMP-DX=Revision 4.10 
##DATA TYPE=MASS SPECTRUM
##SAMPLE DESCRIPTION=MUS264 A. Mujsce, AT&T Bell Labs., Murray Hill, N.J., U
SA
##NAMES=HP
##CAS NAME=1-Tetradecanethiol, 3,3,4,4,5,5,6,6,7,7,8,8,9,9,10,10,11,11,12,12
,13,13,14,14,14-pentacosafluoro-
##MOLFORM=C14H5F25S
##CAS REGISTRY NO=79840-60-1
##MP= -300
##BP= -300
##MW= 680
##$RETENTION INDEX=0
##$CONDENSED SPECTRUM=NO
##NPOINTS= 242
##XYDATA=(XY..XY) 1 
    40          4
    45        154
    46         97
    47        936
    48         21
    49         43
    51         47
    57         14
    58         21
    59         39
    60         17
    61        256
    62         16
    63         31
    64         20
    65        116
    67          3
    69        999
    70         15
    71          5
    73          2
    74          2
    75         21
    76         11
    77        255
    78         24
    79         10
    81          7
    83         20
    85          3
    87          5
    88         10
    89         32
    90         12
    91         80
    92          9
    93         61
    94          5
    95         94
    96          9
    97          8
   100        240
   101         13
   102          6
   103          7
   105          5
   106          3
   107         47
   108         34
   109        162
   110         16
   111        111
   112         12
   113         53
   115         44
   116          2
   117          1
   119        587
   120         21
   121         24
   122         17
   124          8
   126         12
   127         40
   128          1
   131        836
   132         25
   133         17
   137         13
   138         14
   139         26
   140         31
   141         18
   143         35
   144         13
   145         25
   146          2
   147         13
   150         10
   151         15
   152          2
   153          2
   154          1
   155          5
   156          2
   157         18
   158          6
   159          4
   160          2
   162         39
   163         17
   165          9
   169        304
   170         16
   171          6
   172         79
   173          6
   175         11
   177         17
   178          1
   181        152
   182          6
   183          5
   185          1
   186          3
   187          2
   188          4
   189          5
   191          4
   193         19
   195          5
   201          2
   203          3
   206          2
   207          7
   209          3
   211          1
   213          4
   215          2
   219         32
   221          2
   222          6
   227          7
   231         33
   232          2
   237          1
   238          1
   239          2
   240          1
   243          6
   245          4
   251          1
   257          3
   263          3
   265          3
   266          1
   269          7
   274          1
   275          2
   277          1
   281         14
   289          2
   305          1
   310          2
   311          2
   313          2
   314          0
   315          6
   316          0
   319          2
   321          2
   329          2
   330          1
   331          7
   332          1
   337          2
   340          1
   341          2
   342          0
   343          1
   346          2
   351          2
   353          1
   360          1
   369          1
   371          3
   372          2
   377          1
   381          2
   383          1
   387          1
   390          2
   391          3
   392          1
   396          1
   401          1
   407          1
   409          1
   411          1
   412          1
   414          1
   417          1
   431          3
   436          1
   438          1
   442          3
   443          1
   450          1
   451          1
   455          1
   458          1
   463          2
   466          1
   467          1
   469          2
   481          3
   482          0
   489          2
   491          1
   494          1
   501          1
   513          8
   514          3
   530          1
   532          1
   533          1
   538          1
   539          1
   541          1
   546          1
   551          2
   556          3
   557          2
   562          3
   577         13
   581          1
   589          1
   595          2
   596          1
   602          2
   610          2
   617          1
   621          5
   623          1
   627         12
   628          3
   629          0
   634          1
   639          1
   641         16
   642          3
   643          2
   659          1
   660          2
   661          9
   662          1
   668          1
   677          3
   679         11
   680        168
   681         25
   682          5