##TITLE=Library Entry 107157
##JCAMP-DX=Revision 4.10 
##DATA TYPE=MASS SPECTRUM
##SAMPLE DESCRIPTION=G. BUCHBAUER, INST. PHARM. CHEM. UNIV. VIENNA, AUSTR
##NAMES=HP
##CAS NAME=Diethyl (2-(3,3-dimethyl-2-norbornyl)-2-oxoethyl)propanedioate
##MOLFORM=C18H28O5
##CAS REGISTRY NO=79861-76-0
##MP= -300
##BP= -300
##MW= 324
##$RETENTION INDEX=0
##$CONDENSED SPECTRUM=NO
##NPOINTS= 16
##XYDATA=(XY..XY) 1 
    65        120
    93        120
    94        160
    95        200
    99        160
   107        200
   108        500
   109        140
   123        999
   145        250
   146         80
   151        370
   173        620
   235         80
   257         80
   279         80