##TITLE=Library Entry 98007
##JCAMP-DX=Revision 4.10 
##DATA TYPE=MASS SPECTRUM
##SAMPLE DESCRIPTION=A. SAEED, DEP. CHEM., COLL. SCI., BASRAH UNIV., BASRAH,
 IRAQ
##NAMES=HP
##CAS NAME=2,2-Bis(4-methylanilino)acetophenone
##MOLFORM=C22H22N2O
##CAS REGISTRY NO=79866-34-5
##MP= -300
##BP= -300
##MW= 330
##$RETENTION INDEX=0
##$CONDENSED SPECTRUM=NO
##NPOINTS= 22
##XYDATA=(XY..XY) 1 
    39         90
    40        100
    50         60
    51        130
    53         50
    65        200
    77        250
    78        130
    79         60
    89         60
    91        810
    92         60
   105        130
   106        540
   107        480
   108         50
   118        999
   119        110
   120        140
   223        330
   224         80
   225        100