##TITLE=Library Entry 62030
##JCAMP-DX=Revision 4.10 
##DATA TYPE=MASS SPECTRUM
##SAMPLE DESCRIPTION=Albert Lebedev, Moscow State University, Russia
##NAMES=HP
##CAS NAME=Methyl N-(phenylmethylidene)-.beta.-alaninate
##MOLFORM=C11H13NO2
##CAS REGISTRY NO=79875-40-4
##MP= -300
##BP= -300
##MW= 191
##$RETENTION INDEX=0
##$CONDENSED SPECTRUM=NO
##NPOINTS= 63
##XYDATA=(XY..XY) 1 
    38         11
    39         77
    40          7
    41         40
    42         46
    43         13
    45         44
    50         73
    51        183
    52         42
    53          4
    54         33
    55         70
    56         20
    57         74
    58         12
    59        160
    60          1
    62         19
    63         78
    64         27
    65        103
    66         15
    73          3
    74         15
    75         23
    76         65
    77        294
    78         69
    79         34
    80          5
    86          1
    87         73
    88        206
    89        149
    90        100
    91        999
    92         76
    93          2
   102          7
   103        101
   104        356
   105        332
   106         34
   115          4
   116         19
   117        279
   118        489
   119         37
   130         81
   131         35
   132        648
   133         68
   134         17
   158          8
   160        120
   161         11
   176        162
   177         17
   190         29
   191        106
   192         14
   193          1