##TITLE=Library Entry 21183
##JCAMP-DX=Revision 4.10 
##DATA TYPE=MASS SPECTRUM
##SAMPLE DESCRIPTION=Chemical Concepts
##NAMES=HP
##CAS NAME=16-Nitrobicyclo[10.4.0]hexadecan-1-ol-13-one
##MOLFORM=C16H27NO4
##CAS REGISTRY NO=79880-69-6
##MP= -300
##BP= -300
##MW= 297
##$RETENTION INDEX=0
##$CONDENSED SPECTRUM=NO
##NPOINTS= 247
##XYDATA=(XY..XY) 1 
    26          6
    27        135
    28         59
    29        168
    30         50
    31          8
    36          2
    37          1
    38          4
    39        128
    40         39
    41        684
    42        225
    43        283
    44         28
    45         36
    46         15
    47          2
    48          1
    50          4
    51         13
    52         12
    53         96
    54        112
    55        999
    56        157
    57        152
    58         76
    59         31
    60        104
    61          6
    62          3
    63          6
    64          3
    65         28
    66         26
    67        269
    68        110
    69        474
    70        141
    71        179
    72         48
    73         66
    74         10
    75          6
    76          9
    77         54
    78         22
    79        137
    80         85
    81        379
    82        134
    83        380
    84        290
    85        125
    86         37
    87         57
    88        154
    89         14
    90          4
    91         62
    92         21
    93        116
    94         86
    95        347
    96        209
    97        607
    98        987
    99        139
   100         47
   101         27
   102         42
   103         11
   104         11
   105         42
   106         27
   107        106
   108         50
   109        159
   110         84
   111        253
   112        447
   113         79
   114         26
   115         23
   116        263
   117         26
   118         12
   119         49
   120         29
   121        118
   122         68
   123        162
   124         67
   125        169
   126        471
   127         73
   128         17
   129         16
   130         12
   131         28
   132         16
   133         48
   134         19
   135         71
   136         48
   137         79
   138         54
   139         87
   140         42
   141         21
   142          9
   143         14
   144         27
   145         19
   146         20
   147         55
   148         51
   149        104
   150         46
   151         50
   152         30
   153         30
   154         21
   155         10
   156          4
   157         18
   158        139
   159         18
   160         10
   161         38
   162         19
   163         65
   164         29
   165         43
   166         34
   167         62
   168         16
   169          5
   170          5
   171         11
   172          6
   173         87
   174         16
   175         12
   176         10
   177          8
   178         15
   179         27
   180         19
   181         53
   182         61
   183         12
   184          5
   185          6
   186         31
   187         10
   188          4
   189         21
   190          9
   191         21
   192         11
   193         15
   194         11
   195          5
   196          5
   197         26
   198          8
   199          5
   200          9
   201          5
   202          4
   203         12
   204         47
   205         17
   206         12
   207         23
   208         14
   209        240
   210         42
   211          7
   212          5
   213         10
   214          5
   215         14
   216          6
   217          5
   218          7
   219         10
   220         10
   221         27
   222         15
   223         12
   224          5
   225          3
   226          6
   227          3
   228          3
   229          4
   230         10
   231         13
   232         10
   233         10
   234         11
   235          6
   236         13
   237          8
   238          2
   239          7
   240          7
   241          4
   242          3
   243          4
   244          8
   245          9
   246          5
   247         15
   248         11
   249        113
   250         32
   251         98
   252         26
   253          4
   254          9
   255          2
   256          3
   257          1
   258          3
   259          1
   260          3
   261          3
   262         26
   263         10
   264          6
   265         11
   266          2
   267         54
   268         11
   269          4
   270          0
   278          2
   279         13
   280          8
   281          2
   297         78
   298         19
   299          2