##TITLE=Library Entry 56356
##JCAMP-DX=Revision 4.10 
##DATA TYPE=MASS SPECTRUM
##SAMPLE DESCRIPTION=Chemical Concepts
##NAMES=HP
##CAS NAME=Spiro[azulene-1(4H),2'-[1,3]dioxolan]-4-one, octahydro-7-methyl-,
 (3a.alpha.,7.beta.,8a.alpha.)-
##MOLFORM=C13H20O3
##CAS REGISTRY NO=79880-99-2
##MP= -300
##BP= -300
##MW= 224
##$RETENTION INDEX=0
##$CONDENSED SPECTRUM=NO
##NPOINTS= 161
##XYDATA=(XY..XY) 1 
    26          4
    27         62
    28         37
    29         52
    30          1
    31          3
    34          1
    35          1
    37          1
    38          2
    39         79
    40         24
    41        135
    42        110
    43         64
    44          3
    45         18
    46          1
    47          2
    48          2
    49         10
    50          3
    51         15
    52         12
    53         76
    54         37
    55        179
    56         31
    57          9
    58          1
    59          1
    60          0
    61          0
    62          1
    63          4
    64          2
    65         30
    66         22
    67         95
    68         27
    69         21
    70          5
    71          3
    72          0
    73         12
    74          1
    75          1
    76          0
    77         36
    78          9
    79         55
    80         18
    81         69
    82         22
    83         21
    84          7
    85          3
    86        999
    87        448
    88         29
    89          3
    90          0
    91         25
    92          5
    93         23
    94         16
    95         35
    96         13
    97         14
    98         14
    99        361
   100         70
   101          5
   102          0
   103          2
   104          1
   105         11
   106          3
   107         14
   108          5
   109         16
   110          7
   111          4
   112         14
   113         39
   114          4
   115          1
   116          0
   117          1
   118          1
   119          7
   120          3
   121          5
   122          2
   123         11
   124          6
   125         46
   126         12
   127          7
   128          1
   129          0
   130          0
   131          1
   132          0
   133          6
   134          3
   135          9
   136          2
   137          7
   138          7
   139         42
   140          6
   141          4
   142          0
   143          0
   144          0
   145          1
   146          0
   147          1
   148          0
   149          2
   150          1
   151          5
   152          6
   153         11
   154          2
   155          1
   156          0
   157          0
   158          0
   159          0
   160          0
   161          2
   162          1
   163          5
   164          2
   165          4
   166          5
   167         49
   168          8
   169          1
   177          0
   178          0
   179          2
   180          2
   181          2
   182          1
   183          0
   193          0
   194          1
   195          2
   196          4
   197          0
   206          1
   207          1
   208          0
   209          1
   223          3
   224         49
   225         10
   226          1