##TITLE=Library Entry 21539
##JCAMP-DX=Revision 4.10 
##DATA TYPE=MASS SPECTRUM
##SAMPLE DESCRIPTION=Chemical Concepts
##NAMES=HP
##CAS NAME=1(2H)-Naphthalenone, octahydro-4a-hydroxy-5-methyl-4-nitro-
##MOLFORM=C11H17NO4
##CAS REGISTRY NO=79880-67-4
##MP= -300
##BP= -300
##MW= 227
##$RETENTION INDEX=0
##$CONDENSED SPECTRUM=NO
##NPOINTS= 172
##XYDATA=(XY..XY) 1 
    26         17
    27        314
    28         90
    29        299
    30         60
    31         38
    37          3
    38         12
    39        319
    40         71
    41        699
    42        157
    43        468
    44         38
    45         53
    46         12
    47          3
    48          4
    49          2
    50         15
    51         65
    52         39
    53        193
    54         70
    55        999
    56        120
    57        174
    58         20
    59         15
    60         25
    61          5
    62          6
    63         22
    64         11
    65         94
    66         51
    67        359
    68        206
    69        399
    70        158
    71        141
    72         32
    73         32
    74         18
    75          7
    76          8
    77        214
    78         46
    79        404
    80         56
    81        480
    82        103
    83        427
    84        111
    85        160
    86         17
    87         29
    88         60
    89         11
    90          6
    91        209
    92         43
    93        446
    94         78
    95        358
    96        122
    97        344
    98         57
    99         61
   100         55
   101         23
   102          8
   103         18
   104         12
   105        150
   106         31
   107        254
   108        100
   109        192
   110        129
   111        259
   112        383
   113         94
   114          7
   115         29
   116         47
   117         30
   118         18
   119        178
   120         57
   121        649
   122         90
   123        123
   124         80
   125        167
   126         29
   127         27
   128         23
   129         14
   130         10
   131         14
   132          6
   133        134
   134         41
   135        302
   136         44
   137        166
   138         53
   139        761
   140         79
   141         15
   142          4
   143         19
   144         10
   145        263
   146         40
   147         38
   148         11
   150          4
   151        157
   152         63
   153         36
   154         14
   155          4
   156          2
   157          5
   158         32
   159          3
   160          2
   161         61
   162         31
   163        503
   164         85
   165         47
   166         15
   167         17
   168          5
   169          9
   170          4
   171          6
   172          2
   173          1
   174          2
   175          4
   176          5
   177          9
   178          8
   179        279
   180        114
   181        637
   182        104
   183         10
   184         17
   185          3
   186          2
   190          0
   191          2
   192         30
   193         12
   194          4
   195          3
   196          0
   197          5
   198          1
   199          1
   209          4
   210          9
   211          2
   212          1
   227        295
   228         41
   229          6