##TITLE=Library Entry 23339
##JCAMP-DX=Revision 4.10 
##DATA TYPE=MASS SPECTRUM
##SAMPLE DESCRIPTION=Chemical Concepts
##NAMES=HP
##CAS NAME=Hypophosphonous dichloride, bis(1,1-dimethylethyl)-
##MOLFORM=C8H18Cl2P2
##CAS REGISTRY NO=79898-85-4
##MP= -300
##BP= -300
##MW= 246
##$RETENTION INDEX=0
##$CONDENSED SPECTRUM=NO
##NPOINTS= 94
##XYDATA=(XY..XY) 1 
    25          0
    27         32
    29        171
    30          4
    31          0
    35          0
    36          6
    37          1
    38          3
    39         55
    40          7
    41        270
    42         14
    43         12
    45         11
    46          1
    47          1
    48          0
    49          0
    50          2
    51          3
    52          0
    53          6
    54          1
    55         25
    56         26
    57        999
    58         38
    59          3
    60          0
    61          1
    62          1
    63          1
    66          2
    67          0
    68          1
    69          1
    70          0
    71          5
    72          0
    73          3
    74          0
    75          0
    76          0
    77          1
    79          0
    80          0
    81         20
    82          0
    83          7
    85          1
    86          1
    87         11
    88          1
    89          0
    93          0
    95          1
    97          1
    98          0
    99          0
   101          4
   103          2
   105          0
   107          1
   109          0
   111          0
   113          1
   115          0
   119          0
   120          0
   121          0
   122          0
   123          7
   124          0
   125          2
   127          0
   128          0
   132          0
   133          0
   134          0
   155          3
   156          0
   157          0
   158          0
   190         39
   191          2
   192         22
   193          1
   194          4
   246         12
   247          1
   248          7
   249          1
   250          1