##TITLE=Library Entry 70134
##JCAMP-DX=Revision 4.10 
##DATA TYPE=MASS SPECTRUM
##SAMPLE DESCRIPTION=P.A. Leclercq, Lab. Instrum. Anal., Eindhoven Univ. Tec
hnol., Netherlands
##NAMES=HP
##CAS NAME=Cyclohexanecarboxylic acid, 4-pentyl-, 4-fluorophenyl ester
##MOLFORM=C18H25FO2
##CAS REGISTRY NO=79912-83-7
##MP= -300
##BP= -300
##MW= 292
##$RETENTION INDEX=0
##$CONDENSED SPECTRUM=NO
##NPOINTS= 36
##XYDATA=(XY..XY) 1 
    27        113
    28         44
    29        195
    39        107
    41        450
    42         34
    43        247
    53         80
    54        101
    55        645
    56         45
    57        281
    65         18
    67        231
    68         49
    69        364
    70         25
    71        226
    77         23
    79         69
    81        256
    83        790
    84         68
    85         35
    95        143
    97        999
    98         80
   109         47
   111        286
   112        284
   113         21
   153        259
   154         34
   181        300
   182         38
   292          6