##TITLE=Library Entry 15171
##JCAMP-DX=Revision 4.10 
##DATA TYPE=MASS SPECTRUM
##SAMPLE DESCRIPTION=A.A.Kutin, Moscow, Russia
##NAMES=HP
##CAS NAME=Pyridine-3-carboxamide, 1,2-dihydro-4,6-dimethyl-2-thioxo-
##MOLFORM=C8H10N2OS
##CAS REGISTRY NO=79927-21-2
##MP= -300
##BP= -300
##MW= 182
##$RETENTION INDEX=0
##$CONDENSED SPECTRUM=NO
##NPOINTS= 126
##XYDATA=(XY..XY) 1 
    33        104
    34         25
    35          8
    36          5
    37         92
    38        185
    39        454
    40        113
    41        148
    42        416
    44        999
    45         99
    46         29
    47         62
    48        113
    49         41
    50        130
    51        209
    52        144
    53        112
    54         32
    55         14
    56          9
    57         30
    58         47
    59         78
    60         54
    61         35
    62         53
    63         95
    64         54
    65         77
    66         69
    67         50
    68         18
    69         66
    70         44
    71         22
    72         10
    73          8
    74         21
    75         39
    76         46
    77        105
    78         56
    79         55
    80         24
    81         29
    82         30
    83         29
    84         29
    85          9
    86          5
    87          5
    88          6
    89          3
    90          9
    91         11
    92         20
    93         40
    94         40
    95         49
    96         21
    97         14
    98          4
    99          3
   100          1
   101          1
   102          3
   103          4
   104         21
   105         28
   106         23
   107          8
   108          6
   109         13
   110         19
   111         11
   112          3
   113          0
   114          0
   115          1
   116          0
   117          1
   119         47
   120         21
   121         13
   122         11
   123         10
   124          3
   125          2
   126          2
   127          0
   128          0
   129          0
   130          0
   131          1
   132          1
   133          2
   134          1
   136         32
   137         18
   138          7
   139          4
   140          1
   141          0
   147          1
   148         16
   149          2
   150          0
   151          1
   153          3
   154          1
   162          0
   163          2
   165         75
   166         10
   167          3
   168          0
   179          0
   180          2
   181          3
   182         33
   183          3
   184          1
   185          0