##TITLE=Library Entry 52776
##JCAMP-DX=Revision 4.10 
##DATA TYPE=MASS SPECTRUM
##SAMPLE DESCRIPTION=ASES Database, Dalian Institute, P.R. China
##NAMES=HP
##CAS NAME=1-(6-Aza-uracil-1-y)-3-(uracil-1-yl)propane
##MOLFORM=C10H11N5O4
##CAS REGISTRY NO=79936-26-8
##MP= -300
##BP= -300
##MW= 265
##$RETENTION INDEX=0
##$CONDENSED SPECTRUM=NO
##NPOINTS= 50
##XYDATA=(XY..XY) 1 
    29        541
    30         40
    41        292
    43         77
    54        301
    55        556
    61         13
    67         24
    68         76
    69        203
    70         76
    71         13
    72         12
    80         25
    81         40
    82        615
    83        999
    84         52
    85         40
    96         37
    97        525
    98        100
    99         88
   100         75
   109         24
   110         37
   111         62
   112        189
   113        165
   114         17
   124         38
   125         51
   126        313
   138         12
   139        506
   140        153
   141         15
   150         76
   151         32
   152        302
   153        323
   154         89
   166        163
   167         38
   178         13
   194         12
   210         13
   238         27
   265        139
   266         18