##TITLE=Library Entry 4752
##JCAMP-DX=Revision 4.10 
##DATA TYPE=MASS SPECTRUM
##SAMPLE DESCRIPTION=ASES Database, Dalian Institute, P.R. China
##NAMES=HP
##CAS NAME=1-(6-Azauracil-1-yl)-3-(5-ethyluracil-1-yl)-propane
##MOLFORM=C12H15N5O4
##CAS REGISTRY NO=79957-18-9
##MP= -300
##BP= -300
##MW= 293
##$RETENTION INDEX=0
##$CONDENSED SPECTRUM=NO
##NPOINTS= 50
##XYDATA=(XY..XY) 1 
    42        999
    43        449
    55        856
    56        989
    67        288
    68        571
    81        311
    82        225
    93         27
    94         27
    95        103
    96        238
    97         44
    98        288
    99         45
   100         45
   108        109
   109        108
   110        477
   111        259
   112         46
   123        104
   124         70
   125        546
   126        240
   127         51
   128         51
   138         28
   139         80
   140        317
   141        284
   142        107
   151         27
   152        130
   153        303
   154        948
   155         82
   165        104
   166         47
   167        448
   168        133
   178         57
   179         46
   180        186
   181         84
   194        110
   195         32
   227         49
   293        518
   294        153