##TITLE=Library Entry 59400
##JCAMP-DX=Revision 4.10 
##DATA TYPE=MASS SPECTRUM
##SAMPLE DESCRIPTION=L. Cohen, LC, NIDDK, NIH, Bethesda, MD 20892
##NAMES=HP
##CAS NAME=Histidine, N-t-butyloxycarbonyl-1-benzyloxymethyl-, methyl ester
##MOLFORM=C20H27N3O5
##CAS REGISTRY NO=79950-77-9
##MP= -300
##BP= -300
##MW= 389
##$RETENTION INDEX=0
##$CONDENSED SPECTRUM=NO
##NPOINTS= 149
##XYDATA=(XY..XY) 1 
    41        137
    43         34
    44          8
    45         12
    50         10
    51         20
    52         11
    53         13
    54         22
    55         15
    57        380
    59         46
    60          2
    62          5
    63         12
    65         82
    67         30
    68         11
    69          5
    71          2
    74          2
    77         20
    78          3
    79         10
    81        141
    82         38
    83          9
    88         28
    89         18
    91        999
    92         59
    94         22
    95        149
    96        268
    97          7
    98         10
    99          2
   102          2
   105          9
   106          6
   107          8
   108         13
   109         10
   110          5
   111         17
   113          2
   119          6
   120          8
   121         17
   122         24
   123          5
   124          2
   127          5
   129          5
   134          7
   136         14
   138         10
   142          2
   145          5
   148          7
   149          5
   152        118
   153         14
   154          5
   158          9
   163          4
   166         82
   167          6
   168         31
   169         13
   171        364
   172         45
   174          3
   175          6
   177          2
   180         24
   181         16
   183         54
   184          9
   186          2
   188          8
   192          5
   196          7
   198          7
   199          3
   201        180
   202         69
   203          8
   207          2
   209          4
   210          4
   211          4
   212          7
   216          2
   217          3
   220          6
   225         36
   227         63
   228          5
   230         12
   232          2
   234          3
   237          2
   239          7
   242         29
   243          4
   244         20
   246          5
   250          2
   253          3
   254          2
   258          8
   262          8
   266          2
   272        278
   273         45
   274         31
   275          3
   276          3
   283         14
   286         35
   287          6
   289          5
   295          5
   299          2
   302         11
   305          2
   316         42
   317          6
   327          3
   330         11
   333         73
   334         14
   336          6
   339          2
   343          3
   345          3
   347          3
   351          3
   352          4
   360          5
   361          6
   372          2
   373          4
   374          2
   380          2
   389         34
   390         18
   391          8