##TITLE=Library Entry 85462
##JCAMP-DX=Revision 4.10 
##DATA TYPE=MASS SPECTRUM
##SAMPLE DESCRIPTION=Tox21 Consortium/NIST Mass Spectrometry Data Center, 20
12
##NAMES=HP
##CAS NAME=Dapsone
##MOLFORM=C12H12N2O2S
##CAS REGISTRY NO=80-08-0
##MP= -300
##BP= -300
##MW= 248
##$RETENTION INDEX=2880
##$CONDENSED SPECTRUM=NO
##NPOINTS= 139
##XYDATA=(XY..XY) 1 
    27          7
    28         20
    30          2
    37          5
    38         23
    39        137
    40         12
    41         47
    42         18
    43          3
    45          8
    48          2
    50         13
    51         23
    52         59
    53         60
    54         34
    55          5
    58          2
    59          1
    60          2
    61          3
    62         26
    63         85
    64         64
    65        496
    66         77
    67          8
    68          4
    69          5
    70          5
    71          6
    72          1
    74          4
    75         10
    76          6
    77         14
    78         17
    79         10
    80        182
    81         18
    82          4
    83          4
    84          5
    85         10
    87          2
    88          3
    89          7
    90         16
    91         57
    92        410
    93         99
    94          8
    95          5
    96         12
    97          5
    98          1
   100          1
   101          3
   102          4
   103          4
   104          5
   106          4
   108        999
   109        162
   110         10
   112         19
   113          4
   114          3
   115         13
   116          6
   117         13
   118          3
   119          2
   120          1
   121          2
   122          4
   123         35
   124         58
   125         10
   126          6
   127          8
   128         16
   129          7
   130         17
   131          4
   136          1
   137          1
   138          2
   139         16
   140        666
   141        232
   142         48
   143         19
   145          1
   146          1
   149          2
   150          1
   152          2
   154         14
   155          7
   156         47
   157          7
   158          4
   164          1
   165          3
   166         17
   167         28
   168         11
   169          9
   170          2
   171          3
   172          1
   175          1
   177          1
   181          9
   182         22
   183         70
   184         90
   185         12
   186          4
   187          1
   196          1
   198          8
   199          3
   200          1
   201          2
   202          1
   214          4
   215          1
   216          1
   229          1
   230          2
   247          7
   248        682
   249        102
   250         43
   251          4
   252          1