##TITLE=Library Entry 11527
##JCAMP-DX=Revision 4.10 
##DATA TYPE=MASS SPECTRUM
##SAMPLE DESCRIPTION=Exported from NIST MS Search
##NAMES=HP
##CAS NAME=Hydroperoxide, 1-methyl-1-phenylethyl
##MOLFORM=C9H12O2
##CAS REGISTRY NO=80-15-9
##MP= -300
##BP= -300
##MW= 152
##$RETENTION INDEX=0
##$CONDENSED SPECTRUM=NO
##NPOINTS= 103
##XYDATA=(XY..XY) 1 
    13          2
    14          9
    15         54
    16         11
    17         28
    18        125
    25          1
    26         10
    27         47
    28         35
    29         21
    30          7
    31         20
    32         91
    37         11
    38         28
    39        116
    40         17
    41        118
    42         14
    43        999
    44         63
    45          9
    46          4
    47          5
    48          1
    49          8
    50        116
    51        305
    52         48
    53         20
    54          3
    55         12
    56          1
    57         13
    58         44
    59         43
    60         13
    61         15
    62         23
    63         53
    64         12
    65         71
    66         28
    67         12
    68          1
    69          1
    73          8
    74         43
    75         32
    76         39
    77        671
    78        201
    79         98
    80          8
    81          1
    85          3
    86          5
    87          5
    88          2
    89         21
    90          8
    91        422
    92         41
    93         20
    94        108
    95         12
    96          3
    98          3
   101          4
   102         23
   103        137
   104         40
   105        762
   106         64
   107         20
   108          7
   109          1
   110          1
   113          1
   114          1
   115         56
   116         12
   117        133
   118        174
   119        909
   120        329
   121        735
   122         70
   123          5
   128          1
   129          1
   131          5
   132          4
   133         36
   134         55
   135         11
   136         66
   137          9
   145          2
   146          1
   147          3
   152          2