##TITLE=Library Entry 46440
##JCAMP-DX=Revision 4.10 
##DATA TYPE=MASS SPECTRUM
##SAMPLE DESCRIPTION=Japan AIST/NIMC Database- Spectrum MS-NW-2296
##NAMES=HP
##CAS NAME=Benzenesulfonic acid, hydrazide
##MOLFORM=C6H8N2O2S
##CAS REGISTRY NO=80-17-1
##MP= -300
##BP= -300
##MW= 172
##$RETENTION INDEX=0
##$CONDENSED SPECTRUM=NO
##NPOINTS= 91
##XYDATA=(XY..XY) 1 
    14          2
    15          2
    16          3
    17          9
    18         56
    26          5
    27         37
    28         60
    29        121
    30        117
    31        977
    32         13
    34          1
    36          1
    37         11
    38         21
    39         74
    40          5
    41          3
    43          1
    44          6
    45         20
    46          1
    47          1
    48         27
    49          9
    50        144
    51        492
    52         61
    53         22
    54          2
    55          2
    57          4
    58          4
    59          1
    60          1
    61          5
    62          9
    63         17
    64         33
    65         83
    66         48
    67          3
    68          1
    69         22
    70          4
    71          4
    73          9
    74         41
    75         26
    76         34
    77        999
    78        893
    79        282
    80         19
    81          9
    82          6
    83          2
    84          6
    91         18
    92         47
    93         25
    94         95
    95         25
    96          2
    97         58
    98          4
    99          3
   107          5
   108         15
   109         41
   110         40
   111          5
   112          2
   119          1
   125        189
   126         45
   127         10
   128          2
   141         27
   142        194
   143        529
   144         48
   145         26
   146          2
   152          1
   154          2
   157          2
   172         82
   173          7
   174          4