##TITLE=Library Entry 47374
##JCAMP-DX=Revision 4.10 
##DATA TYPE=MASS SPECTRUM
##SAMPLE DESCRIPTION=Japan AIST/NIMC Database- Spectrum MS-NW-4185
##NAMES=HP
##CAS NAME=Benzenesulfonic acid, methyl ester
##MOLFORM=C7H8O3S
##CAS REGISTRY NO=80-18-2
##MP= -300
##BP= -300
##MW= 172
##$RETENTION INDEX=0
##$CONDENSED SPECTRUM=NO
##NPOINTS= 72
##XYDATA=(XY..XY) 1 
    14          1
    15         40
    17          1
    18          3
    26          2
    27         20
    28          8
    29         14
    30          3
    31          4
    32          3
    34          1
    37          5
    38         10
    39         35
    40          1
    44          3
    45          5
    46          1
    47          1
    48          3
    49          4
    50         87
    51        274
    52         16
    53          4
    55          1
    57          1
    58          1
    61          2
    62          5
    63          8
    64          5
    65         51
    66          5
    69          5
    70          1
    71          1
    73          4
    74         23
    75         19
    76         24
    77        999
    78        224
    79        104
    80          3
    81          6
    82          1
    90          2
    91          5
    92          2
    93         12
    94          8
    95          2
    96          3
    97          8
   107          2
   108         92
   109          8
   110          1
   125         17
   126          2
   127          2
   141        298
   142         43
   143         15
   144          2
   155          1
   172        274
   173         24
   174         12
   175          1