##TITLE=Library Entry 68683
##JCAMP-DX=Revision 4.10 
##DATA TYPE=MASS SPECTRUM
##SAMPLE DESCRIPTION=W.Jennings, T.Shibamoto
##NAMES=HP
##CAS NAME=Cyclohexanemethanol, .alpha.,.alpha.,4-trimethyl-, acetate
##MOLFORM=C12H22O2
##CAS REGISTRY NO=80-25-1
##MP= -300
##BP= -300
##MW= 198
##$RETENTION INDEX=1282
##$CONDENSED SPECTRUM=NO
##NPOINTS= 39
##XYDATA=(XY..XY) 1 
    41          7
    43        499
    45          7
    55        159
    57        139
    58         55
    60         19
    65         19
    67        256
    68        427
    69        239
    70         43
    71        501
    72         79
    79         39
    80         89
    81        511
    82        439
    83        311
    84         19
    85         28
    93         19
    94        219
    95        999
    96        409
    97         68
    98        109
    99         19
   107          7
   109        111
   110         45
   113          7
   123        453
   124         28
   137          7
   138        512
   139        129
   141         67
   156         19