##TITLE=Library Entry 83249
##JCAMP-DX=Revision 4.10 
##DATA TYPE=MASS SPECTRUM
##SAMPLE DESCRIPTION=Japan AIST/NIMC Database- Spectrum MS-IW-3777
##NAMES=HP
##CAS NAME=p-Toluenesulfonyl-o-toluidide
##MOLFORM=C14H15NO2S
##CAS REGISTRY NO=80-28-4
##MP= -300
##BP= -300
##MW= 261
##$RETENTION INDEX=0
##$CONDENSED SPECTRUM=NO
##NPOINTS= 96
##XYDATA=(XY..XY) 1 
    27          9
    28         12
    29          1
    30         11
    32          1
    37          1
    38          3
    39         35
    40          3
    41          9
    42          1
    43          1
    44          2
    45          2
    50          9
    51         27
    52         17
    53         14
    54          4
    55          1
    61          1
    62          4
    63         20
    64          8
    65         65
    66          7
    67          4
    69          1
    74          2
    75          3
    76          4
    77        113
    78         50
    79         72
    80          9
    81          1
    87          1
    89         20
    90         10
    91        191
    92         20
    93          2
   102          1
   103          2
   104         45
   105         41
   106        999
   107         98
   108          6
   111          1
   115          2
   117          1
   118          1
   120          1
   121          1
   122          1
   123          2
   124          2
   127          1
   128          2
   129          1
   135          3
   136          1
   139         16
   140          3
   141          2
   142          1
   149          1
   152          2
   153          2
   154          2
   155         61
   156          6
   157          4
   165          2
   166          1
   167          6
   168          1
   169          1
   170          3
   178          1
   179          2
   180         13
   181         10
   182         54
   183          8
   193          1
   194          5
   195          1
   196         36
   197         17
   198          2
   261        412
   262         70
   263         24
   264          3