##TITLE=Library Entry 11587
##JCAMP-DX=Revision 4.10 
##DATA TYPE=MASS SPECTRUM
##SAMPLE DESCRIPTION=Exported from NIST MS Search
##NAMES=HP
##CAS NAME=.alpha.-Terpinyl acetate
##MOLFORM=C12H20O2
##CAS REGISTRY NO=80-26-2
##MP= -300
##BP= -300
##MW= 196
##$RETENTION INDEX=1350
##$CONDENSED SPECTRUM=NO
##NPOINTS= 67
##XYDATA=(XY..XY) 1 
    15         28
    18          5
    26          7
    27         79
    28         25
    29         70
    31         20
    38          6
    39        114
    40         37
    41        217
    42         35
    43        999
    44         23
    45         57
    50          7
    51         28
    52         15
    53        113
    54         11
    55         86
    56          6
    57         11
    58          7
    59        209
    60         45
    61          7
    63          8
    65         44
    66         33
    67        193
    68        315
    69         97
    70          6
    71         19
    77        116
    78         25
    79        165
    80         92
    81        177
    82         17
    85          5
    89          6
    91        105
    92        162
    93        834
    94        136
    95        150
    96         12
   101         35
   103          6
   105         57
   106         15
   107        137
   108         61
   109          8
   119         15
   121        905
   122         92
   123         21
   135         12
   136        702
   137        117
   138         18
   139         67
   140          7
   181          8