##TITLE=Library Entry 88868
##JCAMP-DX=Revision 4.10 
##DATA TYPE=MASS SPECTRUM
##SAMPLE DESCRIPTION=AAFS Toxicology Section MS DB Committee, U. Alberta, Ca
nada
##NAMES=HP
##CAS NAME=Ovex
##MOLFORM=C12H8Cl2O3S
##CAS REGISTRY NO=80-33-1
##MP= -300
##BP= -300
##MW= 302
##$RETENTION INDEX=2147
##$CONDENSED SPECTRUM=NO
##NPOINTS= 74
##XYDATA=(XY..XY) 1 
    40          4
    45          6
    47          9
    48         15
    49         24
    50        153
    51         67
    52          4
    53          8
    60          5
    61         39
    62         85
    63        269
    64         67
    65         14
    69         15
    70          4
    71          4
    72         22
    73        338
    74        161
    75        714
    76        122
    77         10
    79          6
    81          5
    82          7
    84         18
    85         80
    86         12
    87         37
    89          7
    92          8
    93          3
    95         10
    96          6
    97          6
    99        593
   100         37
   101        176
   107          4
   108         14
   109          5
   111        999
   112         68
   113        313
   114         28
   115          7
   127        178
   128         32
   129         58
   130         26
   133          9
   139         31
   140         19
   141          4
   149         15
   151          4
   159         23
   161          7
   168         11
   173          4
   175        831
   176         65
   177        313
   178         23
   179         13
   202          4
   302        341
   303         46
   304        216
   305         33
   306         49
   307          5