##TITLE=Library Entry 47422
##JCAMP-DX=Revision 4.10 
##DATA TYPE=MASS SPECTRUM
##SAMPLE DESCRIPTION=Japan AIST/NIMC Database- Spectrum MS-IW-4506
##NAMES=HP
##CAS NAME=Benzenesulfonamide, N-(3-nitrophenyl)-
##MOLFORM=C12H10N2O4S
##CAS REGISTRY NO=80-37-5
##MP= -300
##BP= -300
##MW= 278
##$RETENTION INDEX=0
##$CONDENSED SPECTRUM=NO
##NPOINTS= 110
##XYDATA=(XY..XY) 1 
    26          1
    27          9
    28          1
    30         11
    31          2
    32          1
    37          4
    38         15
    39         29
    40          6
    41         13
    42          1
    43          1
    44          4
    45          3
    48          4
    49          1
    50         32
    51        143
    52         34
    53          9
    54         10
    55          2
    57          1
    61          2
    62          9
    63         67
    64         86
    65         41
    66          8
    67          1
    69          3
    71          1
    73          1
    74          9
    75          9
    76         14
    77        999
    78        102
    79         14
    80          9
    81          3
    82          1
    83          1
    84          1
    85          1
    88          1
    89          2
    90         25
    91         98
    92         17
    93          3
    94          7
    95          1
    97         10
    98          1
    99          1
   102          1
   105          1
   106          3
   107          4
   108          2
   109          4
   110          7
   111          1
   114          1
   115          6
   116          1
   120          1
   121          2
   125         40
   126          9
   127          3
   128          3
   129          1
   137          9
   138          7
   139          7
   140          5
   141        691
   142         52
   143         35
   144          2
   149          1
   153          1
   154          3
   155          2
   157          1
   166          9
   167         24
   168          7
   169          1
   182          1
   183          4
   184          4
   196          1
   197          7
   198          1
   213          1
   214          8
   215          1
   232          5
   233          1
   248          4
   262          2
   267          2
   278        475
   279         71
   280         30
   281          4