##TITLE=Library Entry 62613
##JCAMP-DX=Revision 4.10 
##DATA TYPE=MASS SPECTRUM
##SAMPLE DESCRIPTION=NIST Mass Spectrometry Data Center, 1994
##NAMES=HP
##CAS NAME=Benzenesulfonamide, N-ethyl-4-methyl-
##MOLFORM=C9H13NO2S
##CAS REGISTRY NO=80-39-7
##MP= -300
##BP= -300
##MW= 199
##$RETENTION INDEX=0
##$CONDENSED SPECTRUM=NO
##NPOINTS= 74
##XYDATA=(XY..XY) 1 
     4          2
    14          3
    15         18
    18          8
    26          3
    27         23
    28         66
    29         49
    30          4
    32          1
    37          2
    38         12
    39        101
    40         13
    41         32
    42         21
    43          8
    44         81
    45          9
    48          4
    50         23
    51         43
    52         13
    53          8
    58          1
    61          3
    62         21
    63         84
    64         44
    65        289
    66         17
    67          7
    69          4
    71          2
    74          7
    75          6
    76          5
    77         34
    78         13
    79         13
    80          8
    85          2
    86          5
    87          5
    88          2
    89         82
    90          2
    91        999
    92        126
    93          7
   104          3
   105          3
   106         15
   107         14
   108          7
   111          3
   118          4
   119          3
   120         12
   121          5
   134          5
   135          2
   139         14
   155        734
   156         64
   157         37
   158          3
   184        454
   185         45
   186         22
   199        159
   200         17
   201          8
   202          0