##TITLE=Library Entry 47418
##JCAMP-DX=Revision 4.10 
##DATA TYPE=MASS SPECTRUM
##SAMPLE DESCRIPTION=R RYHAGE MS-LAB KAROLINSKA INSTITUTET STOCKHOLM SWEDEN
##NAMES=HP
##CAS NAME=Benzenesulfonic acid, 4-chlorophenyl ester
##MOLFORM=C12H9ClO3S
##CAS REGISTRY NO=80-38-6
##MP= -300
##BP= -300
##MW= 268
##$RETENTION INDEX=1988
##$CONDENSED SPECTRUM=NO
##NPOINTS= 125
##XYDATA=(XY..XY) 1 
    14          2
    16          4
    17          5
    18         10
    22          2
    25          2
    26          8
    27         20
    28         12
    29         44
    34          3
    35          2
    36          8
    37          5
    38         18
    39         50
    40          5
    41         81
    42         31
    43         81
    44          6
    45          2
    46          2
    47          2
    48          5
    49         14
    50         34
    51        155
    52          7
    53         11
    54          9
    55         18
    56         86
    57        121
    58          3
    60          1
    61          5
    62         13
    63         41
    64         19
    65         13
    66          2
    67          2
    68          4
    69          9
    70          4
    71         13
    72          2
    73         42
    74         11
    75         38
    76         14
    77        999
    78         77
    79          5
    80          4
    81          2
    83          2
    84          6
    86         20
    87          2
    89          4
    91          0
    92          4
    93          6
    95          0
    96          0
    97          6
    98          2
    99         84
   100          8
   101         27
   102          3
   103          3
   106          2
   109          0
   110          4
   111          9
   113          2
   114          2
   115         15
   116          2
   117          2
   121          1
   123          3
   125          8
   126          5
   127         62
   128         30
   129         23
   130          9
   131          5
   137          1
   138          2
   139          4
   140          7
   141        650
   142         52
   143         37
   144          4
   147          2
   149          4
   150          2
   151          3
   155          1
   159          2
   168          5
   169          3
   175          2
   177          3
   178          2
   181          1
   191          2
   193          2
   203          1
   204          2
   206          2
   208          2
   217          3
   222          2
   262          2
   267          3
   268        221
   269         38
   270         91