##TITLE=Library Entry 22578
##JCAMP-DX=Revision 4.10 
##DATA TYPE=MASS SPECTRUM
##SAMPLE DESCRIPTION=Japan AIST/NIMC Database- Spectrum MS-NW-3990
##NAMES=HP
##CAS NAME=Butyl benzenesulfonate
##MOLFORM=C10H14O3S
##CAS REGISTRY NO=80-44-4
##MP= -300
##BP= -300
##MW= 214
##$RETENTION INDEX=1682
##$CONDENSED SPECTRUM=NO
##NPOINTS= 90
##XYDATA=(XY..XY) 1 
    14          1
    15          6
    18          1
    26          8
    27         78
    28         13
    29         99
    30          2
    31          7
    32          6
    34          1
    36          1
    37          3
    38          8
    39         63
    40          9
    41        175
    42         10
    43         46
    44          3
    45          3
    48          4
    49          3
    50         59
    51        228
    52         26
    53          9
    54          4
    55         51
    56        999
    57         80
    58          3
    61          1
    62          3
    63          6
    64          7
    65         26
    66         15
    67          1
    69          5
    71          1
    73          9
    74         14
    75         12
    76         22
    77        981
    78        216
    79         25
    80          1
    81          1
    82          1
    84          1
    89          1
    90          1
    91          9
    92          3
    93          7
    94         69
    95          9
    97          8
    99          1
   105          3
   106          1
   107          1
   108          3
   109          5
   110          9
   111          1
   112          2
   117          1
   118          1
   119          1
   125         17
   126          3
   127          1
   141        828
   142         82
   143         51
   144          5
   145          1
   158         25
   159        356
   160         29
   161         20
   162          1
   171         23
   172         10
   173          3
   185          1
   214          1