##TITLE=Library Entry 63276
##JCAMP-DX=Revision 4.10 
##DATA TYPE=MASS SPECTRUM
##SAMPLE DESCRIPTION=Japan AIST/NIMC Database- Spectrum MS-NW- 746
##NAMES=HP
##CAS NAME=Benzenesulfonic acid, 4-methyl-, methyl ester
##MOLFORM=C8H10O3S
##CAS REGISTRY NO=80-48-8
##MP= -300
##BP= -300
##MW= 186
##$RETENTION INDEX=0
##$CONDENSED SPECTRUM=NO
##NPOINTS= 81
##XYDATA=(XY..XY) 1 
    15         33
    17          2
    18          7
    26          2
    27         14
    28         23
    29          1
    30          3
    31          2
    32         15
    37          3
    38         12
    39        115
    40          9
    41         34
    42          9
    43         17
    44          2
    45          6
    48          4
    49          1
    50         33
    51         49
    52         13
    53         12
    54          1
    58          1
    61          5
    62         23
    63         83
    64         22
    65        208
    66         11
    67          2
    68          1
    69          1
    70          2
    71          2
    74          6
    75          7
    76          4
    77         46
    78         10
    79         36
    80          4
    81          1
    82          3
    83          1
    84          2
    85          2
    86          2
    87          4
    88          2
    89         73
    90         60
    91        999
    92        149
    93          9
    95          3
   100          1
   105          2
   106          4
   107        112
   108         12
   109          2
   111          2
   112          7
   121         17
   122         48
   123          6
   137          5
   138          1
   139         13
   154          4
   155        406
   156         35
   157         19
   186        425
   187         41
   188         24
   189          2