##TITLE=Library Entry 62582
##JCAMP-DX=Revision 4.10 
##DATA TYPE=MASS SPECTRUM
##SAMPLE DESCRIPTION=RADIAN CORP
##NAMES=HP
##CAS NAME=Benzenesulfonic acid, 4-methyl-, ethyl ester
##MOLFORM=C9H12O3S
##CAS REGISTRY NO=80-40-0
##MP= -300
##BP= -300
##MW= 200
##$RETENTION INDEX=0
##$CONDENSED SPECTRUM=NO
##NPOINTS= 75
##XYDATA=(XY..XY) 1 
    15          2
    26          2
    27         17
    28          1
    29         36
    30          5
    38          4
    39         48
    40          4
    41         13
    42          1
    43         12
    45          5
    48          2
    50         18
    51         31
    52         10
    53          9
    55          2
    57          2
    61          3
    62         19
    63         75
    64         24
    65        260
    66         16
    67          4
    69          3
    71          2
    74          7
    75          7
    76          5
    77         73
    78         15
    79         54
    80         18
    81          2
    85          2
    86          5
    87          6
    88          3
    89        113
    90         65
    91        999
    92        358
    93         29
    95          1
   103          2
   104          2
   105          5
   106          1
   107        167
   108        133
   109         11
   110          1
   111          1
   115          2
   117          3
   118          2
   121          3
   139         12
   155        579
   156         78
   157         33
   158          3
   171          7
   172        153
   173         14
   174          8
   185         13
   186          1
   199          8
   200        259
   201         28
   202         14