##TITLE=Library Entry 28340
##JCAMP-DX=Revision 4.10 
##DATA TYPE=MASS SPECTRUM
##SAMPLE DESCRIPTION=NIST Mass Spectrometry Data Center, 1998.
##NAMES=HP
##CAS NAME=Cyclohexanemethanamine, 4-amino-.alpha.,.alpha.,4-trimethyl-
##MOLFORM=C10H22N2
##CAS REGISTRY NO=80-52-4
##MP= -300
##BP= -300
##MW= 170
##$RETENTION INDEX=0
##$CONDENSED SPECTRUM=NO
##NPOINTS= 83
##XYDATA=(XY..XY) 1 
    15          3
    26          1
    27          9
    28          8
    29         11
    30         34
    31          1
    38          1
    39         21
    40          4
    41         64
    42        121
    43         29
    44         24
    45          1
    47          1
    50          1
    51          4
    52          2
    53         18
    54         17
    55         39
    56         23
    57        204
    58        999
    59         41
    60          1
    62          1
    63          1
    65          6
    66          4
    67         28
    68         20
    69         24
    70        227
    71         25
    72          2
    77         10
    78          2
    79         13
    80          7
    81         93
    82         30
    83          7
    84         22
    85          2
    91          7
    92          2
    93         13
    94         10
    95         18
    96         30
    97          4
    98         11
    99          1
   105          3
   106          2
   107         11
   108          8
   109          4
   110         41
   111          5
   112         12
   113        122
   114         11
   115          1
   119          1
   120          1
   121          7
   122          5
   123          2
   124         83
   125          9
   126          1
   136          5
   137          3
   138        107
   139         11
   140          1
   153         50
   154          6
   155          3
   171          1