##TITLE=Library Entry 4067
##JCAMP-DX=Revision 4.10 
##DATA TYPE=MASS SPECTRUM
##SAMPLE DESCRIPTION=Japan AIST/NIMC Database- Spectrum MS-NW-4339
##NAMES=HP
##CAS NAME=2-Bromobutyric acid
##MOLFORM=C4H7BrO2
##CAS REGISTRY NO=80-58-0
##MP= -300
##BP= -300
##MW= 166
##$RETENTION INDEX=0
##$CONDENSED SPECTRUM=NO
##NPOINTS= 110
##XYDATA=(XY..XY) 1 
    12          2
    13          3
    14          9
    15         33
    16          3
    17          3
    18         10
    24          2
    25          9
    26         78
    27        400
    28         62
    29        104
    30          6
    31         41
    32         10
    33          1
    34          1
    36          7
    37         42
    38         72
    39        423
    40        105
    41        999
    42        328
    43        341
    44         48
    45        393
    46          9
    47          3
    49          2
    50          3
    51          2
    52          1
    53         13
    54          6
    55        108
    56          6
    57         32
    58         20
    59         20
    60         41
    61          1
    66          2
    67          3
    68         88
    69        184
    70         30
    71         35
    72          6
    73         25
    74          2
    77          2
    79         37
    80         67
    81         40
    82         66
    83          2
    84          1
    85         16
    86         72
    87        558
    88         27
    89          3
    91          3
    92          7
    93         23
    94         11
    95         20
    96          6
    97          1
   104          1
   105          8
   106          9
   107         16
   108          8
   109         11
   111          4
   117          1
   118          1
   119          5
   120         88
   121         75
   122         89
   123         71
   124         12
   125          3
   127          6
   128          5
   133          4
   135          4
   137          1
   138        774
   139         18
   140        771
   141         18
   142          4
   146          1
   148          2
   149         11
   150          1
   151         12
   152          1
   153          3
   164          2
   165          1
   166          7
   167          3
   168          5
   169          1