##TITLE=Library Entry 84207
##JCAMP-DX=Revision 4.10 
##DATA TYPE=MASS SPECTRUM
##SAMPLE DESCRIPTION=Exported from NIST MS Search
##NAMES=HP
##CAS NAME=Bicyclo[3.1.1]hept-3-en-2-one, 4,6,6-trimethyl-
##MOLFORM=C10H14O
##CAS REGISTRY NO=80-57-9
##MP= -300
##BP= -300
##MW= 150
##$RETENTION INDEX=1205
##$CONDENSED SPECTRUM=NO
##NPOINTS= 83
##XYDATA=(XY..XY) 1 
    17          9
    20         10
    26         16
    27        316
    28         75
    29        147
    37          8
    38         37
    39        426
    40         84
    41        414
    42         39
    43        118
    44          6
    45          5
    46          6
    50         45
    51        125
    52         65
    53        186
    54         54
    55        243
    56         24
    57         10
    58          5
    59          9
    62         11
    63         48
    64         11
    65        129
    66         68
    67        207
    68         24
    69         85
    70        128
    71         10
    74          7
    75         10
    76          6
    77        207
    78         59
    79        378
    80        574
    81         99
    82        189
    83         79
    89          8
    90         15
    91        585
    92         94
    93        115
    94         92
    95        195
    96         60
   103         24
   104          5
   105        156
   106         39
   107        999
   108        317
   109        179
   110         20
   115         32
   116         11
   117         46
   118          6
   119         13
   120         11
   121         83
   122        159
   123         37
   131          6
   132          6
   133         13
   134          6
   135        805
   136         75
   137          5
   145          6
   146          7
   149         43
   150        597
   151         66