##TITLE=Library Entry 50528
##JCAMP-DX=Revision 4.10 
##DATA TYPE=MASS SPECTRUM
##SAMPLE DESCRIPTION=NIST Mass Spectrometry Data Center, 1998.
##NAMES=HP
##CAS NAME=Cyclohexanemethanol, 4-hydroxy-.alpha.,.alpha.,4-trimethyl-
##MOLFORM=C10H20O2
##CAS REGISTRY NO=80-53-5
##MP= -300
##BP= -300
##MW= 172
##$RETENTION INDEX=1279
##$CONDENSED SPECTRUM=NO
##NPOINTS= 81
##XYDATA=(XY..XY) 1 
    15          8
    27         36
    28          9
    29         52
    30          2
    31         58
    38          2
    39         63
    40         12
    41        141
    42         22
    43        524
    44         15
    45         31
    50          3
    51         11
    52          5
    53         50
    54         87
    55        223
    56         28
    57         42
    58        147
    59        570
    60         20
    61          8
    62          3
    63          3
    65         15
    66         14
    67        173
    68        185
    69        150
    70         16
    71        218
    72         13
    77         81
    78          6
    79         46
    80          3
    81        999
    82         79
    83         64
    84         86
    85         15
    91         16
    92          8
    93         77
    94         19
    95        157
    96        601
    97         78
    98          8
    99          5
   105          4
   106          2
   107         18
   108         77
   109         11
   110          4
   111         66
   112          6
   119          1
   121         42
   122          4
   123          3
   124          1
   125         35
   126         28
   127          2
   128          1
   135          1
   136         22
   137         21
   138          1
   139        162
   140         16
   141          1
   154         13
   155          1
   157          1