##TITLE=Library Entry 66208
##JCAMP-DX=Revision 4.10 
##DATA TYPE=MASS SPECTRUM
##SAMPLE DESCRIPTION=NIST Mass Spectrometry Data Center, 1994
##NAMES=HP
##CAS NAME=.alpha.-Pinene
##MOLFORM=C10H16
##CAS REGISTRY NO=80-56-8
##MP= -300
##BP= -300
##MW= 136
##$RETENTION INDEX=937
##$CONDENSED SPECTRUM=NO
##NPOINTS= 59
##XYDATA=(XY..XY) 1 
    15         67
    16          0
    27        286
    28         40
    29        125
    30          3
    37          7
    39        385
    40         67
    41        318
    42         25
    43         83
    44          2
    50         38
    51        105
    52         52
    53        139
    54         24
    55         72
    56          7
    58          7
    62         12
    63         37
    65        101
    66         28
    67        111
    68         38
    69         10
    74          4
    75          6
    77        366
    78         75
    79        298
    80        100
    81         34
    82          3
    86          1
    87          1
    89          8
    91        468
    92        414
    93        999
    94         89
    95         13
   102          4
   103         24
   105        115
   106         31
   107         54
   108         13
   109          3
   115          9
   116          2
   117          5
   119         22
   121        115
   122         11
   136         73
   137         10