##TITLE=Library Entry 6502
##JCAMP-DX=Revision 4.10 
##DATA TYPE=MASS SPECTRUM
##SAMPLE DESCRIPTION=Div. of Experiment Therapeutics WRAIR, WRAMC, Washingto
n DC 20307
##NAMES=HP
##CAS NAME=3-Amino-2-oxazolidinone
##MOLFORM=C3H6N2O2
##CAS REGISTRY NO=80-65-9
##MP= -300
##BP= -300
##MW= 102
##$RETENTION INDEX=0
##$CONDENSED SPECTRUM=NO
##NPOINTS= 19
##XYDATA=(XY..XY) 1 
    41        259
    42        278
    43        999
    44        251
    45        136
    47         11
    49         33
    51          9
    55         13
    56         24
    57         78
    58        171
    59         16
    72          2
    76          2
    84         10
    86          4
   102        151
   103         12