##TITLE=Library Entry 25655
##JCAMP-DX=Revision 4.10 
##DATA TYPE=MASS SPECTRUM
##SAMPLE DESCRIPTION=Chemical Concepts
##NAMES=HP
##CAS NAME=dl-Threonine
##MOLFORM=C4H9NO3
##CAS REGISTRY NO=80-68-2
##MP= -300
##BP= -300
##MW= 119
##$RETENTION INDEX=0
##$CONDENSED SPECTRUM=NO
##NPOINTS= 66
##XYDATA=(XY..XY) 1 
    26         12
    27         78
    28        310
    29        427
    30        161
    31         18
    36          2
    37          3
    38          6
    39         20
    40          8
    41         30
    42         52
    43         92
    44         42
    45        286
    46         48
    47          6
    51          3
    52          7
    53          4
    54         22
    55         20
    56        192
    57        999
    58        111
    59         29
    60         28
    61          2
    67          2
    68          4
    69          9
    70          5
    71          4
    72         19
    73          6
    74        299
    75        863
    76         37
    77          5
    81          1
    82          2
    83          5
    84          9
    85          3
    86          1
    87          3
    94          1
    95          3
    96          2
    97          3
    98          2
    99          1
   100          2
   101         18
   102          3
   104         31
   105          2
   111          2
   112          2
   113          2
   114          3
   115          2
   118          1
   120          7
   121          1