##TITLE=Library Entry 3324
##JCAMP-DX=Revision 4.10 
##DATA TYPE=MASS SPECTRUM
##SAMPLE DESCRIPTION=NIST Mass Spectrometry Data Center, 2011
##NAMES=HP
##CAS NAME=Methyl methacrylate
##MOLFORM=C5H8O2
##CAS REGISTRY NO=80-62-6
##MP= -300
##BP= -300
##MW= 100
##$RETENTION INDEX=714
##$CONDENSED SPECTRUM=NO
##NPOINTS= 52
##XYDATA=(XY..XY) 1 
    14          4
    15         53
    16          1
    25          3
    26         14
    27         20
    28         14
    29         47
    30          9
    31         11
    33          8
    36          3
    37         35
    38         77
    39        508
    40        114
    41        999
    42         58
    43         25
    44          5
    45         25
    46          1
    49          1
    50          4
    51          3
    52          2
    53         24
    54         17
    55         72
    56         41
    57         14
    58         11
    59        112
    60          4
    61          2
    66          1
    67          3
    68         19
    69        893
    70         44
    71          8
    72          8
    73          3
    81          2
    82         43
    83          4
    85         77
    86          3
    99        193
   100        372
   101         22
   102          2