##TITLE=Library Entry 31290
##JCAMP-DX=Revision 4.10 
##DATA TYPE=MASS SPECTRUM
##SAMPLE DESCRIPTION=NIST Mass Spectrometry Data Center
##NAMES=HP
##CAS NAME=2-Propenoic acid, 2-chloro-, methyl ester
##MOLFORM=C4H5ClO2
##CAS REGISTRY NO=80-63-7
##MP= -300
##BP= -300
##MW= 120
##$RETENTION INDEX=766
##$CONDENSED SPECTRUM=NO
##NPOINTS= 65
##XYDATA=(XY..XY) 1 
    13          1
    14          6
    15         62
    16          1
    24          5
    25         36
    26        169
    27         24
    29         80
    30         17
    31         37
    35         11
    36          6
    37         11
    38          6
    39         38
    40         33
    41        124
    42         30
    43          3
    44         11
    45         22
    47         10
    48          4
    49         20
    50          3
    51          5
    52         13
    53        168
    54        112
    55         22
    56          6
    57         12
    59        455
    60        111
    61        999
    62         68
    63        334
    64         13
    65          2
    74         14
    75         29
    76         24
    77         10
    78          8
    79          1
    85        268
    86         11
    87          3
    89        878
    90         51
    91        296
    92         23
    93          3
    94          2
   102        211
   103         10
   104         67
   105         22
   107          6
   119         75
   120        526
   121         49
   122        169
   123          7