##TITLE=Library Entry 89426
##JCAMP-DX=Revision 4.10 
##DATA TYPE=MASS SPECTRUM
##SAMPLE DESCRIPTION=Exported from NIST MS Search
##NAMES=HP
##CAS NAME=2-Cyclopenten-1-one, 2-hydroxy-3-methyl-
##MOLFORM=C6H8O2
##CAS REGISTRY NO=80-71-7
##MP= -300
##BP= -300
##MW= 112
##$RETENTION INDEX=1034
##$CONDENSED SPECTRUM=NO
##NPOINTS= 77
##XYDATA=(XY..XY) 1 
    13          1
    14          5
    15         14
    18          2
    25          4
    26         32
    27        123
    28         62
    29         72
    30          5
    31         13
    32          7
    33          1
    34          1
    36          2
    37         12
    38         21
    39        123
    40         34
    41        295
    42         94
    43        203
    44         33
    45          9
    48          1
    49          6
    50         24
    51         27
    52         13
    53         53
    54         28
    55        317
    56        176
    57         31
    58          7
    59          2
    60          1
    61          3
    62          3
    63          6
    64          3
    65         27
    66         48
    67         16
    68          5
    69        353
    70         42
    71         26
    72          2
    73          1
    74          1
    75          1
    76          3
    77          3
    78          6
    79          2
    80          1
    81          6
    82          7
    83        185
    84        140
    85         11
    86          1
    91          2
    92          1
    93          4
    94          5
    95          9
    96          1
    97         61
    98          4
   110          2
   111         49
   112        999
   113         74
   114          7
   115          1