##TITLE=Library Entry 38709
##JCAMP-DX=Revision 4.10 
##DATA TYPE=MASS SPECTRUM
##SAMPLE DESCRIPTION=Japan AIST/NIMC Database- Spectrum MS-NW-1067
##NAMES=HP
##CAS NAME=Guanidine, N,N,N',N'-tetramethyl-
##MOLFORM=C5H13N3
##CAS REGISTRY NO=80-70-6
##MP= -300
##BP= -300
##MW= 115
##$RETENTION INDEX=0
##$CONDENSED SPECTRUM=NO
##NPOINTS= 49
##XYDATA=(XY..XY) 1 
    14          4
    15         71
    16          1
    17          1
    18          1
    26          2
    27         11
    28         46
    29         16
    30         63
    31          2
    32          2
    38          2
    39          4
    40         11
    41         20
    42        183
    43         73
    44        581
    45        180
    46         26
    47          1
    49          1
    53         12
    54          3
    55         69
    56         54
    57        303
    58         15
    59          2
    67          2
    69         93
    70         49
    71        999
    72        351
    73         36
    74          1
    75          2
    81          1
    85          6
    86         74
    87          4
    91          1
    98          3
   100         46
   101          3
   114          2
   115        420
   116         29