##TITLE=Library Entry 90811
##JCAMP-DX=Revision 4.10 
##DATA TYPE=MASS SPECTRUM
##SAMPLE DESCRIPTION=Japan AIST/NIMC Database- Spectrum MS-NW-1010
##NAMES=HP
##CAS NAME=2-Imidazolidinone, 1,3-dimethyl-
##MOLFORM=C5H10N2O
##CAS REGISTRY NO=80-73-9
##MP= -300
##BP= -300
##MW= 114
##$RETENTION INDEX=0
##$CONDENSED SPECTRUM=NO
##NPOINTS= 52
##XYDATA=(XY..XY) 1 
    14          7
    15        134
    16          1
    17          2
    18         12
    26         15
    27         61
    28        203
    29         62
    30         71
    31          6
    32          5
    38          2
    39          5
    40         21
    41         53
    42        386
    43        276
    44        583
    45         34
    51          2
    52          6
    53          3
    54         28
    55         29
    56        257
    57         68
    58        178
    59         20
    60          3
    68          2
    69          9
    70         15
    71          5
    72        143
    73          7
    83         10
    84          7
    85         95
    86         10
    87          1
    88          1
    97          5
    98         17
    99         24
   100          2
   111          7
   112         32
   113        514
   114        999
   115         64
   116          4