##TITLE=Library Entry 11730
##JCAMP-DX=Revision 4.10 
##DATA TYPE=MASS SPECTRUM
##SAMPLE DESCRIPTION=NIST Mass Spectrometry Data Center
##NAMES=HP
##CAS NAME=Pregn-4-ene-3,20-dione, 11-hydroxy-, (11.alpha.)-
##MOLFORM=C21H30O3
##CAS REGISTRY NO=80-75-1
##MP= -300
##BP= -300
##MW= 330
##$RETENTION INDEX=3220
##$CONDENSED SPECTRUM=NO
##NPOINTS= 272
##XYDATA=(XY..XY) 1 
    15          6
    26          1
    27         28
    28          3
    29         51
    30          1
    31          6
    38          1
    39         71
    40         15
    41        230
    42         18
    43        999
    44         25
    45         26
    47          1
    50          3
    51         26
    52         18
    53        142
    54         18
    55        303
    56         16
    57         44
    58          8
    59          3
    61          1
    62          1
    63          8
    64          5
    65         86
    66         33
    67        207
    68         27
    69         88
    70         12
    71        123
    72          9
    73          2
    74          1
    75          2
    76          3
    77        247
    78         61
    79        345
    80         58
    81        217
    82         31
    83         61
    84         48
    85         74
    86          7
    87          2
    88          1
    89          7
    91        459
    92         74
    93        211
    94         68
    95        218
    96         64
    97         78
    98         32
    99         13
   101          3
   102          6
   103         47
   104         27
   105        288
   106         84
   107        245
   108         97
   109        252
   110         93
   111         38
   112          6
   113         11
   115         78
   116         33
   117        125
   118         41
   119        181
   120        137
   121        254
   122        247
   123        422
   124        682
   125        196
   126         18
   127         21
   128         57
   129         80
   130         39
   131        142
   132         67
   133        151
   134        133
   135        125
   136         67
   137        224
   138         42
   139          9
   140          2
   141         30
   142         25
   143         86
   144         40
   145        166
   146         75
   147        237
   148         75
   149         68
   150         20
   151         22
   152         10
   153         14
   154          8
   155         32
   156         17
   157         61
   158         25
   159        121
   160         51
   161         86
   162         47
   163        450
   164         64
   165         29
   166          9
   167         15
   168          7
   169         25
   170         16
   171         55
   172         31
   173         95
   174         38
   175         61
   176         27
   177         20
   178          9
   179         11
   180          5
   181         11
   182          6
   183         26
   184         14
   185         43
   186         18
   187         35
   188         18
   189         53
   190        100
   191         35
   192          8
   193         16
   194          5
   195         13
   196          5
   197         20
   198         11
   199         49
   200         18
   201         18
   202         14
   203         13
   204         13
   205          6
   206         87
   207         80
   208         12
   209         27
   210          9
   211         17
   212          9
   213         29
   214         21
   215         15
   216          6
   217         11
   218          4
   219         11
   220          3
   221          4
   222          2
   223          9
   224          6
   225         15
   226         10
   227         64
   228         20
   229         16
   230         11
   231          6
   232          4
   233          3
   234          2
   235          2
   236          2
   237          8
   238          3
   239         14
   240          6
   241         29
   242         32
   243         16
   244          4
   245         12
   246          4
   247          4
   248          3
   249          2
   250          1
   251         16
   252          6
   253          6
   254          7
   255         15
   256          5
   257         13
   258          3
   259          5
   260         21
   261          5
   262          1
   265          4
   266          3
   267          5
   268          6
   269         64
   270         27
   271          8
   272          3
   273         13
   274          4
   275          1
   276          1
   277          1
   279         13
   280          2
   281          1
   282          1
   283          3
   284         21
   285         32
   286         10
   287         15
   288          7
   289          1
   293          1
   294         11
   295          4
   296          1
   297         48
   298         10
   299          2
   300          1
   301          1
   302         21
   303          4
   310          1
   311          2
   312         90
   313         21
   314          3
   315          5
   316          2
   328          2
   329          1
   330        137
   331         33
   332          5