##TITLE=Library Entry 14927
##JCAMP-DX=Revision 4.10 
##DATA TYPE=MASS SPECTRUM
##SAMPLE DESCRIPTION=NIST Mass Spectrometry Data Center, 2012
##NAMES=HP
##CAS NAME=Lathosterol
##MOLFORM=C27H46O
##CAS REGISTRY NO=80-99-9
##MP= -300
##BP= -300
##MW= 386
##$RETENTION INDEX=3170
##$CONDENSED SPECTRUM=NO
##NPOINTS= 298
##XYDATA=(XY..XY) 1 
    15          2
    19          1
    20          1
    26          3
    27         49
    28         11
    29        134
    30          4
    31          8
    37          2
    38          3
    39         52
    40         14
    41        511
    42         62
    43        999
    44         41
    45         11
    50          5
    51         11
    52          5
    53         72
    54         15
    55        569
    56         60
    57        416
    58         20
    59          4
    62          1
    63          2
    64          1
    65         40
    66         15
    67        271
    68         78
    69        292
    70         37
    71        143
    72          8
    73          1
    74          1
    75          1
    76          2
    77        136
    78         39
    79        387
    80         49
    81        410
    82         63
    83        189
    84         21
    85         36
    86          3
    87          1
    89          2
    90          2
    91        550
    92        113
    93        372
    94        148
    95        491
    96         66
    97        114
    98         10
    99          8
   100          2
   101          1
   102          3
   103         36
   104         38
   105        590
   106        146
   107        587
   108        119
   109        247
   110         43
   111         61
   112         11
   113          4
   114          1
   115         67
   116         36
   117        228
   118         90
   119        468
   120        172
   121        295
   122        119
   123        160
   124         46
   125         27
   126          3
   127         15
   128         67
   129        130
   130         56
   131        309
   132         85
   133        380
   134        185
   135        322
   136         97
   137         70
   138         19
   139          6
   140          1
   141         40
   142         44
   143        138
   144         56
   145        329
   146         96
   147        398
   148         91
   149        135
   150         26
   151         60
   152         29
   153         15
   154         10
   155         32
   156         22
   157        118
   158         47
   159        217
   160         75
   161        262
   162         54
   163         59
   164         17
   165         29
   166          7
   167          9
   168          7
   169         22
   170         11
   171         96
   172         32
   173        136
   174         35
   175         56
   176         19
   177         27
   178         37
   179         17
   180          4
   181          5
   182          4
   183         18
   184          9
   185         76
   186         28
   187         75
   188         18
   189         39
   190         12
   191         15
   192          5
   193          7
   194          3
   195          3
   196          2
   197         18
   198         10
   199         69
   200         28
   201         83
   202         19
   203         35
   204          9
   205         11
   206          9
   207          7
   208          1
   209          2
   210          1
   211         10
   212          7
   213        269
   214         58
   215         48
   216         15
   217         18
   218         29
   219         25
   220         10
   221          2
   223          1
   224          1
   225          5
   226          2
   227         30
   228         36
   229        163
   230         35
   231        204
   232         59
   233         25
   234          5
   235          1
   237          1
   238          1
   239         11
   240          4
   241         17
   242          7
   243          6
   244          3
   245         41
   246         69
   247         62
   248         14
   249          2
   250          1
   253          8
   254          8
   255        725
   256        149
   257         36
   258          7
   259         46
   260         30
   261         13
   262          7
   263          2
   266          1
   267          4
   268          1
   269          3
   270          1
   271         19
   272         18
   273        167
   274         46
   275         11
   276          2
   281          3
   282          1
   283          6
   284          2
   285          7
   286          6
   287          7
   288          2
   289          1
   295          1
   296          1
   297          2
   298          1
   299          3
   300          3
   301         12
   302          4
   303          1
   310          1
   311          5
   312          2
   313          9
   314          6
   315          4
   316          3
   317          1
   325          3
   326          3
   327          7
   328          7
   329         11
   330          3
   331          1
   339          2
   340          1
   341          1
   342          1
   343          1
   344          1
   351          3
   352          1
   353         84
   354         21
   355          7
   356          1
   357          4
   358          2
   366          2
   367          5
   368         62
   369         25
   370         11
   371        331
   372         97
   373         14
   374          1
   384         12
   385          7
   386        886
   387        262
   388         41
   389          4