##TITLE=Library Entry 79998
##JCAMP-DX=Revision 4.10 
##DATA TYPE=MASS SPECTRUM
##SAMPLE DESCRIPTION=Chemical Concepts
##NAMES=HP
##CAS NAME=Acetamide, N-(2'-benzoylphenyl)-trifluoro-
##MOLFORM=C15H10F3NO2
##CAS REGISTRY NO=80007-97-2
##MP= -300
##BP= -300
##MW= 293
##$RETENTION INDEX=0
##$CONDENSED SPECTRUM=NO
##NPOINTS= 161
##XYDATA=(XY..XY) 1 
    26          2
    27         18
    29          1
    31          0
    37          3
    38         14
    39         50
    40          5
    41          9
    43          1
    44          0
    49          0
    50         46
    51        171
    52         28
    53          9
    55          0
    57          0
    61          1
    62         12
    63         63
    64         51
    65         48
    66          3
    67          0
    68          0
    69         55
    70          3
    71          2
    73          0
    74         14
    75         26
    76         50
    77        633
    78         50
    79          3
    81          0
    83          4
    84          6
    85          2
    86          2
    87          4
    88          4
    89         11
    90        158
    91         69
    92         36
    93         16
    94          1
    95          7
    96          2
    97          1
    98          6
    99          2
   100          1
   101          4
   102         60
   103          7
   104          5
   105        999
   106         73
   107          5
   108          2
   110          6
   111          1
   112          3
   113          7
   114          5
   115         15
   116          3
   117          3
   118         13
   119         12
   120          2
   121          7
   122          0
   123          1
   125          2
   126          6
   127          7
   128          2
   130          4
   131          0
   133          0
   137          1
   138          5
   139         20
   140         22
   141          5
   145          1
   146        469
   147         43
   148          3
   150          5
   151         19
   152         36
   153          8
   154          1
   157          0
   158          1
   160          3
   164          1
   165          1
   166         18
   167         55
   168         68
   169          7
   170          1
   172          1
   173          0
   177          3
   178          5
   179         12
   180         16
   181          4
   183          2
   184          0
   186          0
   187          1
   188         79
   189          7
   190          0
   194          1
   195         31
   196        150
   197         22
   198          2
   206          3
   207          1
   208         17
   209          3
   214          5
   215          0
   216        232
   217         23
   218          1
   222          2
   223          1
   224        460
   225         77
   226          7
   244          1
   246          2
   247          1
   248          2
   254          4
   261          0
   262          4
   263          0
   264          1
   272          2
   273          1
   274          4
   275          0
   276          7
   277          1
   292         54
   293        518
   294         87
   295          8
   296          0