##TITLE=Library Entry 107291
##JCAMP-DX=Revision 4.10 
##DATA TYPE=MASS SPECTRUM
##SAMPLE DESCRIPTION=NIST Mass Spectrometry Data Center, 1994
##NAMES=HP
##CAS NAME=3-Ethoxy-4-hydroxyphenylacetic acid
##MOLFORM=C10H12O4
##CAS REGISTRY NO=80018-50-4
##MP= -300
##BP= -300
##MW= 196
##$RETENTION INDEX=0
##$CONDENSED SPECTRUM=NO
##NPOINTS= 82
##XYDATA=(XY..XY) 1 
    14          1
    15          5
    18          3
    26         17
    27         92
    28         31
    29         97
    30          3
    31          3
    32          3
    37          4
    38         16
    39         96
    40         27
    41         32
    42          9
    43         28
    44          4
    45         38
    50         24
    51        102
    52         23
    53         34
    54          9
    55         61
    56          3
    57          5
    61          3
    62          9
    63         18
    64         11
    65         66
    66         51
    67         53
    68          7
    69          8
    71          3
    74          4
    75          6
    77        124
    78         29
    79         11
    80          2
    81          7
    82          3
    83          3
    84          2
    91          2
    92          3
    93         10
    94         54
    95         48
    96          4
    97         13
   103          1
   105         33
   106         14
   107         12
   108          2
   109          3
   110          3
   111          4
   121         16
   123        999
   124         81
   125         60
   126          4
   131          2
   133          1
   135          2
   137          3
   139          2
   149          7
   151        100
   152         11
   167         20
   168        139
   169         13
   170          2
   196        241
   197         25
   198          3