##TITLE=Library Entry 39921
##JCAMP-DX=Revision 4.10 
##DATA TYPE=MASS SPECTRUM
##SAMPLE DESCRIPTION=NIST Mass Spectrometry Data Center
##NAMES=HP
##CAS NAME=2-Vinyl-4H-1,3-dithiine
##MOLFORM=C6H8S2
##CAS REGISTRY NO=80028-57-5
##MP= -300
##BP= -300
##MW= 144
##$RETENTION INDEX=1206
##$CONDENSED SPECTRUM=NO
##NPOINTS= 98
##XYDATA=(XY..XY) 1 
    25          1
    26          6
    27         20
    28          2
    29          1
    32          4
    33          2
    34          1
    35          1
    36          2
    37         18
    38         35
    39        176
    40          9
    41         12
    42          1
    44          8
    45        357
    46         44
    47         30
    48          2
    49          1
    50          3
    51          7
    52          3
    53         11
    54          2
    55          2
    56          3
    57         21
    58         46
    59         37
    60         14
    61          4
    62          1
    63          2
    64          7
    65         34
    66         17
    67         24
    68         15
    69        122
    70         24
    71        987
    72        999
    73        137
    74         47
    75          5
    76          6
    77         55
    78         17
    79         99
    80         45
    81          4
    82          2
    83          2
    84         38
    85         66
    86          6
    87          3
    88          1
    89          1
    90          4
    91          1
    92          1
    93          1
    95          1
    96          1
    97        169
    98         39
    99         22
   100          5
   101          7
   102          2
   103        152
   104         11
   105         13
   106          1
   107          1
   109          8
   110         56
   111        484
   112         37
   113         23
   114          1
   115          1
   116          7
   117         13
   118          1
   119          1
   129          5
   131          1
   143          4
   144        376
   145         30
   146         34
   147          2
   148          1