##TITLE=Library Entry 65938
##JCAMP-DX=Revision 4.10 
##DATA TYPE=MASS SPECTRUM
##SAMPLE DESCRIPTION=J.S. THRASHER, DEP. CHEM., ALABAMA UNIV., ALABAMA, USA
##NAMES=HP
##CAS NAME=S-Fluoro-N-pentafluorosulFanyl-S-phenoxysulFilimine
##MOLFORM=C6H5F6NOS2
##CAS REGISTRY NO=80039-29-8
##MP= -300
##BP= -300
##MW= 285
##$RETENTION INDEX=0
##$CONDENSED SPECTRUM=NO
##NPOINTS= 54
##XYDATA=(XY..XY) 1 
    32         14
    37          7
    38         29
    39        200
    40          7
    46         93
    48          5
    50         11
    51         17
    53          5
    61          7
    62         21
    63         67
    64         34
    65        840
    66         47
    67          7
    70         20
    77         39
    78          3
    84          6
    85          4
    89         99
    91          6
    92          8
    93        999
    94         70
    95          5
    96          5
   101          3
   103          2
   108          6
   110          4
   111         11
   112          4
   127        230
   129         11
   139         14
   154          3
   158         26
   159          2
   160          2
   170          4
   178          3
   192         19
   194          2
   198         11
   238          2
   266         16
   267          1
   268          1
   285        175
   286         14
   287         17