##TITLE=Library Entry 114085
##JCAMP-DX=Revision 4.10 
##DATA TYPE=MASS SPECTRUM
##SAMPLE DESCRIPTION=A.A.Kutin, Moscow, Russia
##NAMES=HP
##CAS NAME=Benzamide, 3,5-dichloro-2-hydroxy-N-(2,4-difluorophenyl)-
##MOLFORM=C13H7Cl2F2NO2
##CAS REGISTRY NO=80033-99-4
##MP= -300
##BP= -300
##MW= 317
##$RETENTION INDEX=0
##$CONDENSED SPECTRUM=NO
##NPOINTS= 47
##XYDATA=(XY..XY) 1 
    40         22
    44         11
    50          5
    51         11
    53          9
    57          8
    61          8
    62         21
    63         32
    73         19
    75         13
    82          8
    83          7
    97         58
    99         29
   100          7
   101         46
   102         13
   107          5
   108          5
   109         10
   125         19
   126         16
   127         15
   129        999
   130         66
   132         12
   133         88
   134         13
   135         54
   137          8
   154          7
   155          5
   160         12
   161          6
   162          7
   188         27
   189        206
   190         31
   191        130
   192         12
   193         21
   317        103
   318         16
   319         60
   320          9
   321         10