##TITLE=Library Entry 47801
##JCAMP-DX=Revision 4.10 
##DATA TYPE=MASS SPECTRUM
##SAMPLE DESCRIPTION=A.A.Kutin, Moscow, Russia
##NAMES=HP
##CAS NAME=Benzene, 1-(4-diethylaminobenzylidenamino)-4-phenylazo-
##MOLFORM=C23H24N4
##CAS REGISTRY NO=80039-95-8
##MP= -300
##BP= -300
##MW= 356
##$RETENTION INDEX=0
##$CONDENSED SPECTRUM=NO
##NPOINTS= 226
##XYDATA=(XY..XY) 1 
    33          1
    34          2
    36          1
    37          6
    38         21
    39         77
    40         37
    41         36
    42         39
    43         25
    44         37
    45         14
    46          1
    50        109
    51        366
    52         42
    53         10
    54         11
    55         15
    56         25
    57         15
    58          4
    59          2
    60          2
    61          2
    62         13
    63         81
    64         46
    65         58
    66         13
    67          6
    68          3
    69          8
    70          7
    71          8
    72          4
    73          4
    74         13
    75         48
    76        262
    77        999
    78        121
    79         25
    80          5
    81          3
    82          3
    83          6
    84          6
    85          4
    86          1
    87          4
    88          9
    89         86
    90         72
    91         88
    92         50
    93         21
    94          4
    95          3
    96          3
    97          7
    98          6
    99          2
   100          2
   101         12
   102         44
   103        115
   104        173
   105        122
   106         61
   107          5
   108          1
   109          1
   110          4
   111         10
   112          4
   113          6
   114         10
   115         32
   116         30
   117         37
   118        147
   119         51
   120         48
   121          6
   122          1
   123          0
   125         16
   126         26
   127         27
   128         27
   129         31
   130         29
   131         50
   132         19
   133         19
   134         23
   135          3
   136          0
   137          1
   138          2
   139         16
   140         21
   141         12
   142         10
   143         15
   144          9
   145         10
   146          9
   147          3
   148         21
   149          9
   150         24
   151         67
   152        142
   153         73
   154         25
   155          9
   156          8
   157          5
   158          2
   159         25
   160          3
   161          0
   162          6
   163          3
   164          7
   165         12
   166         23
   167         26
   168         10
   169          4
   170          6
   171         11
   172          2
   173          1
   174          0
   175          1
   176          5
   177         25
   178        186
   179        139
   180         90
   181         36
   182          7
   183          1
   184          5
   185          2
   186          0
   187          0
   189          0
   190          6
   191          9
   192         22
   193         28
   194         19
   195          8
   196          2
   197          7
   198          1
   202          0
   203          1
   204          3
   205         33
   206         36
   207        251
   208         68
   209         13
   210          2
   217          0
   218          1
   219          5
   220         11
   221        137
   222         45
   223         20
   224          5
   225          1
   226          0
   227          0
   228          0
   233          1
   234          3
   235         28
   236        338
   237         64
   238          5
   239          0
   245          0
   247          0
   248          1
   249          7
   250         22
   251        547
   252        106
   253         10
   254          1
   255          0
   256          0
   264          2
   265          0
   266          1
   267          2
   268          0
   283          4
   284          1
   285          0
   299          0
   311          0
   312          0
   313          4
   314          0
   325          0
   326          1
   327          1
   328          1
   339          0
   341        210
   342         52
   343          6
   344          0
   355         11
   356        258
   357         71
   358          9
   359          0