##TITLE=Library Entry 51421
##JCAMP-DX=Revision 4.10 
##DATA TYPE=MASS SPECTRUM
##SAMPLE DESCRIPTION=NIST Mass Spectrometry Data Center
##NAMES=HP
##CAS NAME=(Z)-18-Octadec-9-enolide
##MOLFORM=C18H32O2
##CAS REGISTRY NO=80060-76-0
##MP= -300
##BP= -300
##MW= 280
##$RETENTION INDEX=2183
##$CONDENSED SPECTRUM=NO
##NPOINTS= 178
##XYDATA=(XY..XY) 1 
    39         33
    40         15
    41        407
    42         86
    43        124
    44          7
    45         11
    46          1
    47          1
    50          1
    51          8
    52          8
    53        100
    54        313
    55        761
    56         97
    57         64
    58          7
    59          9
    60         19
    61          3
    63          2
    64          1
    65         48
    66         62
    67        830
    68        478
    69        353
    70         50
    71         46
    72          3
    73         43
    74          4
    75          2
    76          3
    77         56
    78         19
    79        223
    80        178
    81        862
    82        999
    83        288
    84         69
    85         36
    86          4
    87         18
    88          2
    91         52
    92         15
    93        131
    94        166
    95        655
    96        768
    97        202
    98         87
    99         21
   100          8
   101         20
   102          2
   103          2
   104          7
   105         22
   106         13
   107         81
   108        110
   109        327
   110        256
   111         77
   112         26
   113         19
   114         11
   115         11
   116          3
   117          6
   118          4
   119         22
   120         18
   121        100
   122        112
   123        179
   124        121
   125         32
   126         40
   127         26
   128          5
   129          7
   131         12
   132          5
   133         21
   134         12
   135         83
   136         85
   137         91
   138         59
   139         20
   140         35
   141          8
   143          3
   145          7
   146          4
   147         13
   148          6
   149         46
   150         49
   151         38
   152         25
   153         17
   154         18
   155          6
   156          1
   157          2
   159          6
   160          2
   161          6
   162          4
   163         22
   164         22
   165         17
   166         10
   167         17
   168         17
   169          3
   170          1
   171          1
   173          9
   174          2
   175          4
   176          2
   177         11
   178         10
   179          9
   180          7
   181         17
   182         17
   183          3
   187          8
   188          2
   189          2
   191          6
   192          4
   193          6
   194          4
   195         13
   196         15
   197          3
   200          1
   201          4
   203          1
   205          4
   206          4
   209          7
   210          8
   211          2
   215          3
   218          1
   219          3
   220          8
   223         11
   224         10
   225          2
   233          3
   234          5
   235          2
   236          4
   237          9
   238          6
   244          1
   250          4
   251          7
   252         15
   253          2
   261          1
   262         49
   263          9
   279          2
   280        132
   281         26
   282          3