##TITLE=Library Entry 4526
##JCAMP-DX=Revision 4.10 
##DATA TYPE=MASS SPECTRUM
##SAMPLE DESCRIPTION=Institute of Organic Chemistry, Novosibirsk, USSR 1988
##NAMES=HP
##CAS NAME=N-(4-Acetylaminobenzenesulfonyl)azetidin-3-one
##MOLFORM=C11H12N2O4S
##CAS REGISTRY NO=80076-95-5
##MP= -300
##BP= -300
##MW= 268
##$RETENTION INDEX=0
##$CONDENSED SPECTRUM=NO
##NPOINTS= 59
##XYDATA=(XY..XY) 1 
    41        631
    42        999
    43        863
    44        103
    49         25
    50         29
    51         49
    52         53
    53         29
    54         19
    55         30
    56         16
    57         32
    60         19
    62         27
    63        119
    64        136
    65        535
    66         74
    67         11
    69         25
    70         11
    71         12
    76         25
    77         29
    78         24
    79         31
    80         23
    81         11
    90         11
    91         58
    92        219
    93        176
    94         29
   104         13
   105         14
   106        187
   107         17
   108        140
   109         11
   124         11
   125          9
   133         13
   134        153
   135         15
   136          9
   140         41
   148         85
   149          9
   150          9
   156         44
   157         10
   172         16
   176         54
   182          9
   198         89
   199         13
   240         40
   258         22