##TITLE=Library Entry 46631
##JCAMP-DX=Revision 4.10 
##DATA TYPE=MASS SPECTRUM
##SAMPLE DESCRIPTION=Chemical Concepts
##NAMES=HP
##CAS NAME=Quinolinium, 2-[2-(acetylphenylamino)ethenyl]-1-ethyl-
##MOLFORM=C21H21N2O
##CAS REGISTRY NO=80079-39-6
##MP= -300
##BP= -300
##MW= 317
##$RETENTION INDEX=0
##$CONDENSED SPECTRUM=NO
##NPOINTS= 110
##XYDATA=(XY..XY) 1 
    37         10
    38         45
    39        189
    40         15
    41         21
    42          8
    43         10
    50        124
    51        544
    52         70
    53         10
    54          5
    55          5
    57          5
    61          7
    62         34
    63        134
    64         70
    65         96
    66         13
    67          3
    69          4
    70          5
    74         47
    75         73
    76         95
    77        999
    78         97
    79          8
    83          6
    86          7
    87         18
    88         23
    89         60
    90         28
    91         24
    92          9
    93          4
    98          5
    99          5
   100         13
   101         81
   102         74
   103         28
   104         75
   105         10
   106          3
   108          5
   112          3
   113         33
   114         43
   115        166
   116         75
   117         29
   118          8
   119          5
   123          2
   125          6
   126         24
   127        106
   128        261
   129         37
   130         30
   131          7
   132         10
   137          4
   138          4
   139         16
   140        102
   141         31
   142         43
   143         79
   144         15
   145          2
   146          3
   151          2
   152          7
   153          9
   154         20
   155          9
   156         11
   157          2
   164          3
   165          6
   166         15
   167        115
   168        103
   169         31
   170         11
   171          2
   178          4
   179          4
   180         13
   181         14
   182        104
   183         25
   184          2
   191          2
   192          3
   195          3
   197          5
   216          3
   217          6
   218          2
   243          3
   244          2
   245         13
   246          2
   273          2
   274          2