##TITLE=Library Entry 27809
##JCAMP-DX=Revision 4.10 
##DATA TYPE=MASS SPECTRUM
##SAMPLE DESCRIPTION=Div. of Experiment Therapeutics WRAIR, WRAMC, Washingto
n DC 20307
##NAMES=HP
##CAS NAME=7-Chloro-3-[3,4-dichlorophenyl]-1-[[3-[dimethylamino]propyl]imino
]-10-hydroxy-2-methyl-1,2,3,4,9,10-hexahydro-9-acridinone
##MOLFORM=C25H26Cl3N3O2
##CAS REGISTRY NO=80092-58-6
##MP= -300
##BP= -300
##MW= 505
##$RETENTION INDEX=0
##$CONDENSED SPECTRUM=NO
##NPOINTS= 231
##XYDATA=(XY..XY) 1 
    41         30
    42        219
    43        119
    44        166
    45         84
    46         10
    49         12
    50         13
    51         22
    52          9
    53         10
    54         12
    55         49
    56         57
    57         13
    58        999
    59         51
    60         37
    61         40
    62          6
    63         14
    65         11
    66          7
    67         10
    68         20
    69         31
    70         55
    71         44
    72        128
    73         17
    74         16
    75         23
    76          3
    77         39
    78         51
    79          8
    81         11
    82         13
    83         10
    84         94
    85         76
    86         81
    87         13
    88          6
    89         16
    90          3
    91          7
    93          7
    94         14
    95          9
    96          6
    97         14
    98         12
    99         28
   100         12
   101         14
   102         11
   103          3
   104          2
   105         34
   106         27
   107          7
   108          3
   109         11
   110         14
   111         17
   112         11
   113         21
   114         13
   115         28
   116         13
   117          2
   119          7
   121         11
   122          6
   123         12
   124         34
   125         18
   126         17
   127         17
   128         16
   129         18
   130          6
   131          7
   133          5
   134          2
   135         11
   136         13
   137         16
   138         14
   139         15
   140          9
   141          9
   145         14
   146          3
   147         12
   148          6
   149         88
   150         15
   151         23
   152         12
   153         19
   154          9
   155          7
   156          5
   159         36
   161         29
   162         12
   163         44
   164         17
   165          9
   166         12
   167         26
   168          2
   171         10
   172          5
   173         18
   174          6
   175         15
   176          3
   177          7
   178          5
   179          4
   180          5
   183          3
   185          8
   186          8
   187          2
   188          9
   190         13
   191          3
   192          7
   195          5
   200          2
   201          2
   202          2
   203          8
   204          3
   205          5
   207          3
   208          3
   209          3
   213          5
   214          3
   215          2
   216          6
   217          6
   218          6
   219         28
   220          7
   221         12
   222          2
   230          8
   231          8
   232          9
   233          5
   234          2
   238          2
   242          6
   243          7
   244          7
   245          9
   246         15
   247          3
   248          6
   257          8
   258          7
   259         10
   260         10
   261          6
   262          6
   264          2
   271          6
   272          4
   273          6
   274          2
   276          6
   279          9
   285          6
   316          2
   331          3
   348          2
   350          2
   352          7
   353          5
   354          5
   367          4
   368          5
   369          5
   371          2
   374          2
   376          7
   378          7
   386          5
   387          6
   388         10
   389          7
   390         18
   391          7
   392         13
   394          5
   401          6
   402          7
   403         15
   404         18
   405         46
   406         23
   407         37
   408         15
   409         12
   410          3
   415          7
   417         12
   418         14
   419         12
   420         14
   421         17
   422          8
   423         12
   425          3
   429          2
   430          5
   431         13
   432          7
   433         11
   434          3
   505         18
   506          5
   507         18
   508          4
   509          5