##TITLE=Library Entry 6473
##JCAMP-DX=Revision 4.10 
##DATA TYPE=MASS SPECTRUM
##SAMPLE DESCRIPTION=W.KROSZCZYNSKI,INST. ORG. CHEM., POL. ACAD. SCI., WARSA
W, PO
##NAMES=HP
##CAS NAME=17.beta.-Acetoxy-1.alpha.-carboethoxymethyl-5.alpha.-androstan-3-
one
##MOLFORM=C25H38O5
##CAS REGISTRY NO=80097-24-1
##MP= -300
##BP= -300
##MW= 418
##$RETENTION INDEX=0
##$CONDENSED SPECTRUM=NO
##NPOINTS= 399
##XYDATA=(XY..XY) 1 
    19          3
    20          0
    23          0
    24          0
    25          1
    26          6
    27         41
    28         21
    29        195
    30          5
    31          6
    32          0
    33          0
    34          0
    35          0
    36          1
    37          2
    38          1
    39         37
    40          8
    41        261
    42         37
    43        999
    44         26
    45         22
    46          1
    47          1
    48          0
    49          0
    50          1
    51          4
    52          3
    53         58
    54         14
    55        212
    56         18
    57         38
    58          5
    59          5
    60         16
    61         25
    62          1
    63          1
    64          1
    65         21
    66         13
    67        142
    68         34
    69         88
    70         11
    71         29
    72          2
    73          9
    74          2
    75          1
    76          1
    77         79
    78         16
    79        182
    80         41
    81        193
    82         39
    83         39
    84         10
    85         27
    86          9
    87         27
    88         11
    89          5
    90          1
    91        165
    92         30
    93        220
    94         83
    95        158
    96         19
    97         30
    98          5
    99         10
   100          4
   101          7
   102          2
   103          8
   104          9
   105        185
   106         69
   107        211
   108         58
   109         77
   110        160
   111         94
   112         26
   113         26
   114         34
   115         91
   116         12
   117         40
   118         35
   119        115
   120         47
   121        156
   122         55
   123         46
   124          9
   125          6
   126          2
   127          5
   128         11
   129         31
   130         12
   131         73
   132         23
   133         90
   134         43
   135         65
   136         17
   137         15
   138         28
   139          8
   140          5
   141         24
   142         14
   143        216
   144         31
   145         86
   146         45
   147         92
   148         30
   149         48
   150         10
   151         12
   152          4
   153          4
   154          4
   155         12
   156        141
   157        192
   158         45
   159         83
   160         39
   161         90
   162         26
   163         23
   164          6
   165          9
   166          3
   167          3
   168          3
   169         10
   170          5
   171         27
   172         26
   173         55
   174         48
   175         36
   176         14
   177         10
   178          3
   179          7
   180          3
   181          6
   182          5
   183         20
   184          8
   185         62
   186         14
   187        100
   188         21
   189         16
   190          6
   191          7
   192          3
   193          5
   194          4
   195         15
   196          5
   197         18
   198         11
   199         27
   200        107
   201        159
   202        237
   203         81
   204         12
   205         12
   206          5
   207          6
   208          4
   209         13
   210          7
   211         14
   212          6
   213         20
   214          9
   215         31
   216         14
   217         21
   218         13
   219         22
   220          7
   221          4
   222          2
   223          6
   224          1
   225         10
   226          4
   227         13
   228          6
   229          9
   230          3
   231          6
   232          3
   233          7
   234          3
   235          6
   236          3
   237          7
   238          2
   239          9
   240          4
   241          8
   242          3
   243         15
   244          4
   245         15
   246          4
   247          8
   248          2
   249          3
   250          1
   251          9
   252          5
   253         28
   254          9
   255         15
   256          5
   257          7
   258          7
   259          7
   260        124
   261         46
   262        131
   263         26
   264          4
   265          4
   266          2
   267          8
   268          4
   269         25
   270          8
   271         26
   272          9
   273          8
   274          5
   275          4
   276          4
   277          3
   278          2
   279          7
   280          2
   281          1
   282          0
   283         10
   284         10
   285         15
   286          6
   287          9
   288          5
   289         10
   290          2
   291          1
   292          0
   293          5
   294          6
   295         20
   296          5
   297         15
   298          4
   299          5
   300          4
   301          4
   302          4
   303         22
   304          5
   305          8
   306          2
   307          1
   308          0
   309          0
   310          1
   311         15
   312         24
   313         32
   314          7
   315          7
   316          8
   317          5
   318          6
   319          3
   320          1
   321          0
   322          0
   323          0
   324          0
   325          6
   326          3
   327          1
   328          3
   329         23
   330         18
   331        242
   332         54
   333          8
   334          1
   335          0
   336          0
   337          0
   338          0
   339          1
   340          8
   341          2
   342          1
   343         11
   344         79
   345         25
   346          4
   347          1
   348          0
   349          0
   350          0
   351          0
   352          0
   353          0
   354          1
   355          3
   356          2
   357          6
   358         26
   359          9
   360          4
   361          5
   362          1
   363          0
   364          0
   365          0
   366          0
   367          0
   368          0
   369          1
   370          0
   371          3
   372         40
   373         48
   374         13
   375          5
   376          1
   377          0
   378          0
   380          0
   381          0
   382          0
   383          1
   384          5
   385          2
   386          1
   387          0
   388          1
   389          3
   390          1
   391          0
   392          0
   393          0
   394          0
   395          0
   396          0
   397          0
   398          0
   399          1
   400         19
   401          6
   402          1
   403          5
   404          6
   405          3
   406          0
   407          0
   408          0
   409          0
   410          0
   411          0
   412          0
   413          0
   414          0
   415          0
   416          1
   418        100
   419         36
   420          6
   421          1