##TITLE=Library Entry 69765
##JCAMP-DX=Revision 4.10 
##DATA TYPE=MASS SPECTRUM
##SAMPLE DESCRIPTION=Chemical Concepts
##NAMES=HP
##CAS NAME=5-Phospha-1,4,6,9-tetraoxaspiro[4.4]nonane, 2,3,5,7,8-pentamethyl
-
##MOLFORM=C9H19O4P
##CAS REGISTRY NO=80093-90-9
##MP= -300
##BP= -300
##MW= 222
##$RETENTION INDEX=0
##$CONDENSED SPECTRUM=NO
##NPOINTS= 133
##XYDATA=(XY..XY) 1 
    25          6
    26         87
    27        357
    28        115
    29        345
    30          8
    31         31
    32          3
    33          8
    34          0
    36          0
    37          6
    38         11
    39        144
    40         18
    41        232
    42         74
    43        962
    44        219
    45        346
    46         18
    47        242
    48         22
    49         28
    50         13
    51         14
    52          6
    53         60
    54        418
    55        726
    56        266
    57        229
    58          9
    59          4
    60          1
    61         14
    62         63
    63         51
    64         10
    65        259
    66          1
    67         10
    68          8
    69         12
    70          3
    71        102
    72         67
    73         27
    74          2
    75          4
    76          1
    77          6
    78         13
    79        321
    80        402
    81         49
    82         13
    83          2
    84          0
    85          1
    86          0
    87          1
    88          7
    89          6
    90         12
    91        599
    92         15
    93          6
    94          2
    95          3
    96         32
    97        999
    98         13
    99         43
   100          1
   101          1
   103          4
   104          1
   105         10
   106        147
   107         16
   108         58
   109          5
   110          2
   111          0
   112          0
   113          3
   114          0
   115          1
   116          0
   117          4
   118          2
   119        702
   120         31
   121         17
   122          5
   123         81
   124         38
   125        584
   126         20
   127          4
   128          0
   129          0
   131          0
   132          1
   133         10
   134        402
   135        211
   136         10
   137          0
   146          0
   147          0
   148          1
   149         30
   150         60
   151        204
   152         12
   153         96
   154          3
   155          0
   163          1
   167          1
   177          7
   178        786
   179         64
   180          7
   181          0
   206          0
   207        212
   208         18
   209          2
   221          7
   222          0