##TITLE=Library Entry 14360
##JCAMP-DX=Revision 4.10 
##DATA TYPE=MASS SPECTRUM
##SAMPLE DESCRIPTION=A. Brossi, LC, NIDDK, NIH, Bethesda, MD 20892
##NAMES=HP
##CAS NAME=Perhydro-htx-2-one, 2-depentyl-, acetate ester
##MOLFORM=C16H27NO3
##CAS REGISTRY NO=80090-53-5
##MP= -300
##BP= -300
##MW= 281
##$RETENTION INDEX=0
##$CONDENSED SPECTRUM=NO
##NPOINTS= 166
##XYDATA=(XY..XY) 1 
    41        276
    42        145
    43        999
    44         46
    45          6
    47         37
    48         12
    49         15
    50          6
    51          7
    52          6
    53         39
    54         62
    55        473
    56         50
    57         51
    58          9
    59         17
    60          4
    61         35
    62          0
    63          0
    65         21
    67        146
    68         39
    69         54
    70         33
    71         14
    72         14
    73          2
    77         37
    78          2
    79         93
    80         34
    81         76
    82        195
    83        129
    84          9
    86          8
    87          8
    88          8
    89          0
    91         41
    92          9
    93         50
    94         56
    95         49
    96        268
    97         36
    98         53
    99          7
   100          4
   103          3
   104          0
   105         21
   106         13
   107         29
   108         48
   109         49
   111        506
   112        348
   113         27
   114          5
   115          2
   117          6
   118          2
   119         16
   120         11
   121         24
   122         81
   124        591
   125        114
   126         18
   127          8
   128          0
   129          1
   130          0
   131          6
   132          3
   133         10
   134         13
   135         22
   136         76
   137        129
   138         82
   139         27
   140         21
   141          2
   142          5
   143          1
   145          2
   146          2
   147          8
   148         11
   150        637
   151        202
   152         55
   153         13
   154         14
   155          2
   157          0
   159          2
   160          1
   161          9
   162         16
   163          5
   164        157
   165         90
   166         49
   167         22
   168         60
   169          7
   170          0
   175          4
   176          5
   178        235
   179         39
   180         30
   181          1
   182         14
   183         13
   184          2
   186          0
   187          6
   188          0
   189          1
   190          0
   192        100
   193        166
   194         40
   196        119
   197         14
   198          1
   203          3
   204          8
   205         19
   206         21
   207          3
   208          4
   210          3
   211          1
   218          1
   220        129
   221        363
   222        553
   223         81
   224          8
   225          2
   234          0
   235          0
   236          1
   238        203
   239        109
   240         15
   241          0
   249          0
   250          2
   252          1
   264          0
   265          1
   266          1
   279          0
   281        836
   282        293
   283         40
   284          4