##TITLE=Library Entry 37068
##JCAMP-DX=Revision 4.10 
##DATA TYPE=MASS SPECTRUM
##SAMPLE DESCRIPTION=Div. of Experiment Therapeutics WRAIR, WRAMC, Washingto
n DC 20307
##NAMES=HP
##CAS NAME=7-Chloro-1,3,4,10-tetrahydro-10-hydroxy-1-[[2-[2-propenylamino]et
hyl]imino]-3-[3-(fluoromethyl)phenyl]-9(2H)-acridinone
##MOLFORM=C25H23ClF3N3O2
##CAS REGISTRY NO=80092-45-1
##MP= -300
##BP= -300
##MW= 489
##$RETENTION INDEX=0
##$CONDENSED SPECTRUM=NO
##NPOINTS= 233
##XYDATA=(XY..XY) 1 
    41        499
    42         95
    43         48
    44         37
    45          7
    49          6
    50          3
    51         11
    52          8
    53          8
    54         25
    55         20
    56         68
    57         23
    58         19
    63          9
    65          6
    66          3
    67          8
    68         61
    69         26
    70        999
    71         58
    72         14
    73          5
    75         16
    76          5
    77         12
    78         10
    79          5
    80          8
    81          7
    82         21
    83         23
    84         31
    85          5
    86          7
    87          4
    88          7
    89          6
    90          4
    91          4
    94          5
    95          7
    96          9
    97          6
    98          5
    99          9
   100          6
   101          9
   102          9
   103          9
   106          6
   107          5
   108          4
   109         13
   110         25
   111         30
   112          9
   113         11
   114         12
   115         10
   116          5
   119          5
   120          5
   121          5
   122          6
   123         11
   124         18
   125         14
   126         19
   127         20
   128         13
   129          6
   130          4
   133          7
   135          6
   136         14
   137          9
   138         15
   139         15
   140         19
   141         11
   142          4
   145         12
   146          6
   147          6
   148          7
   149          8
   150          9
   151         22
   152         13
   153         15
   154         13
   155          9
   156          5
   157          3
   159         44
   160          8
   161          6
   162          9
   163         14
   164         33
   165         13
   166         19
   167          9
   168          6
   169          6
   170          4
   171          6
   172          9
   173          6
   174          9
   175          6
   176          7
   177          8
   178          9
   179          8
   180          4
   181          6
   182          7
   183          9
   184          4
   185          5
   186          5
   187          5
   188          8
   189          7
   190          6
   191          8
   192          6
   193          5
   194          6
   195          9
   196          7
   199          5
   200          6
   201          6
   202          8
   203          5
   204          6
   205          4
   206          4
   207          3
   209          5
   210          5
   211          3
   212          3
   213          5
   214          5
   215          6
   216         27
   217         14
   218         17
   219         24
   220          7
   221          9
   222          4
   224          3
   225          3
   228          4
   229          7
   230         11
   231         15
   232         14
   233          7
   234          5
   240          7
   241         10
   242          4
   243         10
   244         18
   245         65
   246         19
   247         23
   248          5
   255          5
   256          4
   257         14
   258          9
   259         80
   260         14
   261         26
   262          7
   269          6
   270          7
   271          8
   272          4
   273          3
   281          4
   284          4
   290          4
   298          3
   304          6
   305          4
   306          5
   308          4
   309          4
   338          6
   339          7
   362          3
   372          6
   373          6
   374         13
   375          7
   376          6
   387          6
   388         10
   389         14
   390         28
   391         43
   392         15
   393         13
   400          8
   401         35
   402         24
   403         91
   404        165
   405         60
   406         55
   407         14
   414          6
   415          5
   416          6
   417          7
   418          3
   426          5
   473         13
   474          5
   489          9
   490          2
   491          3
   492          1