##TITLE=Library Entry 14237
##JCAMP-DX=Revision 4.10 
##DATA TYPE=MASS SPECTRUM
##SAMPLE DESCRIPTION=W.KROSZCZYNSKI,INST. ORG. CHEM., POL. ACAD. SCI., WARSA
W, PO
##NAMES=HP
##CAS NAME=17.beta.-Acetoxy-1',1'-dicarboethoxy-1.beta.,2.beta.-dihydro-17.a
lpha.-methyl-3'H-cycloprop[1,2]-5.alpha.-androst-1-en-3-one
##MOLFORM=C29H42O7
##CAS REGISTRY NO=80097-22-9
##MP= -300
##BP= -300
##MW= 502
##$RETENTION INDEX=0
##$CONDENSED SPECTRUM=NO
##NPOINTS= 464
##XYDATA=(XY..XY) 1 
    20          4
    21          0
    22          0
    24          3
    25          4
    26         29
    27        119
    28         91
    29        374
    30          9
    31         29
    32          1
    34          0
    35          0
    36          5
    37          3
    38          9
    39         77
    40         17
    41        313
    42         94
    43        999
    44         87
    45        118
    46          5
    47          3
    48          1
    49          1
    50         12
    51         22
    52          8
    53         61
    54         21
    55        201
    56        112
    57        306
    58         47
    59         12
    60         78
    61          8
    62          1
    63          7
    64          3
    65         40
    66         13
    67        134
    68         30
    69        107
    70         27
    71        119
    72         17
    73         20
    74          8
    75         12
    76          4
    77        126
    78         32
    79        215
    80         33
    81        170
    82         30
    83         54
    84         19
    85         68
    86         35
    87          8
    88          3
    89          5
    90          4
    91        263
    92         58
    93        235
    94         49
    95        158
    96         26
    97         38
    98         19
    99         29
   100          8
   101          6
   102          5
   103         24
   104         24
   105        218
   106         61
   107        289
   108        106
   109        116
   110         27
   111         26
   112         14
   113         23
   114          7
   115         46
   116         20
   117         73
   118         33
   119        143
   120         63
   121        147
   122         56
   123         41
   124          9
   125         28
   126         36
   127         37
   128         34
   129         52
   130         21
   131         92
   132         41
   133        133
   134         51
   135         63
   136         44
   137         28
   138         18
   139         71
   140         23
   141         46
   142         26
   143         78
   144         32
   145        116
   146         51
   147        167
   148         59
   149         68
   150         11
   151         13
   152         10
   153         22
   154         91
   155         53
   156         29
   157        110
   158         63
   159        178
   160        121
   161        288
   162         56
   163         39
   164          8
   165         20
   166         10
   167         71
   168         29
   169         77
   170         29
   171         88
   172         60
   173        140
   174         75
   175         83
   176         19
   177         17
   178         12
   179         17
   180         11
   181         20
   182         93
   183         46
   184         28
   185         63
   186         62
   187         79
   188         45
   189         29
   190          8
   191         20
   192          9
   193         23
   194         13
   195         24
   196         16
   197         50
   198         41
   199         87
   200        127
   201         44
   202         14
   203         13
   204          6
   205         15
   206         16
   207         20
   208         12
   209         26
   210         15
   211         48
   212         55
   213        107
   214        168
   215        144
   216         34
   217         27
   218         10
   219         31
   220         10
   221         17
   222         11
   223         30
   224         21
   225         57
   226         49
   227        130
   228        151
   229         61
   230         28
   231         17
   232         13
   233         24
   234         12
   235         15
   236          8
   237         23
   238         14
   239         30
   240         39
   241         55
   242         41
   243         39
   244         12
   245         20
   246          8
   247         11
   248          5
   249         16
   250          9
   251         22
   252         16
   253         32
   254         30
   255         24
   256         14
   257         13
   258          5
   259         14
   260          7
   261         14
   262          7
   263         14
   264         17
   265         29
   266         21
   267        492
   268        104
   269         43
   270         42
   271         25
   272         17
   273         13
   274         19
   275         19
   276          6
   277         12
   278         10
   279         26
   280         29
   281         74
   282        183
   283        128
   284         32
   285         40
   286         14
   287         11
   288         20
   289         16
   290          7
   291         11
   292         11
   293         26
   294         20
   295         37
   296         10
   297         31
   298         13
   299         22
   300         20
   301         14
   302          8
   303          6
   304          8
   305         12
   306          7
   307         38
   308         26
   309         31
   310         21
   311         35
   312         17
   313         16
   314         17
   315         13
   316          6
   317         16
   318          6
   319          4
   320          3
   321         24
   322         69
   323         48
   324         15
   325         26
   326         41
   327        320
   328         86
   329         18
   330          9
   331         14
   332         44
   333         20
   334          7
   335         81
   336         27
   337         12
   338         12
   339         33
   340         22
   341         19
   342        113
   343         98
   344         22
   345          8
   346          4
   347          3
   348          4
   349         64
   350         75
   351         75
   352         18
   353         48
   354         32
   355         26
   356         19
   357         24
   358          7
   359          2
   360          2
   361          2
   362          2
   363         16
   364          6
   365          5
   366          3
   367         51
   368        122
   369         52
   370         14
   371          6
   372          5
   373          2
   374          2
   375          1
   376          1
   377         13
   378         35
   379         18
   380          7
   381         73
   382         40
   383         19
   384          7
   385          9
   386          8
   387          7
   388          2
   389          8
   390          7
   391          2
   392         25
   393          9
   394          3
   395         39
   396         98
   397         73
   398         19
   399         10
   400         24
   401         17
   402         13
   403         29
   404          8
   405          2
   406          0
   407          1
   408          1
   409          6
   410         20
   411         27
   412          8
   413         32
   414         19
   415          6
   416          1
   417          1
   418          2
   419          0
   420          2
   421          2
   422          0
   423          2
   424          8
   425          5
   426          2
   427        172
   428         65
   429         18
   430          4
   431          4
   432          1
   433          4
   434          0
   435          1
   436          4
   437          1
   438         35
   439         16
   440          5
   441         18
   442         88
   443         32
   444          9
   445         15
   446          4
   447          0
   448          1
   449          0
   450          0
   451          0
   452          0
   454          0
   455          1
   456         35
   457         34
   458         12
   459         25
   460         19
   461          6
   462          1
   463          0
   468          0
   470          0
   471          1
   472          0
   473          1
   474          1
   475          0
   476          0
   479          0
   480          0
   484          5
   485          2
   486          1
   487          6
   488          2
   489          0
   490          0
   498          0
   501          2
   502         43
   503         14
   504          4
   505          0