##TITLE=Library Entry 14919
##JCAMP-DX=Revision 4.10 
##DATA TYPE=MASS SPECTRUM
##SAMPLE DESCRIPTION=W.KROSZCZYNSKI,INST. ORG. CHEM., POL. ACAD. SCI., WARSA
W, PO
##NAMES=HP
##CAS NAME=1.alpha.-Dicarboethoxymethyl-5.alpha.-cholestan-3-one
##MOLFORM=C34H56O5
##CAS REGISTRY NO=80097-16-1
##MP= -300
##BP= -300
##MW= 544
##$RETENTION INDEX=0
##$CONDENSED SPECTRUM=NO
##NPOINTS= 500
##XYDATA=(XY..XY) 1 
    20          0
    24          1
    25          1
    26         12
    27        154
    28         26
    29        600
    30         17
    31         25
    32          0
    33          0
    34          0
    35          0
    36          1
    37          0
    38          4
    39         49
    40         12
    41        452
    42         86
    43        999
    44         33
    45         38
    46          2
    47         11
    48          0
    49          0
    50          2
    51          5
    52          5
    53         55
    54         17
    55        516
    56         91
    57        515
    58         29
    59          2
    60         13
    61          7
    62          1
    63          1
    64          1
    65         19
    66         10
    67        245
    68         73
    69        327
    70         53
    71        220
    72         14
    73          9
    74          1
    75          2
    76          1
    77         74
    78         19
    79        222
    80         61
    81        371
    82         65
    83        150
    84         20
    85        109
    86         55
    87         52
    88         35
    89          6
    90          2
    91        181
    92         40
    93        269
    94         89
    95        343
    96         40
    97         82
    98          8
    99         17
   100          4
   101          7
   102          2
   103          9
   104         16
   105        214
   106         76
   107        309
   108        105
   109        240
   110         49
   111         78
   112         13
   113         67
   114         38
   115        114
   116         14
   117         42
   118         26
   119        118
   120         59
   121        263
   122        385
   123        152
   124         19
   125         20
   126          3
   127         28
   128         11
   129         23
   130         13
   131         75
   132         41
   133        209
   134        139
   135        107
   136         36
   137         41
   138         14
   139         48
   140         16
   141         57
   142         16
   143         31
   144         17
   145         85
   146         36
   147        152
   148         40
   149         65
   150         14
   151         26
   152         11
   153          6
   154         10
   155         31
   156         14
   157         36
   158         20
   159         97
   160        206
   161        499
   162         70
   163         51
   164         10
   165         16
   166          4
   167         60
   168         10
   169        199
   170         19
   171         22
   172         14
   173        103
   174         48
   175         85
   176         42
   177         32
   178          6
   179         14
   180          4
   181          8
   182        136
   183         64
   184         11
   185         29
   186         40
   187         60
   188         18
   189         33
   190         10
   191         14
   192          5
   193         26
   194          9
   195          8
   196          3
   197          9
   198          4
   199         19
   200         10
   201         82
   202         31
   203         58
   204         14
   205         14
   206         33
   207         25
   208         11
   209          8
   210          6
   211         19
   212         11
   213         46
   214         17
   215        215
   216         32
   217         23
   218          3
   219         11
   220          6
   221          6
   222          2
   223          4
   224          1
   225          6
   226          4
   227         14
   228        462
   229        149
   230         51
   231         35
   232          9
   233          8
   234          1
   235          7
   236          3
   237          2
   238          2
   239          4
   240          2
   241          9
   242          3
   243         16
   244         23
   245         45
   246          9
   247         16
   248          5
   249          6
   250          5
   251          3
   252          1
   253         10
   254          3
   255         11
   256         10
   257         16
   258          7
   259         11
   260         10
   261          7
   262          4
   263         21
   264          5
   265          2
   266          1
   267          3
   268          3
   269         15
   270          7
   271         44
   272         11
   273         10
   274          5
   275          7
   276          3
   277          3
   278          0
   279          3
   280          1
   281          3
   282          1
   283          6
   284          4
   285         10
   286          3
   287          6
   288          1
   289          1
   290          0
   291          0
   293          2
   294          1
   295          2
   296          1
   297          6
   298          5
   299         33
   300         25
   301         49
   302         15
   303          3
   304          1
   305          1
   306          0
   307          0
   308          0
   309          1
   310          1
   311          5
   312          8
   313         15
   314        210
   315        119
   316         95
   317         22
   318          2
   319          0
   321          2
   322          1
   323          1
   324          1
   325          4
   326          3
   327          5
   328          3
   329          7
   330          5
   331         10
   332          3
   333          0
   334          0
   335          0
   337          0
   338          1
   339         11
   340          6
   341          8
   342         17
   343          8
   344          2
   345          2
   346          0
   347          0
   348          0
   349          1
   350          3
   351          3
   352          2
   353          2
   354          3
   355          4
   356          5
   357         12
   358          4
   359          3
   360          1
   361          1
   362          0
   363          0
   364          0
   365          2
   366         26
   367         35
   368         11
   369         78
   370         27
   371          7
   372         23
   373          9
   374          1
   375          1
   376          0
   377          0
   378          0
   379          1
   380          1
   381          1
   382          4
   383         23
   384        472
   385        664
   386        183
   387         32
   388          5
   389          1
   390          1
   391          1
   392          0
   393          0
   394          0
   395          0
   396          2
   397          2
   398          2
   399          1
   400          0
   401          0
   403          0
   404          0
   405          0
   406          1
   407          4
   408          1
   409          2
   410          1
   411          1
   412          2
   413          4
   414          3
   415          0
   416          0
   417          0
   418          0
   419          0
   420          0
   421          0
   422          0
   423          0
   424          3
   425         10
   426          5
   427          1
   428          0
   429          1
   430          0
   431          4
   432          1
   433          0
   434          0
   435          3
   436          1
   437          3
   438          1
   439          0
   440          0
   441          1
   442          0
   443          1
   444          0
   445          0
   446          1
   447          0
   448          0
   449          0
   450          0
   451          2
   452          6
   453         51
   454         17
   455          8
   456          3
   457          2
   458          0
   459          0
   460          0
   461          0
   462          0
   463          0
   465          0
   466          0
   467          0
   468          0
   469          1
   470         19
   471          9
   472          3
   473          0
   474          0
   475          0
   479          0
   480          2
   481          4
   482          1
   483          3
   484          1
   485          1
   486          0
   487          0
   488          0
   491          0
   492          0
   495          0
   496          0
   497          3
   498          9
   499         44
   500         15
   501          3
   502          0
   506          0
   508          0
   509          0
   510          0
   511          3
   512          0
   513          0
   514          0
   515          1
   516          0
   517          0
   519          0
   520          0
   521          0
   524          0
   525          0
   526         12
   527          5
   528          1
   529          4
   530          3
   531          0
   532          0
   537         10
   540          0
   541          0
   542          0
   543          3
   544         57
   545         30
   546         10
   547          1