##TITLE=Library Entry 31623
##JCAMP-DX=Revision 4.10 
##DATA TYPE=MASS SPECTRUM
##SAMPLE DESCRIPTION=Chemical Concepts
##NAMES=HP
##CAS NAME=3-Chloro-6-diazocyclohexa-2,4-dienone
##MOLFORM=C6H3ClN2O
##CAS REGISTRY NO=80090-95-5
##MP= -300
##BP= -300
##MW= 154
##$RETENTION INDEX=0
##$CONDENSED SPECTRUM=NO
##NPOINTS= 71
##XYDATA=(XY..XY) 1 
    24          1
    25          5
    26          6
    27          2
    28         28
    29          2
    31         32
    35          2
    36         12
    37         66
    38         56
    39         10
    42          4
    43          3
    45          3
    47          5
    48         22
    49         47
    50         34
    51          8
    52          2
    53         39
    54          1
    55          2
    57          5
    60         30
    61        117
    62        214
    63        999
    64         63
    65         58
    66         11
    68          3
    70          1
    71          4
    72         28
    73         15
    74         15
    75         12
    76          8
    77          7
    78          1
    81          1
    82          2
    83          0
    84          0
    85          2
    89          2
    91         32
    92          2
    93          1
    94          1
    95          0
    96          3
    97         22
    98        473
    99         26
   100        121
   101          6
   103          2
   105          1
   122          1
   126        327
   127         19
   128        160
   129          6
   130         11
   154        441
   155         32
   156        116
   157          9