##TITLE=Library Entry 90961
##JCAMP-DX=Revision 4.10 
##DATA TYPE=MASS SPECTRUM
##SAMPLE DESCRIPTION=Div. of Experiment Therapeutics WRAIR, WRAMC, Washingto
n DC 20307
##NAMES=HP
##CAS NAME=1-[[2-[Butylamino]butyl]imino]-7-chloro-1,3,4,10-tetrahydro-10-hy
droxy-3-[4-(trifluoromethyl)phenyl]-9(2H)-acridinone
##MOLFORM=C28H31ClF3N3O2
##CAS REGISTRY NO=80092-56-4
##MP= -300
##BP= -300
##MW= 533
##$RETENTION INDEX=0
##$CONDENSED SPECTRUM=NO
##NPOINTS= 68
##XYDATA=(XY..XY) 1 
    41         31
    42         28
    43         15
    44         22
    47          2
    49         21
    51          9
    54          4
    55         10
    56         34
    57         16
    58        143
    59          1
    68          1
    69          4
    70         14
    72        147
    73          6
    83          7
    84         50
    86         76
    87          2
    91          5
    97          1
    98         11
    99          4
   100          5
   101         10
   112         25
   114        999
   115         66
   126          5
   127         14
   128          8
   145          1
   151          2
   153          1
   159          8
   164          4
   173          2
   208          3
   216          2
   220          1
   221          1
   237          4
   243          5
   245          7
   257          8
   259          2
   304          1
   372          3
   373          1
   374          5
   389          1
   390          4
   391          7
   400          1
   401         10
   402          6
   403          9
   404          6
   405          1
   415          5
   417          4
   418          2
   533         11
   534          3
   535          3