##TITLE=Library Entry 14395
##JCAMP-DX=Revision 4.10 
##DATA TYPE=MASS SPECTRUM
##SAMPLE DESCRIPTION=GEORGE R. WALLER, OKLAHOMA STATE UNIVERSITY, USA
##NAMES=HP
##CAS NAME=Retinol, 5,6-epoxy-5,6-dihydro-, acetate
##MOLFORM=C22H32O3
##CAS REGISTRY NO=801-72-9
##MP= -300
##BP= -300
##MW= 344
##$RETENTION INDEX=0
##$CONDENSED SPECTRUM=NO
##NPOINTS= 103
##XYDATA=(XY..XY) 1 
    39        130
    41        440
    42         90
    43        999
    44         70
    45        250
    53        140
    55        430
    56         80
    57        260
    60        250
    65        100
    67        140
    69        400
    70        140
    71        130
    77        170
    79        210
    81        240
    83        160
    84         70
    85        110
    91        310
    92         90
    93        340
    95        440
   105        380
   106        100
   107        380
   108        140
   109        250
   111        100
   112        170
   113        110
   115        100
   117        130
   119        380
   120        180
   121        360
   122        140
   123        240
   128        130
   129        670
   131        180
   132         70
   133        170
   134         90
   135        210
   136         90
   137         70
   141         70
   142        130
   143        180
   144        100
   145        270
   146        100
   147        270
   148         60
   149        560
   157        250
   158        100
   159        210
   161        120
   163         70
   164        250
   165        550
   166         70
   171        230
   173        120
   175         70
   177        220
   178         90
   183         80
   185        110
   187         70
   191        100
   192        120
   197         50
   199        250
   200         70
   201        150
   205        190
   211         60
   213         90
   215         80
   217         80
   218         90
   227         60
   231         60
   241        150
   260         60
   269        360
   270         80
   271        320
   272         70
   284        760
   285        300
   286        380
   287        100
   326         40
   344        260
   345         60
   346         20