##TITLE=Library Entry 28527
##JCAMP-DX=Revision 4.10 
##DATA TYPE=MASS SPECTRUM
##SAMPLE DESCRIPTION=Div. of Experiment Therapeutics WRAIR, WRAMC, Washingto
n DC 20307
##NAMES=HP
##CAS NAME=7-Chloro-1-[[3-[dimethylamino]propyl]imino]-1,3,4,10-tetrahydro-3
-(p-trifluoromethylphenyl)-9(2H)acridinone
##MOLFORM=C25H25ClF3N3O
##CAS REGISTRY NO=80108-22-1
##MP= -300
##BP= -300
##MW= 475
##$RETENTION INDEX=0
##$CONDENSED SPECTRUM=NO
##NPOINTS= 200
##XYDATA=(XY..XY) 1 
    42         74
    43         22
    44         38
    45          3
    49          6
    51          3
    53          1
    55          8
    56         27
    58        999
    59         33
    65          1
    68          4
    69          4
    70         33
    71         11
    72        344
    73         14
    75          4
    77          4
    78          1
    82          3
    84         67
    85         34
    86         19
    99          5
   101          1
   102          3
   103          6
   109          6
   110          3
   111          6
   113          2
   114          5
   115          3
   123          1
   124          1
   125          3
   126          7
   127         13
   128          4
   130          2
   133          1
   136          8
   138          5
   139          6
   140          9
   141          4
   145          5
   147          1
   149          5
   150          3
   151         11
   152          6
   153          9
   154          7
   155          3
   159         27
   162          3
   163          1
   164         23
   165          7
   166         11
   167          5
   169          3
   171          2
   172          7
   174          3
   177          3
   178          4
   179          2
   181          8
   182          5
   183          3
   187          1
   188          7
   189          7
   190          1
   191          1
   193          1
   195          5
   196          1
   197          1
   200          1
   201          3
   202          1
   204          2
   209          1
   210          1
   211          6
   214          1
   215          7
   216         12
   217         12
   218         11
   219         11
   220          3
   221          3
   223          2
   224          1
   225          3
   228          2
   229          5
   230         10
   231         12
   232         11
   233          5
   234          1
   237          1
   238          5
   240          2
   241          7
   242          3
   243          8
   244          9
   245         75
   246         13
   247         23
   248          2
   255          2
   257          9
   258          8
   259         41
   260          8
   261         13
   262          1
   269          3
   270          6
   271          6
   272          1
   273          3
   285          2
   290          1
   304         10
   305          6
   306          6
   307          1
   308          1
   309          1
   310          3
   311          1
   314          8
   318          2
   319          3
   320          1
   321          1
   322          1
   327          1
   337          3
   338          7
   339          6
   340          4
   342          1
   348          6
   350          1
   352          1
   353          6
   354          4
   355          3
   356          3
   360          3
   362          6
   369          9
   370         24
   371          7
   372          7
   373          7
   374         17
   375          8
   376          8
   377          1
   382          1
   383         15
   384          3
   386          1
   387         26
   388          8
   389         23
   390          9
   391         19
   392          4
   393          4
   401          3
   403         30
   404        305
   405         77
   406        103
   407         21
   416         19
   417        125
   418         34
   419         42
   420          9
   426          3
   429          1
   441          3
   475         64
   476         19
   477         23
   478          6