##TITLE=Library Entry 37096
##JCAMP-DX=Revision 4.10 
##DATA TYPE=MASS SPECTRUM
##SAMPLE DESCRIPTION=Div. of Experiment Therapeutics WRAIR, WRAMC, Washingto
n DC 20307
##NAMES=HP
##CAS NAME=7-Chloro-3-[3,4-dichlorophenyl]-1,3,4,10-tetrahydro-10-hydroxy-1-
[[3-(4-methylpiperazin-1-yl)propyl]imino]-9(2H)-acridinone
##MOLFORM=C27H29Cl3N4O2
##CAS REGISTRY NO=80108-14-1
##MP= -300
##BP= -300
##MW= 546
##$RETENTION INDEX=0
##$CONDENSED SPECTRUM=NO
##NPOINTS= 232
##XYDATA=(XY..XY) 1 
    42        959
    43        864
    44        420
    45         38
    47         11
    49         44
    50         14
    51         31
    52         17
    53         18
    54         64
    55        105
    56        443
    57        225
    58        697
    59         31
    60         11
    63         19
    65          9
    67         18
    68         54
    69         75
    70        999
    71        425
    72        136
    73         27
    75         34
    76          8
    77         21
    78         31
    79         10
    80         17
    81         21
    82         88
    83        143
    84        182
    85        169
    86         43
    87         22
    88          8
    89         13
    94         12
    95         26
    96         84
    97        180
    98        155
    99        118
   100        172
   101         57
   102         20
   106         18
   109         27
   110         27
   111        157
   112         49
   113        317
   114         48
   115         26
   119          7
   121         11
   123         24
   124         35
   125         57
   126         39
   127        212
   128         30
   129         12
   132         11
   135         20
   136         26
   137         31
   138         31
   139        125
   140        118
   141         32
   142          9
   145         19
   146         18
   147         13
   148         14
   149         20
   150         20
   151         20
   152         21
   153         22
   154         21
   155         95
   156         17
   159         67
   161         58
   162         19
   163         30
   164         46
   165         16
   166         25
   167         13
   168          8
   169          7
   172         13
   173         15
   174         21
   175         13
   176         14
   177         18
   178         16
   179         17
   182          8
   183         14
   187          7
   188         16
   189         13
   190         16
   191         11
   195         17
   196         11
   200         11
   201         12
   202         15
   204         10
   210          7
   212          8
   213         14
   214         15
   215         15
   216         36
   217         30
   218         30
   219         24
   220          7
   221          8
   228          7
   229         15
   230         19
   231         27
   232         19
   233         11
   238         12
   239          8
   240         21
   241         19
   242         10
   243         21
   244         38
   245         76
   246         38
   247         28
   255         11
   257         22
   258         16
   259         37
   260         11
   261         15
   265         14
   267          8
   269         16
   270          9
   271         17
   273         15
   274         14
   275         16
   276         10
   280         13
   281         36
   282         11
   283         17
   287          9
   303         18
   304         30
   305         16
   306         13
   338         24
   339         29
   340         23
   341         18
   342         13
   354         10
   355         10
   373         15
   374         21
   375         20
   376         30
   377         14
   378         18
   387         12
   388         23
   389         35
   390         46
   391         54
   392         36
   393         37
   394         15
   395         12
   401         22
   402         15
   403         40
   404         83
   405         42
   406         70
   407         22
   408         25
   415         29
   416         28
   417         70
   418         34
   419         53
   420         19
   421         17
   424         25
   425         16
   426         62
   427         26
   428         50
   429         21
   430         26
   431         15
   432         13
   433          9
   447         32
   448         14
   449         32
   450         11
   451         11
   460         89
   461         29
   462         86
   463         24
   464         29
   473         14
   474         10
   475         16
   476         10
   530          5