##TITLE=Library Entry 54134
##JCAMP-DX=Revision 4.10 
##DATA TYPE=MASS SPECTRUM
##SAMPLE DESCRIPTION=Div. of Experiment Therapeutics WRAIR, WRAMC, Washingto
n DC 20307
##NAMES=HP
##CAS NAME=7-Chloro-1,3,4,10-tetrahydro-10-hydroxy-1-[[3-[1-pyrrolidinyl]pro
pyl]imino]-3-[4-(trifluoromethyl)phenyl]-9(2H)-acridinone
##MOLFORM=C27H27ClF3N3O2
##CAS REGISTRY NO=80108-15-2
##MP= -300
##BP= -300
##MW= 517
##$RETENTION INDEX=0
##$CONDENSED SPECTRUM=NO
##NPOINTS= 232
##XYDATA=(XY..XY) 1 
    41        109
    42        196
    43        103
    44         33
    45          9
    47         12
    49         58
    50         11
    51         32
    52         10
    53         13
    54         28
    55        111
    56         56
    57         39
    58         10
    59         23
    63         12
    65         11
    67         20
    68         38
    69         56
    70         94
    71         42
    72          9
    75         16
    76          6
    77         28
    78         51
    79          9
    80         12
    81         16
    82         51
    83        272
    84        999
    85         75
    86         63
    87         30
    88          9
    94         18
    95         13
    96         95
    97         52
    98        408
    99         39
   100          6
   101          6
   102          7
   103          8
   106         24
   108          7
   109         22
   110        142
   111        139
   112         35
   113         13
   114          8
   115          8
   119          6
   123         12
   124         38
   125         65
   126         51
   127         29
   128         15
   129          9
   133          7
   136          9
   137          7
   138         10
   139         16
   140         14
   141          7
   145         23
   146         11
   149         12
   150          7
   151         24
   152         14
   153         25
   154         16
   155         13
   159         44
   160          7
   162          7
   163         15
   164         32
   165         10
   166         18
   167          9
   169          6
   171         14
   172         14
   173         18
   174          7
   176          7
   177          7
   178         11
   179         12
   182          7
   183          9
   188          8
   189          7
   190         15
   191          7
   195          9
   196          6
   199          7
   201          6
   202         10
   203         11
   204          6
   205          6
   211          7
   212          7
   213          8
   215          8
   216         19
   217         24
   218         19
   219         28
   220          6
   221          9
   228          7
   229          8
   230         11
   231         14
   232         13
   233          7
   234          7
   240         10
   241         11
   242          8
   243         11
   244         13
   245         59
   246         24
   247         22
   248          6
   249          8
   251         15
   255          7
   256          6
   257         15
   258         10
   259         35
   260          8
   261         10
   269          9
   270         10
   271         13
   272          6
   273          9
   280         23
   281         20
   282         10
   283          9
   284          6
   285          8
   290          6
   297          6
   304         12
   305          8
   306          8
   308          6
   309          7
   310          6
   338         11
   339          9
   340          6
   348          8
   353          7
   354          7
   355          8
   356          8
   357          8
   360         11
   361          6
   362         10
   369         13
   370         21
   371          8
   372         14
   373         21
   374         40
   375         18
   376         19
   377          6
   383          7
   387         24
   388         21
   389         32
   390         31
   391         66
   392         22
   393         20
   399          6
   401         31
   402         26
   403         44
   404        185
   405         54
   406         62
   407         22
   415         16
   416          9
   417         45
   418         12
   419         13
   420          7
   424         40
   425         20
   426         46
   427         17
   428         19
   429         16
   430         21
   431          7
   432          6
   442         12
   446         15
   482          8
   499         16
   500         14
   501         60
   502         20
   503         18
   516          9
   517         80
   518         27
   519         30
   520          8