##TITLE=Library Entry 15533
##JCAMP-DX=Revision 4.10 
##DATA TYPE=MASS SPECTRUM
##SAMPLE DESCRIPTION=Div. of Experiment Therapeutics WRAIR, WRAMC, Washingto
n DC 20307
##NAMES=HP
##CAS NAME=7-Chloro-1,3,4,10-tetrahydro-10-hydroxy-1-[[3-[[2-hydroxyethyl]am
ino]propylimino]-3-[4-(trifluoromethyl)phenyl]-9(2H)-acridinone
##MOLFORM=C25H25ClF3N3O3
##CAS REGISTRY NO=80108-21-0
##MP= -300
##BP= -300
##MW= 507
##$RETENTION INDEX=0
##$CONDENSED SPECTRUM=NO
##NPOINTS= 238
##XYDATA=(XY..XY) 1 
    41        622
    42        281
    43        332
    44        999
    45        175
    49         77
    50         33
    51         77
    52         53
    53         45
    54         86
    55         26
    56        788
    57        300
    58        138
    59         29
    60         41
    61         66
    62         53
    63         75
    65         43
    68        273
    69        146
    70        608
    71        114
    72        108
    74        525
    75         93
    76         37
    77         64
    78         35
    79         32
    80         48
    81         42
    82        106
    83        148
    84        135
    85        102
    86         89
    87        138
    88        185
    89         46
    90         33
    91         93
    92         35
    93         35
    94         44
    95         57
    96         51
    97        170
    98        122
    99        102
   100        109
   101         84
   102        124
   103         53
   106         46
   107         38
   108         37
   109         57
   110         72
   111        169
   112         77
   113         81
   114         63
   115         67
   116         37
   117         31
   119         42
   120         47
   121         30
   122         25
   123         38
   124         48
   125         93
   126        108
   127        180
   128        164
   129        131
   130         37
   132         26
   133         83
   135         30
   136         56
   137         61
   138         73
   139         70
   140         81
   141         49
   142         92
   143         37
   145        113
   146         69
   147         44
   148         33
   149         43
   151        122
   152         51
   153        152
   154         65
   155         70
   156         36
   159        112
   160         60
   161         40
   162         50
   163         82
   164         94
   165         56
   166         49
   167         41
   168         31
   169         40
   170         34
   171        107
   172         86
   173         72
   174         34
   175         50
   176         36
   177         81
   178         66
   179         45
   180         49
   181         40
   182         33
   183         46
   185         55
   186         36
   188         35
   189         28
   190         44
   191         42
   192         31
   193         35
   194         29
   195         44
   196         34
   199         52
   200         28
   201         28
   202         59
   203         35
   204         29
   208         28
   209         31
   210         27
   211         36
   212         55
   213         69
   214         36
   215         28
   216         69
   217         64
   218         63
   219        169
   220         29
   221         80
   228         31
   229         29
   230         76
   231         49
   232         47
   234         27
   240         35
   241         35
   244         40
   245        105
   246        110
   247         67
   248         29
   257         44
   258         36
   259         78
   260         25
   261         31
   262         25
   270         27
   271         30
   280         62
   281        131
   282         45
   283         55
   290         25
   298         25
   304         28
   338         27
   339         30
   348         38
   354         27
   355         36
   356         33
   357         41
   360         35
   362         41
   364         31
   370         29
   372         53
   373         91
   374        113
   375         61
   376         56
   387         36
   388         99
   389        120
   390        167
   391        359
   392        126
   393        116
   394         29
   401         88
   402         57
   403         96
   404        221
   405         81
   406         86
   407         51
   415         85
   416         45
   417        178
   418         59
   419         58
   423         27
   424        281
   425        119
   426        376
   427        121
   428        130
   429         37
   430         28
   440         27
   442         30
   443          5
   472         21
   473          3
   507         27
   508          4
   509          8