##TITLE=Library Entry 11774
##JCAMP-DX=Revision 4.10 
##DATA TYPE=MASS SPECTRUM
##SAMPLE DESCRIPTION=Chemical Concepts
##NAMES=HP
##CAS NAME=3-Buten-2-one, 4-(2,5,5-trimethyl-3,8-dioxatricyclo[5.1.0.0(2,4)]
oct-4-yl)-, [1.alpha.,2.alpha.,4.alpha.(E),7.alpha.]-
##MOLFORM=C13H18O3
##CAS REGISTRY NO=80114-19-8
##MP= -300
##BP= -300
##MW= 222
##$RETENTION INDEX=0
##$CONDENSED SPECTRUM=NO
##NPOINTS= 126
##XYDATA=(XY..XY) 1 
    26          8
    27         53
    28          8
    29         62
    31          7
    38          7
    39        111
    40         25
    41        175
    42         29
    43        999
    44         31
    45         21
    50          7
    51         25
    52         12
    53         67
    54         19
    55        148
    56         24
    57         39
    58          5
    59         11
    62          3
    63         12
    64          5
    65         36
    66         13
    67         66
    68         17
    69        121
    70         89
    71         31
    72          8
    73         11
    74         10
    75          3
    77         71
    78         14
    79         90
    80         20
    81         90
    82         26
    83        213
    84         25
    85         47
    86          3
    87          4
    89          3
    91         80
    92         17
    93         43
    94         46
    95         93
    96         27
    97        152
    98        481
    99         43
   100         11
   103          8
   104          3
   105         44
   106          6
   107        167
   108         47
   109         90
   110         15
   111         56
   112          9
   115          7
   116          3
   117          7
   118          2
   119         21
   120          5
   121         45
   122         23
   123        480
   124         65
   125        579
   126         95
   127         10
   128          4
   129          2
   131          4
   133         13
   134          3
   135         35
   136         37
   137         51
   138         13
   139         11
   140          5
   141          3
   142          8
   143          3
   145          4
   146          5
   147         20
   148          4
   149         10
   150          5
   151         19
   152          8
   153          3
   154          8
   155          3
   161         25
   162          8
   163         11
   164          8
   165         13
   166         15
   167          3
   177          2
   178          3
   179         50
   180         17
   181          3
   189          8
   193          2
   204          4
   205          2
   207          9
   222         11
   223          2