##TITLE=Library Entry 68854
##JCAMP-DX=Revision 4.10 
##DATA TYPE=MASS SPECTRUM
##SAMPLE DESCRIPTION=Chemical Concepts
##NAMES=HP
##CAS NAME=Ethanone, 1-(1a,2,3,5,6a,6b-hexahydro-3,3,6a-trimethyloxireno[g]b
enzofuran-5-yl)-
##MOLFORM=C13H18O3
##CAS REGISTRY NO=80114-25-6
##MP= -300
##BP= -300
##MW= 222
##$RETENTION INDEX=0
##$CONDENSED SPECTRUM=NO
##NPOINTS= 146
##XYDATA=(XY..XY) 1 
    26          2
    27         35
    28         11
    29         35
    31          4
    36          3
    37          1
    38          3
    39         67
    40         11
    41        147
    42          9
    43        302
    44          9
    45         10
    50          8
    51         25
    52         12
    53         45
    54          5
    55         93
    56          8
    57         18
    58          1
    59          8
    60          2
    62          2
    63         11
    64          3
    65         43
    66         13
    67         63
    68          5
    69        101
    70          6
    71          9
    73          2
    74          1
    75          2
    76          2
    77         79
    78         14
    79         70
    80         11
    81         61
    82          8
    83         67
    84          6
    85          6
    87          1
    89          3
    90          2
    91        102
    92         18
    93         58
    94         15
    95        999
    96         89
    97         72
    98          6
    99          1
   102          1
   103         11
   104          5
   105         64
   106         10
   107         89
   108         22
   109         68
   110          7
   111         62
   113          5
   114          1
   115          9
   116          4
   117         13
   118          7
   119         26
   120          7
   121         74
   122         26
   123        140
   124         21
   125          5
   126          1
   127          1
   128          3
   129          3
   130          1
   131          9
   132          3
   133         39
   134          6
   135         53
   136         42
   137         49
   138          6
   139          2
   140          0
   141          1
   142          1
   143          3
   144          1
   145          4
   146          8
   147          7
   148          2
   149          4
   150          1
   151         10
   152          1
   153          1
   154          1
   159          1
   160          1
   161         17
   162          4
   163         13
   164          4
   165          6
   166          4
   167          1
   168          0
   173          0
   175          0
   177          4
   178          5
   179        757
   180         98
   181          9
   182          1
   189          1
   191          1
   192          1
   193          2
   194          2
   195          2
   204          1
   205          1
   206          0
   207          5
   220          0
   221          0
   222          9
   223          3
   224          0