##TITLE=Library Entry 751
##JCAMP-DX=Revision 4.10 
##DATA TYPE=MASS SPECTRUM
##SAMPLE DESCRIPTION=Chemical Concepts
##NAMES=HP
##CAS NAME=4-Cyclohexene-1,2-dicarboxylic acid, 4-(2-methyl-2-propenyl)-, di
ethyl ester, cis-
##MOLFORM=C16H24O4
##CAS REGISTRY NO=80137-88-8
##MP= -300
##BP= -300
##MW= 280
##$RETENTION INDEX=0
##$CONDENSED SPECTRUM=NO
##NPOINTS= 171
##XYDATA=(XY..XY) 1 
    25          0
    26         24
    27        308
    28         29
    29        999
    30         23
    31         27
    33          0
    37          3
    38          8
    39        182
    40         14
    41        192
    42         11
    43         54
    44          9
    45         32
    46          3
    47         14
    48          0
    49          0
    50         11
    51         57
    52         28
    53         89
    54         13
    55        555
    56         59
    57         25
    58          3
    59          4
    60          1
    61          2
    62         16
    63         23
    64          7
    65         70
    66         19
    67         41
    68          7
    69         16
    70          3
    71          6
    72          1
    73         18
    74          5
    75          9
    76          4
    77        192
    78         85
    79        242
    80         25
    81         23
    82          6
    83          8
    84          4
    85          6
    86         10
    87          8
    88          8
    89         11
    90          8
    91        871
    92        107
    93        101
    94         14
    95         14
    96          3
    97          4
    98          1
    99         18
   100          3
   101         12
   102          4
   103         20
   104         17
   105        169
   106         53
   107         33
   108          3
   109          5
   110          3
   111          4
   112          1
   113          3
   114          3
   115         34
   116         18
   117        133
   118         36
   119         61
   120         10
   121          6
   122          7
   123         28
   124          5
   125          3
   126          2
   127          5
   128          6
   129          8
   130          7
   131         82
   132        339
   133        988
   134        118
   135         23
   136         13
   137          7
   138          0
   142          1
   143          4
   144          1
   145         10
   146          3
   147          4
   148          1
   149          7
   150          2
   151         22
   152         11
   153          4
   155          0
   158          1
   159         11
   160         15
   161         35
   162          6
   163         12
   164         47
   165          9
   166          1
   171          0
   172          0
   173          0
   176          1
   177         47
   178         19
   179         12
   180          2
   181          2
   182          3
   183          1
   184          0
   188          2
   189         23
   190          3
   191         18
   192          3
   193          0
   195          2
   196          4
   197          1
   198          1
   201          0
   202          1
   203          1
   204          2
   205         12
   206        328
   207         54
   208          6
   209          0
   233          0
   234         39
   235        157
   236         23
   237          2
   280         48
   281          8
   282          0