##TITLE=Library Entry 771
##JCAMP-DX=Revision 4.10 
##DATA TYPE=MASS SPECTRUM
##SAMPLE DESCRIPTION=Chemical Concepts
##NAMES=HP
##CAS NAME=Cyclohexene-4,5-dicarboxylic acid, 1-[4,5-bis(ethoxycarbonyl)-2-m
ethylene-1-pentyl]-
##MOLFORM=C24H36O8
##CAS REGISTRY NO=80137-90-2
##MP= -300
##BP= -300
##MW= 452
##$RETENTION INDEX=0
##$CONDENSED SPECTRUM=NO
##NPOINTS= 246
##XYDATA=(XY..XY) 1 
    26         15
    27         99
    28         24
    29        999
    30         19
    31         36
    39         18
    40          4
    41        102
    42         12
    43         69
    44         15
    45         40
    46          5
    47         18
    51          5
    53         44
    54          8
    55        163
    56          9
    57         17
    59          6
    60         24
    61         17
    65         27
    66         11
    67         69
    68         10
    69         27
    70          9
    71         17
    73         56
    74          8
    77         71
    78         32
    79        185
    80         26
    81         71
    82          9
    83         19
    84          5
    85         15
    86          7
    88         15
    89         26
    90          6
    91        415
    92         66
    93         84
    94         19
    95         44
    96          7
    97         18
    99         62
   100         28
   101         39
   102         19
   103         19
   104         17
   105        107
   106         20
   107         69
   108         18
   109         27
   110          7
   111         16
   112          6
   113         19
   114         11
   115         45
   116         46
   117        169
   118         45
   119         70
   120         12
   121         17
   122          7
   123         47
   124         10
   125          9
   127         27
   128        213
   129        175
   130         69
   131        264
   132         72
   133         40
   134          9
   135         30
   136         20
   137         12
   138         10
   139         12
   140          7
   141         67
   142        104
   143        431
   144        115
   145         85
   146         19
   147         16
   148          7
   149         12
   151         14
   152         11
   153         19
   154         10
   155         28
   156         21
   157        131
   158         54
   159         70
   160         20
   161         16
   162          7
   163         28
   164         26
   165         13
   167         43
   168         17
   169         67
   170         29
   171        116
   172         27
   173         28
   174        157
   175         41
   176         13
   177         30
   178          9
   179         16
   180          6
   181         19
   182         10
   183         19
   184         41
   185        169
   186         43
   187         70
   188         17
   189         25
   190         17
   191         29
   192         11
   193          7
   194          5
   195         11
   197         11
   198         16
   199         28
   200         11
   201         26
   202         19
   203         28
   204        115
   205         73
   206         21
   207          6
   211         12
   212         70
   213        293
   214         69
   215         41
   216         46
   217         68
   218         19
   219         25
   220         10
   223         25
   226          5
   227         11
   228          7
   229         24
   230         65
   231         64
   232         64
   233         26
   234         10
   239          5
   240         29
   241         55
   242         17
   243         16
   244         42
   245         46
   246         19
   247         19
   248          7
   257         43
   258        162
   259        270
   260         67
   261         12
   268         11
   269         14
   270          7
   271         19
   272         12
   273         15
   274         10
   275         12
   276         26
   277         11
   278         12
   279         10
   285         30
   286        259
   287        259
   288         41
   289         11
   290          7
   291         12
   292         13
   293          8
   303         19
   304         73
   305         73
   306         19
   307         12
   314         29
   315         30
   316          8
   317         16
   318          7
   320         14
   321         12
   322          5
   331         43
   332        285
   333        292
   334         47
   335          8
   351          6
   352          5
   353          5
   360         40
   361        174
   362         30
   363          7
   377         17
   378         28
   379         12
   406         72
   407        176
   408         44
   409          7