##TITLE=Library Entry 85948
##JCAMP-DX=Revision 4.10 
##DATA TYPE=MASS SPECTRUM
##SAMPLE DESCRIPTION=Institute of Organic Chemistry, Novosibirsk, USSR 1988
##NAMES=HP
##CAS NAME=1-Methyl-1,1-dichloro-4,4,4-trivinyldisilethylene
##MOLFORM=C9H16Cl2Si2
##CAS REGISTRY NO=80153-59-9
##MP= -300
##BP= -300
##MW= 250
##$RETENTION INDEX=0
##$CONDENSED SPECTRUM=NO
##NPOINTS= 24
##XYDATA=(XY..XY) 1 
    55          7
    57         28
    83        160
    84         19
    85          7
   109        999
   110        117
   111         50
   117         30
   119          8
   196         68
   197         31
   198         50
   199         14
   209         34
   210          4
   211         23
   212          2
   222         24
   223         19
   224         21
   225         10
   235          4
   237          2