##TITLE=Library Entry 65886
##JCAMP-DX=Revision 4.10 
##DATA TYPE=MASS SPECTRUM
##SAMPLE DESCRIPTION=Chemical Concepts
##NAMES=HP
##CAS NAME=3-Butenamide, 2-methyl-N-phenyl-
##MOLFORM=C11H13NO
##CAS REGISTRY NO=80188-12-1
##MP= -300
##BP= -300
##MW= 175
##$RETENTION INDEX=0
##$CONDENSED SPECTRUM=NO
##NPOINTS= 84
##XYDATA=(XY..XY) 1 
    25          9
    27        105
    29        123
    30          4
    34          3
    37          7
    38         26
    39        158
    40          8
    41         35
    42         10
    43          7
    45          3
    50         28
    51         92
    52         27
    53         47
    54         42
    55        494
    56         73
    57          4
    61          3
    62          4
    63         34
    64         38
    65        121
    66         61
    67          9
    68          6
    69          1
    70          3
    71          4
    73          2
    74          5
    75          7
    76          7
    77        308
    78         23
    79          5
    80          3
    81          4
    82         53
    83         49
    84          5
    85          3
    89          3
    90          4
    91         51
    92        171
    93        999
    94         89
    95          5
   103          5
   104          9
   105         13
   106         16
   109          2
   115          3
   116          5
   117         18
   118          8
   119        462
   120        373
   121         31
   128          3
   129          4
   130         12
   131          4
   132         37
   133          4
   143          2
   144          4
   146          8
   147          6
   149          3
   157          4
   158          4
   159          3
   160         41
   161          7
   174          5
   175        315
   176         46
   177          6