##TITLE=Library Entry 10578
##JCAMP-DX=Revision 4.10 
##DATA TYPE=MASS SPECTRUM
##SAMPLE DESCRIPTION=Japan AIST/NIMC Database- Spectrum MS-IW- 872
##NAMES=HP
##CAS NAME=2,6-Heptadien-1-ol, 2,4-dimethyl-
##MOLFORM=C9H16O
##CAS REGISTRY NO=80192-56-9
##MP= -300
##BP= -300
##MW= 140
##$RETENTION INDEX=0
##$CONDENSED SPECTRUM=NO
##NPOINTS= 67
##XYDATA=(XY..XY) 1 
    15          2
    18          1
    26          1
    27         23
    28          6
    29         37
    30          1
    31         11
    32          1
    38          2
    39         46
    40          7
    41        108
    42          8
    43        999
    44         25
    45          9
    50          2
    51          6
    52          2
    53         30
    54          5
    55         53
    56          4
    57         42
    58          7
    59          2
    63          2
    65         10
    66          4
    67         52
    68          8
    69         24
    70          3
    71         14
    72          1
    77         12
    78          2
    79         34
    80          9
    81         53
    82         14
    83          9
    84          2
    85          2
    91          9
    92          2
    93          8
    94          3
    95          7
    96          3
    97          7
    98          8
    99        292
   100         18
   101          1
   105          3
   107          9
   108          1
   109         30
   110          4
   111          3
   122          8
   123          9
   125          2
   138          5
   140          2