##TITLE=Library Entry 35115
##JCAMP-DX=Revision 4.10 
##DATA TYPE=MASS SPECTRUM
##SAMPLE DESCRIPTION=Japan AIST/NIMC Database- Spectrum MS-IW- 874
##NAMES=HP
##CAS NAME=1-Heptanol, 2,4-diethyl-
##MOLFORM=C11H24O
##CAS REGISTRY NO=80192-55-8
##MP= -300
##BP= -300
##MW= 172
##$RETENTION INDEX=0
##$CONDENSED SPECTRUM=NO
##NPOINTS= 91
##XYDATA=(XY..XY) 1 
    15          1
    18          1
    26          2
    27         48
    28          9
    29         90
    30          2
    31         37
    39         30
    40          5
    41        247
    42         70
    43        703
    44         25
    45         17
    50          1
    51          2
    52          1
    53         15
    54         10
    55        534
    56        170
    57        776
    58         36
    59         60
    60          2
    61          1
    65          3
    66          1
    67         24
    68         20
    69        999
    70        541
    71        363
    72         39
    73         37
    74          2
    77          3
    79          4
    80          1
    81         26
    82         14
    83        373
    84        250
    85        376
    86         32
    87         13
    88          1
    91          1
    93          1
    94          1
    95         21
    96          9
    97         60
    98        625
    99        174
   100         11
   101          5
   107          1
   109         10
   110         27
   111        265
   112         64
   113          9
   114          1
   115          2
   123         14
   124         24
   125        226
   126         32
   127          7
   128          2
   129         33
   130          3
   133          1
   137          7
   138          7
   139         19
   140          9
   141         15
   142          2
   143         24
   144          2
   145          3
   152          1
   153          3
   154         21
   155          8
   156          1
   170          1
   171          1