##TITLE=Library Entry 34832
##JCAMP-DX=Revision 4.10 
##DATA TYPE=MASS SPECTRUM
##SAMPLE DESCRIPTION=V. KADENTSEV,ZELINSKII INST. ORG. CHEM.,ACAD. SCI.,MOSC
OW,USSR
##NAMES=HP
##CAS NAME=Thieno[3,4-d]-1,3-dithiol-2-thione
##MOLFORM=C5H2S4
##CAS REGISTRY NO=80229-39-6
##MP= -300
##BP= -300
##MW= 190
##$RETENTION INDEX=0
##$CONDENSED SPECTRUM=NO
##NPOINTS= 29
##XYDATA=(XY..XY) 1 
    39         50
    43        110
    44        180
    45        990
    50         50
    55        100
    56         50
    57        200
    64        130
    68        130
    69        999
    70        210
    71         80
    76        270
    81        110
    82        110
    88        130
    89        120
    90         50
   100         50
   101        130
   114         70
   126         70
   146        270
   147         20
   148         40
   190        400
   191         50
   192         80