##TITLE=Library Entry 851
##JCAMP-DX=Revision 4.10 
##DATA TYPE=MASS SPECTRUM
##SAMPLE DESCRIPTION=Penn State Mass Spectrom.Center
##NAMES=HP
##CAS NAME=2,2'-Bi[1,3,5,2,4,6-triazatriphosphorinyl],2,2'-dibutyl-4,4,6,6,4
',4',6',6'-octachloro-
##MOLFORM=C8H18Cl8N6P6
##CAS REGISTRY NO=80241-40-3
##MP= -300
##BP= -300
##MW= 664
##$RETENTION INDEX=0
##$CONDENSED SPECTRUM=NO
##NPOINTS= 120
##XYDATA=(XY..XY) 1 
    27        151
    28        705
    29        999
    30         25
    31        156
    34          8
    35         75
    38         21
    39         79
    40         11
    41        743
    42         32
    43         19
    46         39
    53         11
    56        126
    57        669
    58         26
    71          3
    76          2
   101         10
   103          5
   111         25
   112          5
   113          3
   116          7
   117          2
   147         49
   149         29
   161         45
   163         27
   170         10
   171          2
   195          1
   197         10
   198          4
   206         76
   208         49
   229          5
   231         16
   232          9
   240        109
   241          3
   242        121
   244         47
   246          3
   255          5
   257          5
   261         10
   262         48
   263         18
   264         31
   265          7
   266          1
   275          1
   276        219
   278        279
   280        138
   281         29
   291         12
   293         13
   294          9
   296          9
   297         37
   298         38
   299         37
   300         33
   301         10
   302         11
   304          3
   306          1
   310          6
   312         11
   315         10
   333        692
   334        839
   335         81
   336        440
   338         91
   354        118
   355         12
   356        112
   358         32
   359          3
   427          4
   429          4
   447          1
   449          9
   451          7
   565          5
   568         10
   570         10
   571          7
   574          7
   575         10
   578          8
   607         15
   608         14
   609         44
   611         53
   612         41
   613         33
   614         30
   615         11
   616         10
   623          7
   624         27
   626         36
   628         21
   629         19
   631         38
   632         10
   633         35
   635         18
   637          9
   664         20
   666         59
   668         79
   670         41
   672         15