##TITLE=Library Entry 19005
##JCAMP-DX=Revision 4.10 
##DATA TYPE=MASS SPECTRUM
##SAMPLE DESCRIPTION=Chemical Concepts
##NAMES=HP
##CAS NAME=1-Decen-4-yne, 2-nitro-
##MOLFORM=C10H15NO2
##CAS REGISTRY NO=80255-22-7
##MP= -300
##BP= -300
##MW= 181
##$RETENTION INDEX=0
##$CONDENSED SPECTRUM=NO
##NPOINTS= 101
##XYDATA=(XY..XY) 1 
    25         15
    26         84
    27        334
    28        107
    29        362
    30        142
    31          9
    36          6
    37         30
    38         61
    39        505
    40        145
    41        705
    42         83
    43        204
    44         16
    45          4
    46          6
    47          2
    48          2
    49         14
    50        135
    51        351
    52        210
    53        207
    54        100
    55        999
    56         84
    57         69
    58          8
    59          2
    60          3
    61         12
    62         37
    63        125
    64         61
    65        196
    66         84
    67        225
    68         46
    69         90
    70         33
    71         32
    72          5
    73          7
    74         34
    75         35
    76         38
    77        495
    78        272
    79        398
    80         55
    81        103
    82         22
    83        389
    84         40
    85          5
    86          6
    87          8
    88          3
    89         32
    90         15
    91        501
    92        114
    93        126
    94         29
    95         92
    96         20
    97         11
    98         18
    99          9
   100          1
   101          3
   102          7
   103         50
   104         23
   105        234
   106         68
   107         32
   108         14
   109         24
   110         20
   111        198
   112         28
   113          4
   114          3
   115         18
   116          7
   117         26
   118          9
   119         93
   120         17
   121         11
   122          7
   123          4
   124          6
   125         22
   126          5
   133         17
   134         40
   135          9