##TITLE=Library Entry 60266
##JCAMP-DX=Revision 4.10 
##DATA TYPE=MASS SPECTRUM
##SAMPLE DESCRIPTION=Chemical Concepts
##NAMES=HP
##CAS NAME=Cyclohexene, 1-(2-nitro-2-propenyl)-
##MOLFORM=C9H13NO2
##CAS REGISTRY NO=80255-20-5
##MP= -300
##BP= -300
##MW= 167
##$RETENTION INDEX=0
##$CONDENSED SPECTRUM=NO
##NPOINTS= 106
##XYDATA=(XY..XY) 1 
    26         12
    27        155
    28         42
    29         96
    30         40
    31          8
    37          5
    38         18
    39        285
    40         63
    41        760
    42         45
    43        155
    44         17
    45          9
    46          6
    50         38
    51        123
    52         77
    53        271
    54         61
    55        440
    56         25
    57         47
    58         36
    59         13
    60          5
    62         14
    63         57
    64         16
    65        202
    66         79
    67        630
    68         51
    69        221
    70         22
    71         42
    72          6
    73         11
    74          9
    75         12
    76          9
    77        528
    78        162
    79        779
    80        119
    81        654
    82         64
    83         27
    84         11
    85         18
    86          4
    87          5
    89         16
    90         10
    91        999
    92        473
    93        278
    94         71
    95        172
    96         51
    97        196
    98         25
    99          4
   102          8
   103         66
   104         50
   105        286
   106         48
   107         36
   108         15
   109         48
   110         42
   111         23
   112          7
   113         11
   115         41
   116         13
   117         79
   118         19
   119        156
   120        490
   121         80
   122         26
   123         11
   124          4
   125          4
   128          4
   130          7
   131          8
   132         29
   133         10
   134          6
   135          5
   136         12
   137        247
   138         71
   139         11
   141          4
   148          7
   149         13
   150         47
   151          8
   166          6
   167         32
   168          5