##TITLE=Library Entry 52206
##JCAMP-DX=Revision 4.10 
##DATA TYPE=MASS SPECTRUM
##SAMPLE DESCRIPTION=Chemical Concepts
##NAMES=HP
##CAS NAME=Cyclohexane, (2-nitro-2-propenyl)-
##MOLFORM=C9H15NO2
##CAS REGISTRY NO=80255-17-0
##MP= -300
##BP= -300
##MW= 169
##$RETENTION INDEX=0
##$CONDENSED SPECTRUM=NO
##NPOINTS= 135
##XYDATA=(XY..XY) 1 
    26          2
    27         32
    28          6
    29         35
    30         11
    31          1
    37          3
    38          2
    39         65
    40         17
    41        228
    42         12
    43         29
    44          2
    45          1
    46          1
    47          0
    48          1
    50          3
    51         11
    52          7
    53         36
    54         19
    55        536
    56         27
    57         10
    58          2
    59          1
    60          0
    61          0
    62          1
    63          3
    64          1
    65         14
    66          7
    67         55
    68          6
    69         18
    70          3
    71          3
    72          0
    73          3
    74          0
    75          1
    76          1
    77         30
    78          6
    79         51
    80          9
    81        115
    82         15
    83        999
    84         68
    85          3
    86          0
    87         11
    88          1
    89          3
    90          0
    91         14
    92          3
    93         21
    94          5
    95          8
    96          3
    97          8
    98          1
    99         45
   100          3
   101          0
   102          0
   103          1
   104          1
   105          4
   106          2
   107          3
   108          1
   109          2
   110          1
   111          1
   112          1
   113          0
   114          0
   115          2
   116          0
   117          1
   118          0
   119          2
   120          1
   121         11
   122          3
   123          5
   124          1
   125          1
   126          1
   127          1
   128          1
   129          1
   130          0
   131          0
   132          0
   133          0
   134          2
   135          1
   136          0
   137          0
   138          0
   139          1
   140          1
   141          2
   142          0
   143          1
   144          0
   145          0
   147          0
   151          0
   152          7
   153          1
   154          0
   155          1
   156          0
   157          0
   158          0
   159          0
   161          0
   162          0
   163          0
   164          0
   165          1
   166          0
   167          1
   168          1
   169          3
   170          1
   171          0