##TITLE=Library Entry 3621
##JCAMP-DX=Revision 4.10 
##DATA TYPE=MASS SPECTRUM
##SAMPLE DESCRIPTION=Chemical Concepts
##NAMES=HP
##CAS NAME=1,4-Nonadiene, 2-nitro-, (Z)-
##MOLFORM=C9H15NO2
##CAS REGISTRY NO=80255-19-2
##MP= -300
##BP= -300
##MW= 169
##$RETENTION INDEX=0
##$CONDENSED SPECTRUM=NO
##NPOINTS= 92
##XYDATA=(XY..XY) 1 
    25          5
    26         38
    27        267
    28         92
    29        260
    30         95
    31         12
    37         10
    38         36
    39        395
    40        109
    41        999
    42         90
    43        419
    44         23
    45         13
    46          6
    50         42
    51        108
    52         87
    53        269
    54        119
    55        649
    56         99
    57        259
    58         16
    59         11
    60          5
    62         10
    63         34
    64         12
    65        130
    66        272
    67        313
    68         62
    69        202
    70         28
    71        104
    72          9
    73         19
    74          7
    75         14
    76          9
    77        463
    78        106
    79        773
    80        274
    81        301
    82         46
    83         81
    84         23
    85         17
    86          6
    87          7
    89         21
    91        177
    92         39
    93        234
    94         56
    95         64
    96         30
    97         26
    98         17
    99        160
   100         17
   101          3
   102          3
   103          8
   104          4
   105         20
   106         10
   107         55
   108         12
   109         11
   110         18
   111          5
   112         26
   113          8
   121         13
   122        146
   123         21
   124          3
   126         10
   127          4
   139         14
   140          9
   141          2
   152         11
   153          2
   154          2
   169          2
   170          0