##TITLE=Library Entry 26964
##JCAMP-DX=Revision 4.10 
##DATA TYPE=MASS SPECTRUM
##SAMPLE DESCRIPTION=Chemical Concepts
##NAMES=HP
##CAS NAME=2-(2-Nitroallyl)-indole-1-carboxylic acid, t-butyl ester
##MOLFORM=C16H18N2O4
##CAS REGISTRY NO=80255-11-4
##MP= -300
##BP= -300
##MW= 302
##$RETENTION INDEX=0
##$CONDENSED SPECTRUM=NO
##NPOINTS= 190
##XYDATA=(XY..XY) 1 
    26          4
    27         35
    28         17
    29        134
    30          5
    31         16
    36          1
    37          2
    38          6
    39         62
    40         12
    41        237
    42         29
    43         38
    44         35
    45          6
    46          0
    49          1
    50         10
    51         23
    52          7
    53          8
    54          4
    55         31
    56         46
    57        999
    58         51
    59         11
    60          1
    61          1
    62          5
    63         20
    64          8
    65         12
    66          1
    67          4
    68          2
    69          6
    70          4
    71          6
    72          2
    73          1
    74          6
    75         11
    76         18
    77         44
    78         10
    79          3
    80          2
    81          3
    82          2
    83          5
    84          1
    85          3
    86          1
    87          5
    88          7
    89         20
    90         10
    91          8
    92          3
    93          5
    94          2
    95          3
    96          2
    97          3
    98          1
    99          1
   100          2
   101         17
   102         18
   103         18
   104         13
   105          7
   106          1
   107          1
   108          0
   109          1
   110          1
   111          2
   112          1
   113          4
   114          5
   115         18
   116         10
   117         17
   118          5
   119          4
   126         12
   127         48
   128         47
   129         43
   130         40
   131         11
   132         18
   133          3
   134          3
   135          1
   136          1
   137          1
   138          0
   139          2
   140          6
   141          8
   142          6
   143         10
   144          5
   145          5
   146          4
   152          6
   153         15
   154        157
   155        584
   156         99
   157         17
   158          6
   159          1
   160          3
   161          1
   162          2
   163          1
   164          0
   165          2
   166          1
   167          5
   168         13
   169          8
   170          7
   171          6
   172          9
   173          2
   174          3
   175          1
   176          1
   177          1
   178          2
   179          1
   180          2
   181          3
   182          3
   183         15
   184          5
   185         61
   186         13
   187          1
   188          2
   189          0
   190          1
   191          1
   192          0
   193          1
   194          1
   195          1
   196          2
   197          1
   198          2
   199        159
   200         36
   201          6
   202        131
   203         19
   212          1
   213          1
   214          0
   215          1
   216          3
   217          0
   218          1
   219          1
   220          0
   221          0
   222          0
   229         12
   230          2
   231          0
   232          1
   233          0
   234          1
   235          0
   241          1
   243          2
   244          1
   245          1
   246        174
   247         23
   248          4
   288          0
   302         94
   303         18
   304          3