##TITLE=Library Entry 57113
##JCAMP-DX=Revision 4.10 
##DATA TYPE=MASS SPECTRUM
##SAMPLE DESCRIPTION=J. FONT, DEP. QUIM. ORG., UNIV. AUTONOMA BARCELONA, SPA
IN
##NAMES=HP
##CAS NAME=2-(1E,3Z-E)-(5-Bromo-4-methyl-1,3-pentadienyl)-2-methyl-1,3-dioxo
lane
##MOLFORM=C10H15BrO2
##CAS REGISTRY NO=80283-28-9
##MP= -300
##BP= -300
##MW= 246
##$RETENTION INDEX=0
##$CONDENSED SPECTRUM=NO
##NPOINTS= 17
##XYDATA=(XY..XY) 1 
    39        100
    43        670
    79        210
    80        110
    81        110
    87        999
    88         50
    91         60
    93         70
    95         70
    99        110
   109        140
   110        100
   153        110
   167         30
   231         10
   233         10