##TITLE=Library Entry 46810
##JCAMP-DX=Revision 4.10 
##DATA TYPE=MASS SPECTRUM
##SAMPLE DESCRIPTION=Exported from NIST MS Search
##NAMES=HP
##CAS NAME=1,3-Butadiene, 2-(chloroethenyl)-
##MOLFORM=C6H7Cl
##CAS REGISTRY NO=80297-56-9
##MP= -300
##BP= -300
##MW= 114
##$RETENTION INDEX=0
##$CONDENSED SPECTRUM=NO
##NPOINTS= 66
##XYDATA=(XY..XY) 1 
    13          1
    14          4
    15         10
    25          4
    26         81
    27        325
    29          7
    34          2
    35         35
    36        216
    37         50
    38        219
    39        502
    40         21
    41         16
    42          2
    43          1
    47          2
    48          3
    49         38
    50        451
    51        700
    52        219
    53        125
    54         13
    55          7
    56          5
    57         10
    58          2
    60          5
    61         29
    62         27
    63         58
    64         10
    65         21
    66          3
    67          3
    72          3
    73         42
    74         55
    75         96
    76         47
    77        999
    78        447
    79        946
    80         72
    81         12
    82          1
    84          1
    85          3
    86          7
    87          5
    88          5
    89          1
    90          1
    91          1
    97          1
    99         18
   101          6
   111          1
   112          6
   113         39
   114        260
   115         30
   116         85
   117          5