##TITLE=Library Entry 14063
##JCAMP-DX=Revision 4.10 
##DATA TYPE=MASS SPECTRUM
##SAMPLE DESCRIPTION=TNO Volatile Compounds in Food - Chemical Concepts
##NAMES=HP
##CAS NAME=Ethanethioic acid, S-(pentachlorophenyl) ester
##MOLFORM=C8H3Cl5OS
##CAS REGISTRY NO=80304-12-7
##MP= -300
##BP= -300
##MW= 322
##$RETENTION INDEX=0
##$CONDENSED SPECTRUM=NO
##NPOINTS= 165
##XYDATA=(XY..XY) 1 
    35          6
    36         13
    37          3
    38          3
    39          2
    42         37
    43        999
    44          4
    45         16
    46          3
    47         12
    48          4
    49          1
    51          0
    58          6
    59          8
    60          9
    61          2
    64          5
    66          1
    67          1
    68         10
    69         12
    70          1
    71         15
    72          3
    75          2
    79         40
    80          6
    81          7
    83          3
    84          1
    85          0
    86          2
    87         13
    88          8
    89          3
    91          6
    92          6
    93          3
    94          1
    95         50
    96          4
    97         13
   102          1
   103         44
   104         11
   105         19
   106         12
   107         11
   108          7
   109          3
   111          2
   113          2
   115         15
   116          1
   117          9
   118         10
   119          4
   120          1
   121          3
   122         14
   123         23
   124          4
   125          0
   126          3
   127         16
   128          0
   129          7
   130         12
   131          4
   132          8
   133          0
   138          0
   139         49
   140         12
   141         23
   142         16
   143         18
   144         12
   145          5
   146          1
   150          2
   152          2
   153          1
   155          1
   158          0
   165         29
   166          1
   167         24
   168          1
   169         11
   174         43
   175          6
   176         27
   177         11
   178          4
   179          1
   180          2
   181          4
   183          0
   188          2
   199          0
   201          0
   203          4
   206          0
   209         22
   210         12
   211         22
   212         24
   213         10
   214          8
   215          2
   216          4
   223          1
   225          0
   226          2
   235         12
   237         13
   238          0
   239          8
   243          1
   244         95
   245         33
   246        124
   247         50
   248         70
   249         26
   250         13
   251          8
   252          5
   254          1
   256          2
   258          1
   259          0
   260          1
   261          0
   262          2
   266          0
   267          0
   274          0
   279         14
   280         74
   281         40
   282        106
   283         26
   284         82
   285          8
   286         27
   287         94
   288         12
   289        106
   290         12
   291         51
   292          7
   293         11
   294          2
   298          1
   303          0
   305          0
   314          0
   322          4
   324          7
   325          6
   328          3