##TITLE=Library Entry 87171
##JCAMP-DX=Revision 4.10 
##DATA TYPE=MASS SPECTRUM
##SAMPLE DESCRIPTION=ASES Database, Dalian Institute, P.R. China
##NAMES=HP
##CAS NAME=Phenyl 2,2-dimethyl-propane-thiosulfonate
##MOLFORM=C11H16O2S2
##CAS REGISTRY NO=80319-01-3
##MP= -300
##BP= -300
##MW= 244
##$RETENTION INDEX=0
##$CONDENSED SPECTRUM=NO
##NPOINTS= 12
##XYDATA=(XY..XY) 1 
    51         70
    55        221
    65        331
    69        109
    70         89
    71        951
   109        391
   110        999
   111         90
   244        159
   245         20
   246         20