##TITLE=Library Entry 27151
##JCAMP-DX=Revision 4.10 
##DATA TYPE=MASS SPECTRUM
##SAMPLE DESCRIPTION=ASES Database, Dalian Institute, P.R. China
##NAMES=HP
##CAS NAME=2,2-Dimethyl-propyl S-benzene-thiosulfinate
##MOLFORM=C11H16OS2
##CAS REGISTRY NO=80319-00-2
##MP= -300
##BP= -300
##MW= 228
##$RETENTION INDEX=0
##$CONDENSED SPECTRUM=NO
##NPOINTS= 22
##XYDATA=(XY..XY) 1 
    45        198
    47         98
    50        100
    51        393
    53        149
    55        162
    57        999
    69        279
    71        200
    77        450
    78        413
    87        129
    97        238
   103        322
   109         91
   110        100
   124        149
   125        528
   126        551
   180        620
   228         19
   229          9