##TITLE=Library Entry 39296
##JCAMP-DX=Revision 4.10 
##DATA TYPE=MASS SPECTRUM
##SAMPLE DESCRIPTION=ASES Database, Dalian Institute, P.R. China
##NAMES=HP
##CAS NAME=S-Phenyl 2,2-dimethyl-propane-thiosulfinate
##MOLFORM=C11H16OS2
##CAS REGISTRY NO=80318-99-6
##MP= -300
##BP= -300
##MW= 228
##$RETENTION INDEX=0
##$CONDENSED SPECTRUM=NO
##NPOINTS= 13
##XYDATA=(XY..XY) 1 
    45         90
    51         98
    55        248
    57        359
    65        328
    71        999
    78        380
   109        420
   110        119
   158        218
   228         49
   229          4
   230          4