##TITLE=Library Entry 60098
##JCAMP-DX=Revision 4.10 
##DATA TYPE=MASS SPECTRUM
##SAMPLE DESCRIPTION=Chemical Concepts
##NAMES=HP
##CAS NAME=2-Butanol, 1-benzyloxy-3-methyl-
##MOLFORM=C12H18O2
##CAS REGISTRY NO=80325-76-4
##MP= -300
##BP= -300
##MW= 194
##$RETENTION INDEX=0
##$CONDENSED SPECTRUM=NO
##NPOINTS= 89
##XYDATA=(XY..XY) 1 
    26          2
    27         31
    28          2
    29         24
    31         24
    38          4
    39         49
    40          5
    41         55
    42         15
    43         93
    44          9
    45         36
    50         10
    51         33
    52         10
    53          7
    54          2
    55        164
    56         10
    57         22
    58          3
    61          5
    62          4
    63         26
    64          9
    65        145
    66          8
    67          2
    68          1
    69         11
    70        130
    71         18
    72         16
    73        556
    74         29
    75          4
    76          5
    77         51
    78         16
    79         42
    80          4
    81          2
    82          1
    83          3
    84          7
    85          4
    86          5
    87          4
    89         36
    90         21
    91        999
    92        484
    93         48
    94          3
    97          2
    99          2
   103         90
   104         11
   105         27
   106          5
   107        117
   108         22
   109          3
   111          2
   112          2
   115          3
   117          2
   119          3
   120          3
   121         52
   122         90
   123          9
   129          2
   131          2
   133          3
   134          2
   136          2
   139          1
   145          2
   151          5
   161          2
   175          2
   176          3
   178          2
   179          2
   194         73
   195         10
   196          4