##TITLE=Library Entry 2822
##JCAMP-DX=Revision 4.10 
##DATA TYPE=MASS SPECTRUM
##SAMPLE DESCRIPTION=LAC, NIDDK, NIH, Bethesda, MD 20892
##NAMES=HP
##CAS NAME=.alpha.-n-Butyl malanohydroxamic acid
##MOLFORM=C7H14N2O4
##CAS REGISTRY NO=80324-46-5
##MP= -300
##BP= -300
##MW= 190
##$RETENTION INDEX=0
##$CONDENSED SPECTRUM=NO
##NPOINTS= 88
##XYDATA=(XY..XY) 1 
    41        999
    42        244
    43        693
    44        212
    45         67
    46         55
    50          6
    51         20
    53         88
    55        996
    56        142
    57        251
    58         33
    59         23
    60        180
    62          9
    63          3
    65         10
    67         70
    69        868
    70        206
    71        109
    72         73
    73         61
    74         49
    75         40
    76         13
    77          8
    78         10
    79         10
    80         16
    81         37
    82         23
    83         38
    84         77
    85         35
    86         45
    87         23
    88        326
    89         28
    91          3
    94         14
    95         16
    97        152
    98         29
    99         66
   101        185
   102        293
   103         37
   104         17
   105          4
   106          6
   109          8
   110          3
   111          5
   112         40
   113          8
   114         59
   115          9
   116         16
   118         11
   119          8
   122          3
   123          8
   125        458
   126         31
   128         15
   130        155
   131          7
   132          7
   134        168
   135          4
   139         20
   140          7
   142         20
   143         44
   149          7
   157          5
   158        392
   159         29
   160          5
   172          3
   173          2
   175          5
   176         10
   189          6
   190         94
   191          7