##TITLE=Library Entry 18254
##JCAMP-DX=Revision 4.10 
##DATA TYPE=MASS SPECTRUM
##SAMPLE DESCRIPTION=H.HILPERT,ORG. CHEM. INST.,UNIV. ZURICH-IRCHEL, ZURICH,
 SWITZ.
##NAMES=HP
##CAS NAME=1,2-Bis[(Z)-(2'-nitrophenyl)-onn-azoxy]benzene
##MOLFORM=C18H12N6O6
##CAS REGISTRY NO=80337-05-9
##MP= -300
##BP= -300
##MW= 408
##$RETENTION INDEX=0
##$CONDENSED SPECTRUM=NO
##NPOINTS= 206
##XYDATA=(XY..XY) 1 
    36          7
    37         48
    38         96
    39        690
    40         49
    41         22
    42         15
    43         14
    44        112
    45         18
    46         17
    47          5
    48          4
    49         21
    50        341
    51        999
    52        269
    53        236
    54         22
    55         24
    56          4
    57         11
    60          3
    61         18
    62         54
    63        392
    64        667
    65        150
    66         79
    67         31
    68         21
    69         10
    70          7
    71          9
    73          9
    74         64
    75        101
    76        384
    77        265
    78        743
    79         90
    80         76
    81         11
    82          8
    83          7
    84          3
    85          4
    86          5
    87         13
    88         24
    89         43
    90        127
    91         74
    92        605
    93        196
    94        254
    95         29
    96          4
    97          4
    98          5
    99          8
   100          8
   101         21
   102         44
   103         34
   104         74
   105         46
   106        778
   107         79
   108         29
   109          7
   113         24
   114         38
   115         56
   116         29
   117         11
   118         23
   119         27
   120         36
   121         46
   122        196
   123         25
   124          4
   125          7
   126         32
   127         76
   128         67
   129         34
   130         15
   131          6
   132          9
   134         92
   135          9
   136        121
   137         27
   138         82
   139        153
   140        118
   141         51
   142         20
   143         14
   144          8
   145          6
   146          5
   147          8
   148         14
   149          4
   150        702
   151         87
   152         55
   153         45
   154         37
   155         30
   156         20
   157         11
   158          5
   164         17
   165         33
   166        583
   167        138
   168        145
   169         75
   170         58
   171         14
   178          3
   179        142
   180         41
   181         21
   182        147
   183         33
   184         15
   185          7
   186          6
   187          4
   193          7
   194         42
   195         65
   196        183
   197         92
   198         25
   199          5
   205          5
   206          3
   207          3
   208         10
   209          4
   210         42
   211         34
   212         26
   213         11
   214          7
   215          4
   216          3
   218          5
   219          5
   220          4
   221         10
   222         18
   223          3
   224          8
   225         11
   226          5
   227          8
   228          7
   229          6
   230          4
   231          7
   232          6
   233          4
   240        314
   241        216
   242         53
   243         33
   244         12
   245          4
   254         10
   255          7
   256        991
   257        329
   258         70
   259         47
   260          8
   270        358
   271         76
   272        195
   273         31
   274          4
   286         20
   287          7
   288          3
   312         15
   318          4
   345          3
   350          4
   351          6
   362        135
   363         41
   364          7
   376         19
   377          4
   378          6
   379          3
   391         45
   393          8
   408          4
   409          5