##TITLE=Library Entry 49472
##JCAMP-DX=Revision 4.10 
##DATA TYPE=MASS SPECTRUM
##SAMPLE DESCRIPTION=Chemical Concepts
##NAMES=HP
##CAS NAME=Cyclobutane, 1,2-bis(1,3-butadienyl)-
##MOLFORM=C12H16
##CAS REGISTRY NO=80344-53-2
##MP= -300
##BP= -300
##MW= 160
##$RETENTION INDEX=0
##$CONDENSED SPECTRUM=NO
##NPOINTS= 103
##XYDATA=(XY..XY) 1 
    25          1
    26         12
    27        150
    28         18
    29         17
    30          0
    32          2
    33          0
    34          0
    35          0
    36          0
    37          3
    38         16
    39        230
    40         29
    41        146
    42          5
    43          0
    44          0
    45          0
    48          0
    49          1
    50         35
    51         94
    52         70
    53         79
    54         19
    55          6
    56          0
    57          1
    58          1
    59          0
    61          2
    62         10
    63         38
    64         10
    65        101
    66         22
    67         32
    68          4
    69          1
    70          1
    71          1
    72          0
    73          1
    74          7
    75         11
    76          7
    77        189
    78        106
    79        657
    80        999
    81         66
    82         15
    83          0
    85          0
    86          1
    87          2
    88          1
    89          9
    90          2
    91        156
    92         26
    93         16
    94          7
    95          0
    98          0
    99          0
   100          0
   101          1
   102          6
   103         20
   104         26
   105         26
   106         92
   107          7
   108          0
   109          0
   111          0
   113          0
   114          1
   115         32
   116         12
   117         40
   118         18
   119         18
   120          1
   126          0
   127          4
   128         13
   129          8
   130          3
   131         27
   132         29
   133          2
   141          1
   142          0
   143          0
   145         13
   146          1
   159          1
   160         33
   161          3