##TITLE=Library Entry 54216
##JCAMP-DX=Revision 4.10 
##DATA TYPE=MASS SPECTRUM
##SAMPLE DESCRIPTION=M.L. MALNATI, LAB. RIC., C. ERBA FARM., MILAN, ITALY
##NAMES=HP
##CAS NAME=1-(4-Chlorophenyl)-2-phenyl-4-piperidino-5-hydroxy-4,5-dihydroimi
dazole
##MOLFORM=C20H22ClN3O
##CAS REGISTRY NO=80365-98-6
##MP= -300
##BP= -300
##MW= 355
##$RETENTION INDEX=0
##$CONDENSED SPECTRUM=NO
##NPOINTS= 170
##XYDATA=(XY..XY) 1 
    41        490
    42        590
    43        150
    44        110
    45         20
    47         80
    48         10
    49         70
    50        240
    51        320
    52         70
    53         60
    54        100
    55        370
    56        280
    57        150
    58         20
    59         10
    60         10
    61         50
    62         60
    63        130
    64         50
    65         90
    66         30
    67         70
    68        690
    69        340
    70         90
    71         20
    73         40
    74         90
    75        590
    76        260
    77        680
    78         70
    79         30
    80         30
    81         20
    82        180
    83         30
    84        999
    85        190
    86        160
    87         30
    88         30
    89        130
    90        160
    91         70
    92         50
    93         30
    94         20
    95         20
    96        160
    97        700
    98        130
    99         30
   100         30
   101         20
   102         50
   103        150
   104        290
   105         80
   106         20
   107         50
   108         20
   109         10
   110         10
   111        510
   112         80
   113        170
   114         20
   115         20
   116         60
   117        920
   118        120
   119         10
   121         10
   122         10
   123         20
   124         10
   125         20
   126         90
   127        140
   128         40
   129         60
   130         20
   131         10
   132         10
   133         60
   134         20
   135         20
   137         10
   138        100
   139         30
   140         80
   141         20
   142         20
   143         20
   144         30
   145         10
   149         30
   150         30
   151         90
   152         40
   153         20
   155         10
   156         10
   157         10
   158         10
   163         30
   165         20
   166         10
   167         10
   168         10
   169         10
   170         20
   171         30
   172         20
   177         50
   178         40
   179         40
   180         20
   192         20
   199        100
   200        250
   201        220
   202         40
   205         20
   206         10
   212         10
   213         10
   214        720
   215        120
   216        240
   217         40
   227         30
   228         20
   229         30
   230         40
   231         20
   232         10
   241         20
   242         50
   243         20
   244         20
   248         10
   253         10
   254         50
   255         50
   256         30
   257         20
   270        160
   271         40
   272         70
   273         20
   281         10
   282         20
   308         20
   326         40
   327         10
   328         10
   337         60
   338         30
   339         30
   340         10
   355        100
   356         40
   357         40
   358         10