##TITLE=Library Entry 54453
##JCAMP-DX=Revision 4.10 
##DATA TYPE=MASS SPECTRUM
##SAMPLE DESCRIPTION=M.L. MALNATI, LAB. RIC., C. ERBA FARM., MILAN, ITALY
##NAMES=HP
##CAS NAME=1-(4-Chlorophenyl)-2-phenyl-4-hydroxy-5-piperidino-4,5-dihydroimi
dazole
##MOLFORM=C20H22ClN3O
##CAS REGISTRY NO=80365-97-5
##MP= -300
##BP= -300
##MW= 355
##$RETENTION INDEX=0
##$CONDENSED SPECTRUM=NO
##NPOINTS= 220
##XYDATA=(XY..XY) 1 
    41        370
    42        250
    43        100
    44        170
    45        100
    50         90
    51        140
    52         50
    53         40
    54         70
    55        190
    56        270
    57        110
    58         30
    61         10
    62         20
    63         60
    64         20
    65         40
    66         20
    67         60
    68        110
    69        180
    70         90
    71         40
    72         20
    73         20
    74         40
    75        330
    76        110
    77        380
    78         70
    79         20
    80         20
    81         40
    82        110
    83        130
    84        999
    85        100
    86        380
    87         30
    88         20
    89         70
    90         50
    91         50
    92         30
    93         30
    94         70
    95         40
    96         40
    97        140
    98        280
    99         50
   100        120
   101         50
   102         70
   103         70
   104        560
   105         80
   106         30
   107         20
   108         10
   109         20
   110         20
   111        420
   112         50
   113        140
   114         50
   115         40
   116         80
   117        150
   118         30
   119         10
   121         10
   122         10
   123         40
   124         40
   125         70
   126         50
   127        160
   128        100
   129         90
   130        160
   131         40
   132         20
   133        140
   134         20
   135         10
   137         30
   138        130
   139         30
   140         70
   141         40
   142         30
   143         50
   144         40
   145         40
   146         10
   149         40
   150        110
   151        100
   152         60
   153         50
   154         20
   155         20
   156         30
   157         40
   158         40
   159         20
   160         10
   162         10
   163         30
   164        270
   165         80
   166        100
   167         30
   168         40
   169         20
   170         20
   171         20
   172         50
   173         30
   176         10
   177         40
   178         40
   179         40
   180         20
   181         10
   185         10
   187         10
   188         10
   190         20
   191         40
   192         40
   193        310
   194         80
   195        100
   196         30
   197         10
   198         10
   199         20
   200         10
   201         50
   205         20
   206         20
   207         20
   208         10
   211         10
   212         30
   213         10
   214        210
   215         50
   216         70
   217         20
   218         40
   219         20
   220         30
   221        280
   222        140
   223        600
   224        140
   225        220
   226         40
   227         40
   229         40
   230         70
   231         50
   232         30
   233         40
   235        110
   236         20
   237         40
   241         20
   242         10
   243         10
   244         10
   246         10
   247         40
   248         30
   249         30
   250         30
   251         10
   252         10
   253         50
   254         20
   255         40
   256         20
   257         10
   260         30
   262         10
   268         10
   269         10
   270         10
   271         20
   272         10
   278         30
   280         20
   281         20
   282         20
   283         10
   284         10
   295         20
   296         10
   297         10
   309         20
   310         10
   311         40
   312         10
   313         10
   317         10
   326         20
   336         40
   337        490
   338        130
   339        190
   340         40
   355        190
   356         60
   357         70
   358         20