##TITLE=Library Entry 67804
##JCAMP-DX=Revision 4.10 
##DATA TYPE=MASS SPECTRUM
##SAMPLE DESCRIPTION=Chemical Concepts
##NAMES=HP
##CAS NAME=Nona-3,5-dien-2-one
##MOLFORM=C9H14O
##CAS REGISTRY NO=80387-31-1
##MP= -300
##BP= -300
##MW= 138
##$RETENTION INDEX=0
##$CONDENSED SPECTRUM=NO
##NPOINTS= 73
##XYDATA=(XY..XY) 1 
    26         12
    27        107
    28          9
    29         56
    31          5
    37          4
    38         16
    39        146
    40         35
    41        133
    42         27
    43        473
    44         25
    45         14
    50         19
    51         44
    52         23
    53        158
    54         20
    55        101
    56          9
    57         17
    58          6
    59          7
    60          7
    62          7
    63         20
    64          6
    65         57
    66         63
    67        134
    68         26
    69         19
    70          5
    71         36
    72         11
    73         21
    74          4
    75          3
    77         59
    78         14
    79         66
    80         18
    81        320
    82         43
    83         15
    84          6
    85          5
    89          2
    91         26
    92          4
    93         29
    94         16
    95        999
    96         83
    97         21
    98         16
    99         30
   100         16
   101          4
   103          3
   105         12
   107          7
   108          5
   109         36
   110          5
   121          5
   123         98
   124         11
   125          3
   137         15
   138        176
   139         24