##TITLE=Library Entry 90074
##JCAMP-DX=Revision 4.10 
##DATA TYPE=MASS SPECTRUM
##SAMPLE DESCRIPTION=Chemical Concepts
##NAMES=HP
##CAS NAME=4,7-Methano-3aH-indene-3a-carboxylic acid, octahydro-, (3a.alpha.
,4.beta.,7.beta.,7a.alpha.)-
##MOLFORM=C11H16O2
##CAS REGISTRY NO=80394-98-5
##MP= -300
##BP= -300
##MW= 180
##$RETENTION INDEX=0
##$CONDENSED SPECTRUM=NO
##NPOINTS= 106
##XYDATA=(XY..XY) 1 
    26          5
    27         59
    28          7
    29         37
    38          6
    39        121
    40         26
    41        163
    42         17
    43         37
    44          6
    45         23
    50         11
    51         37
    52         19
    53         67
    54         25
    55         66
    56          8
    57         18
    59          5
    62          5
    63         16
    64          8
    65         67
    66         97
    67        455
    68        148
    69         41
    70          6
    71          7
    73         17
    74          5
    75          7
    76          5
    77        102
    78         38
    79        161
    80        123
    81        108
    82         21
    83         17
    84          7
    85         11
    86         13
    87          7
    89          5
    90          5
    91        108
    92         31
    93        171
    94         37
    95        126
    96         23
    97         14
    99          6
   103         11
   104          8
   105         41
   106         33
   107         76
   108         54
   109         15
   110         11
   111         30
   112         25
   113        999
   114         98
   115         19
   116          5
   117          8
   118          6
   119         20
   120         50
   121         23
   122          5
   123         12
   124         29
   125          9
   126         25
   127          5
   128          5
   129          4
   131          5
   133         16
   134        139
   135        397
   136         48
   137         33
   138         39
   139         39
   140          6
   141          5
   144          6
   147          6
   151         11
   152         16
   153          5
   161          5
   162         80
   163         13
   164          5
   165          8
   180        126
   181         20
   182          8