##TITLE=Library Entry 18827
##JCAMP-DX=Revision 4.10 
##DATA TYPE=MASS SPECTRUM
##SAMPLE DESCRIPTION=J.S. THRASHER, DEP. CHEM., ALABAMA UNIV., ALABAMA, USA
##NAMES=HP
##CAS NAME=Acrylamidosulfur pentafluoride
##MOLFORM=C3H4F5NOS
##CAS REGISTRY NO=80409-43-4
##MP= -300
##BP= -300
##MW= 197
##$RETENTION INDEX=0
##$CONDENSED SPECTRUM=NO
##NPOINTS= 16
##XYDATA=(XY..XY) 1 
    19        500
    26        116
    27        652
    43        125
    44         49
    55        999
    56         43
    70         29
    89        101
    91          6
   104         20
   121          9
   127        177
   129          9
   170          6
   197         22