##TITLE=Library Entry 66341
##JCAMP-DX=Revision 4.10 
##DATA TYPE=MASS SPECTRUM
##SAMPLE DESCRIPTION=Chemical Concepts
##NAMES=HP
##CAS NAME=Pyridine, 2-undecyl-
##MOLFORM=C16H27N
##CAS REGISTRY NO=80401-50-9
##MP= -300
##BP= -300
##MW= 233
##$RETENTION INDEX=0
##$CONDENSED SPECTRUM=NO
##NPOINTS= 109
##XYDATA=(XY..XY) 1 
    27         68
    28        106
    29         96
    30          1
    31          1
    38          1
    39         59
    41        122
    42         18
    43         91
    47          1
    48          0
    50          5
    51         18
    52         16
    53         18
    54          7
    55         25
    56          5
    57         15
    59          0
    60          0
    62          1
    63          5
    64          4
    65         34
    66         21
    67          8
    68          1
    69          4
    70          1
    71          0
    74          1
    76          2
    77          9
    78         37
    79         29
    80         10
    81          3
    83          1
    84          0
    85          0
    89          0
    90          1
    91          9
    92         33
    93        999
    94         78
    95          2
    96          1
    99          0
   100          0
   102          0
   103          0
   104          7
   105          4
   106        210
   107         61
   108          4
   109          0
   110          0
   111          0
   113          0
   116          0
   117         16
   118         24
   119         15
   120        117
   121         12
   122          1
   125          0
   128          0
   129          0
   130          5
   131          1
   132         10
   133          2
   134         29
   135          5
   136          0
   138          0
   139          0
   141          0
   143          0
   146          1
   148         28
   149          5
   152          0
   162         18
   163          0
   164          0
   167          0
   174          0
   176         12
   177          1
   183          1
   188          0
   190         15
   191          1
   194          0
   204          7
   205          1
   207          0
   218          2
   228          0
   231          0
   232          8
   233         22
   234          3