##TITLE=Library Entry 73474
##JCAMP-DX=Revision 4.10 
##DATA TYPE=MASS SPECTRUM
##SAMPLE DESCRIPTION=J.S. THRASHER, DEP. CHEM., ALABAMA UNIV., ALABAMA, USA
##NAMES=HP
##CAS NAME=(Tetrafluorosuccinimido)sulfur pentafluoride
##MOLFORM=C4F9NO2S
##CAS REGISTRY NO=80409-49-0
##MP= -300
##BP= -300
##MW= 297
##$RETENTION INDEX=0
##$CONDENSED SPECTRUM=NO
##NPOINTS= 19
##XYDATA=(XY..XY) 1 
    69         35
    70        121
    78         12
    81         37
    89         33
    92         18
   100        999
   101         32
   109         75
   119         73
   127        193
   129         11
   147          9
   150         56
   175          6
   222         12
   250          6
   269          6
   297          3