##TITLE=Library Entry 19233
##JCAMP-DX=Revision 4.10 
##DATA TYPE=MASS SPECTRUM
##SAMPLE DESCRIPTION=ASES Database, Dalian Institute, P.R. China
##NAMES=HP
##CAS NAME=Chloromethyl 11-chlorododecanoate
##MOLFORM=C13H24Cl2O2
##CAS REGISTRY NO=80419-07-4
##MP= -300
##BP= -300
##MW= 282
##$RETENTION INDEX=1909
##$CONDENSED SPECTRUM=NO
##NPOINTS= 49
##XYDATA=(XY..XY) 1 
    36        169
    39        149
    41        720
    42        189
    43        347
    49         59
    53         69
    54        141
    55        999
    56        189
    57        160
    67        240
    68        219
    69        470
    70        140
    71         70
    72        250
    73         40
    79         60
    81        198
    82        168
    83        398
    84        280
    85         99
    93         29
    94         40
    95        119
    96        260
    97        260
    98        398
    99         39
   108        300
   109         90
   110         50
   111        100
   112         69
   119         29
   121         79
   123         80
   124         40
   136         39
   137         49
   138        109
   139         19
   162         20
   163         40
   180         39
   181         80
   217         10