##TITLE=Library Entry 97882
##JCAMP-DX=Revision 4.10 
##DATA TYPE=MASS SPECTRUM
##SAMPLE DESCRIPTION=A.A.Kutin, Moscow, Russia
##NAMES=HP
##CAS NAME=Pyrimido[4,5-b]cyclopentathiophen-4(3H)-one, 4,5,6,7-tetrahydro-2
-methyl-3-phenyl-
##MOLFORM=C16H14N2OS
##CAS REGISTRY NO=80414-17-1
##MP= -300
##BP= -300
##MW= 282
##$RETENTION INDEX=0
##$CONDENSED SPECTRUM=NO
##NPOINTS= 134
##XYDATA=(XY..XY) 1 
    33          3
    34          0
    36          0
    37          0
    39         21
    40          6
    41          6
    42          9
    43         21
    44          4
    45         12
    47          2
    51         84
    52          7
    53          4
    54          1
    55          1
    56          0
    58          6
    59          3
    60          1
    61          1
    62          1
    63          5
    64          4
    65         13
    66          6
    67          2
    69          6
    71          9
    73          1
    74          2
    77        392
    78         22
    79          2
    80          1
    81          1
    82          2
    83          1
    84          2
    85          1
    86          0
    87          0
    88          0
    89          1
    90          2
    91          4
    92          5
    93         17
    94          2
    95          1
    96          2
    97          3
    98          1
    99          0
   100          0
   102          2
   103          3
   104          6
   105          2
   106          1
   108          5
   109          6
   110          3
   111          1
   112          0
   113          0
   114          1
   118        999
   119         68
   120          4
   121          2
   122          1
   123          0
   124          0
   125          0
   126          0
   127          1
   128          0
   129          0
   130          0
   131          0
   132          1
   133          0
   134          0
   136          8
   137          3
   138          2
   139          1
   140          0
   141          0
   145          0
   146          0
   148          0
   149          0
   150          1
   152          0
   154          0
   161          0
   162          1
   165         37
   166          7
   167          2
   168          0
   171          0
   178          0
   179          0
   180          0
   183         59
   184          5
   185          2
   186          0
   189          0
   190          1
   191          0
   205          0
   207          5
   208          3
   209          0
   210          0
   223          0
   225          0
   239          0
   240          0
   241          0
   253          0
   255          0
   256          0
   258          0
   259          0
   267          0
   281          1
   282          1
   283          0