##TITLE=Library Entry 19617
##JCAMP-DX=Revision 4.10 
##DATA TYPE=MASS SPECTRUM
##SAMPLE DESCRIPTION=ASES Database, Dalian Institute, P.R. China
##NAMES=HP
##CAS NAME=Chloromethyl 2-chlorooctanoate
##MOLFORM=C9H16Cl2O2
##CAS REGISTRY NO=80418-64-0
##MP= -300
##BP= -300
##MW= 226
##$RETENTION INDEX=1406
##$CONDENSED SPECTRUM=NO
##NPOINTS= 49
##XYDATA=(XY..XY) 1 
    41        615
    43        992
    44         17
    49        141
    51        222
    53         98
    55        999
    56        137
    58         10
    67        231
    68         67
    69        138
    70        115
    71         68
    75         27
    76        117
    77         26
    78         26
    79         31
    81        102
    82        135
    83        176
    84         62
    85        136
    89         58
    91         38
    95        102
    97        398
    98        125
    99         62
   106        479
   107         33
   108        170
   118         75
   119         41
   121         44
   125        102
   131        116
   132         99
   133         38
   142        565
   143         34
   144        381
   146         68
   149         38
   160         68
   161         51
   163         27
   197         48