##TITLE=Library Entry 19068
##JCAMP-DX=Revision 4.10 
##DATA TYPE=MASS SPECTRUM
##SAMPLE DESCRIPTION=ASES Database, Dalian Institute, P.R. China
##NAMES=HP
##CAS NAME=Chloromethyl 5-chloroundecanoate
##MOLFORM=C12H22Cl2O2
##CAS REGISTRY NO=80418-91-3
##MP= -300
##BP= -300
##MW= 268
##$RETENTION INDEX=1768
##$CONDENSED SPECTRUM=NO
##NPOINTS= 44
##XYDATA=(XY..XY) 1 
    36         69
    39        158
    41        670
    42        251
    43        549
    49         49
    53        101
    54        248
    55        999
    56        231
    57        188
    67        370
    68        460
    69        527
    70        240
    71        179
    72         50
    73         39
    79        119
    81        328
    82        418
    83        381
    84        480
    85         89
    93         40
    95        261
    96        549
    97        401
    98        280
   108         49
   109        100
   110        110
   111        109
   119         70
   121         60
   122         99
   123        180
   124        449
   125         80
   137         79
   148         50
   149        149
   166        110
   167        199