##TITLE=Library Entry 20384
##JCAMP-DX=Revision 4.10 
##DATA TYPE=MASS SPECTRUM
##SAMPLE DESCRIPTION=ASES Database, Dalian Institute, P.R. China
##NAMES=HP
##CAS NAME=Chloromethyl 8-chloro-octanoate
##MOLFORM=C9H16Cl2O2
##CAS REGISTRY NO=80418-70-8
##MP= -300
##BP= -300
##MW= 226
##$RETENTION INDEX=1545
##$CONDENSED SPECTRUM=NO
##NPOINTS= 44
##XYDATA=(XY..XY) 1 
    36         41
    38         23
    39        143
    41        464
    42        235
    43        334
    44         52
    49        153
    51         70
    53         88
    54         55
    55        999
    56        103
    57        131
    67        144
    68        127
    69        200
    70         45
    72        708
    73         66
    77         51
    79         65
    80         46
    81        141
    82        194
    83        236
    84        103
    85        197
    91         56
    93         47
    95         79
    96        290
    97        208
    98        188
   118         46
   119        116
   121        233
   123         75
   124        115
   125         46
   135         22
   161        462
   162         46
   163        145