##TITLE=Library Entry 84710
##JCAMP-DX=Revision 4.10 
##DATA TYPE=MASS SPECTRUM
##SAMPLE DESCRIPTION=ASES Database, Dalian Institute, P.R. China
##NAMES=HP
##CAS NAME=Chloromethyl 4-chloroheptanoate
##MOLFORM=C8H14Cl2O2
##CAS REGISTRY NO=80418-60-6
##MP= -300
##BP= -300
##MW= 212
##$RETENTION INDEX=1356
##$CONDENSED SPECTRUM=NO
##NPOINTS= 41
##XYDATA=(XY..XY) 1 
    36         20
    39        179
    41        463
    42        259
    43        340
    49        151
    51         49
    53         98
    54         39
    55        696
    56        110
    57        101
    67        150
    68        601
    69        478
    70         30
    71         19
    72        619
    74        210
    76         50
    77         29
    79         20
    81        100
    82        267
    83        380
    84         49
    85        151
    89         20
    93         19
    95         10
    97          9
   105        130
   107         40
   108        999
   109         99
   110        488
   111        349
   118         10
   121         19
   147        271
   149         90