##TITLE=Library Entry 21309
##JCAMP-DX=Revision 4.10 
##DATA TYPE=MASS SPECTRUM
##SAMPLE DESCRIPTION=ASES Database, Dalian Institute, P.R. China
##NAMES=HP
##CAS NAME=Chloromethyl 7-chloro-octanoate
##MOLFORM=C9H16Cl2O2
##CAS REGISTRY NO=80418-69-5
##MP= -300
##BP= -300
##MW= 226
##$RETENTION INDEX=1491
##$CONDENSED SPECTRUM=NO
##NPOINTS= 50
##XYDATA=(XY..XY) 1 
    41        574
    43        255
    51         54
    53         85
    54         94
    55        999
    56        176
    57         84
    67        310
    68         91
    69        175
    70         64
    71         16
    72        396
    73         33
    75         26
    77         40
    79         66
    80         27
    81        197
    82        509
    83        307
    84         86
    85         71
    91         20
    92         34
    95         81
    96        443
    97        173
    98         21
   107         33
   108        647
   109         56
   110        214
   118         33
   119         68
   121         75
   123         33
   124        211
   125        294
   126         40
   132         33
   135         41
   137          7
   148         33
   150          6
   161        171
   162          6
   163         51
   164          2