##TITLE=Library Entry 84782
##JCAMP-DX=Revision 4.10 
##DATA TYPE=MASS SPECTRUM
##SAMPLE DESCRIPTION=ASES Database, Dalian Institute, P.R. China
##NAMES=HP
##CAS NAME=Chloromethyl 4-chlorohexanoate
##MOLFORM=C7H12Cl2O2
##CAS REGISTRY NO=80418-55-9
##MP= -300
##BP= -300
##MW= 198
##$RETENTION INDEX=1258
##$CONDENSED SPECTRUM=NO
##NPOINTS= 39
##XYDATA=(XY..XY) 1 
    36         10
    39        138
    41        480
    42        259
    43        211
    49        190
    51         60
    54         19
    55        332
    56         71
    57         48
    63          9
    67         59
    68        268
    69        592
    70         59
    71        131
    72        532
    76         19
    77         39
    83          9
    85         70
    90         29
    91         99
    92         19
    93         39
    96         60
    97        448
    98         29
    99          9
   104         29
   105         30
   108        999
   110        339
   113         39
   121          9
   132         30
   133        399
   135        140