##TITLE=Library Entry 33501
##JCAMP-DX=Revision 4.10 
##DATA TYPE=MASS SPECTRUM
##SAMPLE DESCRIPTION=ASES Database, Dalian Institute, P.R. China
##NAMES=HP
##CAS NAME=Chloromethyl 5-chlorohexanoate
##MOLFORM=C7H12Cl2O2
##CAS REGISTRY NO=80418-56-0
##MP= -300
##BP= -300
##MW= 198
##$RETENTION INDEX=1270
##$CONDENSED SPECTRUM=NO
##NPOINTS= 37
##XYDATA=(XY..XY) 1 
    36         10
    39        158
    41        612
    42        248
    43        179
    49        200
    51         68
    54         29
    55        388
    56         50
    57         40
    63        149
    65         50
    67         90
    68        999
    69        828
    70        100
    71        331
    72         99
    76         19
    77         39
    83          9
    85         90
    91         20
    96        258
    97        579
    98         49
   104         10
   105         70
   108         69
   110         29
   113         10
   121        110
   132        150
   133        448
   134         60
   135        160