##TITLE=Library Entry 20600
##JCAMP-DX=Revision 4.10 
##DATA TYPE=MASS SPECTRUM
##SAMPLE DESCRIPTION=ASES Database, Dalian Institute, P.R. China
##NAMES=HP
##CAS NAME=Chloromethyl 3-chloro-octanoate
##MOLFORM=C9H16Cl2O2
##CAS REGISTRY NO=80418-65-1
##MP= -300
##BP= -300
##MW= 226
##$RETENTION INDEX=1425
##$CONDENSED SPECTRUM=NO
##NPOINTS= 50
##XYDATA=(XY..XY) 1 
    41        759
    43        567
    55        999
    56        388
    67        352
    69        258
    81        400
    82        997
    83        424
    84         68
    85         65
    89         75
    90         37
    91         69
    92         27
    93         76
    95        205
    96        859
    97        307
    98         52
    99         76
   103         55
   105         67
   106         40
   107         40
   108         67
   109         33
   118         99
   119         69
   120         34
   121         71
   123         86
   124        307
   125        826
   126         70
   131         54
   132         27
   133         27
   134         28
   135        101
   136         28
   137         33
   148         45
   150         34
   161        348
   162         37
   163        107
   191        359
   192         33
   193        116