##TITLE=Library Entry 19413
##JCAMP-DX=Revision 4.10 
##DATA TYPE=MASS SPECTRUM
##SAMPLE DESCRIPTION=ASES Database, Dalian Institute, P.R. China
##NAMES=HP
##CAS NAME=Chloromethyl 5-chlorodecanoate
##MOLFORM=C11H20Cl2O2
##CAS REGISTRY NO=80418-82-2
##MP= -300
##BP= -300
##MW= 254
##$RETENTION INDEX=1668
##$CONDENSED SPECTRUM=NO
##NPOINTS= 47
##XYDATA=(XY..XY) 1 
    36        119
    39        170
    41        780
    42        220
    43        551
    49        120
    53         99
    54        261
    55        999
    56        297
    57        220
    67        359
    68        557
    69        670
    70        179
    71        149
    72        119
    73         29
    79        109
    81        430
    82        289
    83        775
    84        140
    85         69
    93        229
    95        606
    96        350
    97        190
    98        188
   105         59
   106         10
   108        130
   109        180
   110        757
   111        198
   112         20
   118        100
   119         68
   121         99
   123        270
   124         99
   132         50
   134         79
   135        219
   152        298
   153        380
   189         89