##TITLE=Library Entry 3492
##JCAMP-DX=Revision 4.10 
##DATA TYPE=MASS SPECTRUM
##SAMPLE DESCRIPTION=ASES Database, Dalian Institute, P.R. China
##NAMES=HP
##CAS NAME=Chloromethyl 2-chlorohexanoate
##MOLFORM=C7H12Cl2O2
##CAS REGISTRY NO=80418-53-7
##MP= -300
##BP= -300
##MW= 198
##$RETENTION INDEX=1202
##$CONDENSED SPECTRUM=NO
##NPOINTS= 33
##XYDATA=(XY..XY) 1 
    36         29
    39        191
    41        999
    42        230
    43        420
    49        300
    51         99
    55        432
    56         20
    57        108
    63         40
    67         70
    68         20
    69        824
    70        109
    71         19
    76        151
    78         49
    83          9
    85         20
    97        168
    98         30
    99         10
   105         69
   106        438
   108        149
   132         39
   133         99
   134         19
   135         29
   142        539
   144        345
   146         60