##TITLE=Library Entry 33284
##JCAMP-DX=Revision 4.10 
##DATA TYPE=MASS SPECTRUM
##SAMPLE DESCRIPTION=ASES Database, Dalian Institute, P.R. China
##NAMES=HP
##CAS NAME=Chloromethyl 3-chloroheptanoate
##MOLFORM=C8H14Cl2O2
##CAS REGISTRY NO=80418-59-3
##MP= -300
##BP= -300
##MW= 212
##$RETENTION INDEX=1331
##$CONDENSED SPECTRUM=NO
##NPOINTS= 44
##XYDATA=(XY..XY) 1 
    36         29
    39         29
    41        862
    42        248
    43        299
    49        230
    51         78
    53        110
    54         50
    55        707
    56        119
    57        120
    67        199
    68        999
    69        518
    70         40
    71         20
    72         90
    76         19
    77         29
    79         30
    81        221
    82        530
    83        430
    84         49
    85        159
    89         39
    93         40
    95         20
    99         20
   105         30
   106         19
   107          9
   108         50
   109         90
   110        361
   111        411
   118         10
   121         19
   135         40
   147        210
   149         70
   177         99
   179         30