##TITLE=Library Entry 84623
##JCAMP-DX=Revision 4.10 
##DATA TYPE=MASS SPECTRUM
##SAMPLE DESCRIPTION=ASES Database, Dalian Institute, P.R. China
##NAMES=HP
##CAS NAME=Chloromethyl 6-chlorohexanoate
##MOLFORM=C7H12Cl2O2
##CAS REGISTRY NO=80418-57-1
##MP= -300
##BP= -300
##MW= 198
##$RETENTION INDEX=1332
##$CONDENSED SPECTRUM=NO
##NPOINTS= 35
##XYDATA=(XY..XY) 1 
    36         20
    39        148
    41        612
    42        259
    43        278
    49        190
    51         68
    54         39
    55        378
    56         40
    57         29
    63         50
    65         20
    67         69
    68        148
    69        540
    70         39
    71         89
    72        539
    77         19
    83          9
    85         50
    96         19
    97         70
   104         29
   105         30
   106          9
   107          9
   108        999
   110        339
   113          9
   121         59
   132         20
   133        377
   135        140