##TITLE=Library Entry 85071
##JCAMP-DX=Revision 4.10 
##DATA TYPE=MASS SPECTRUM
##SAMPLE DESCRIPTION=ASES Database, Dalian Institute, P.R. China
##NAMES=HP
##CAS NAME=Chloromethyl 4-chlorobutanoate
##MOLFORM=C5H8Cl2O2
##CAS REGISTRY NO=80418-49-1
##MP= -300
##BP= -300
##MW= 170
##$RETENTION INDEX=0
##$CONDENSED SPECTRUM=NO
##NPOINTS= 24
##XYDATA=(XY..XY) 1 
    36        149
    38         59
    39         71
    41        306
    42        110
    43         50
    49        222
    51         68
    55         91
    69         29
    70         10
    71         10
    72        278
    76          9
    77        190
    79         70
    85         10
    91          9
   104         19
   105        799
   106         49
   107        270
   108        999
   110        339