##TITLE=Library Entry 84724
##JCAMP-DX=Revision 4.10 
##DATA TYPE=MASS SPECTRUM
##SAMPLE DESCRIPTION=ASES Database, Dalian Institute, P.R. China
##NAMES=HP
##CAS NAME=Chloromethyl 4-chloropentanoate
##MOLFORM=C6H10Cl2O2
##CAS REGISTRY NO=80418-52-6
##MP= -300
##BP= -300
##MW= 184
##$RETENTION INDEX=1157
##$CONDENSED SPECTRUM=NO
##NPOINTS= 32
##XYDATA=(XY..XY) 1 
    39         71
    41         71
    42        151
    43        129
    49        180
    51         60
    53         50
    54         29
    55        678
    56        129
    57         39
    63        118
    65         49
    69          9
    71         19
    72        331
    77         39
    79         10
    82         39
    83        259
    84         20
    85         10
    90         49
    91         30
    92         19
    93         10
   108        999
   110        339
   118         70
   119        650
   120         49
   121        238