##TITLE=Library Entry 84714
##JCAMP-DX=Revision 4.10 
##DATA TYPE=MASS SPECTRUM
##SAMPLE DESCRIPTION=ASES Database, Dalian Institute, P.R. China
##NAMES=HP
##CAS NAME=Chloromethyl 9-chlorononanoate
##MOLFORM=C10H18Cl2O2
##CAS REGISTRY NO=80418-78-6
##MP= -300
##BP= -300
##MW= 240
##$RETENTION INDEX=1654
##$CONDENSED SPECTRUM=NO
##NPOINTS= 47
##XYDATA=(XY..XY) 1 
    36         38
    38         19
    39        119
    41        573
    42        228
    43        363
    49        117
    51         39
    53         50
    54         59
    55        882
    56        121
    57        159
    67        139
    68         79
    69        400
    70         59
    71         39
    72        597
    77         29
    79         40
    81        109
    82         29
    83        118
    84        201
    85        179
    93         29
    94         40
    95         69
    96        119
    97        218
    98        208
    99         20
   105         30
   108        999
   109         99
   110        348
   111        100
   119         10
   121        308
   131         20
   132         49
   135         39
   138         60
   139         20
   175        270
   177         90