##TITLE=Library Entry 69184
##JCAMP-DX=Revision 4.10 
##DATA TYPE=MASS SPECTRUM
##SAMPLE DESCRIPTION=ASES Database, Dalian Institute, P.R. China
##NAMES=HP
##CAS NAME=Chloromethyl 5-chlorononanoate
##MOLFORM=C10H18Cl2O2
##CAS REGISTRY NO=80418-74-2
##MP= -300
##BP= -300
##MW= 240
##$RETENTION INDEX=1562
##$CONDENSED SPECTRUM=NO
##NPOINTS= 47
##XYDATA=(XY..XY) 1 
    36         19
    38          9
    39         90
    41        419
    42        118
    43        177
    49         81
    51         29
    53         69
    54        170
    55        548
    56        118
    57         90
    67        211
    68        199
    69        258
    70         70
    71         79
    72         78
    76         10
    79         20
    81        298
    82         80
    83        110
    84        269
    85         30
    89         30
    93         39
    94        129
    95        198
    96        999
    97        289
    98         50
    99         30
   108         70
   109        109
   110        128
   111         29
   118         70
   119         29
   121        129
   132         30
   135         50
   138        377
   139        339
   175        109
   177         39