##TITLE=Library Entry 21048
##JCAMP-DX=Revision 4.10 
##DATA TYPE=MASS SPECTRUM
##SAMPLE DESCRIPTION=ASES Database, Dalian Institute, P.R. China
##NAMES=HP
##CAS NAME=Chloromethyl 7-chlorononanoate
##MOLFORM=C10H18Cl2O2
##CAS REGISTRY NO=80418-76-4
##MP= -300
##BP= -300
##MW= 240
##$RETENTION INDEX=1594
##$CONDENSED SPECTRUM=NO
##NPOINTS= 47
##XYDATA=(XY..XY) 1 
    36         49
    38         19
    39        108
    41        476
    42        159
    43        208
    49        101
    51         29
    53         60
    54        158
    55        999
    56        170
    57         89
    67        229
    68        128
    69        420
    70        108
    71         59
    72        378
    77         30
    79         89
    81        327
    82         90
    83        149
    84        280
    85        100
    93         50
    94        139
    95        199
    96        748
    97        419
    98         60
    99         19
   105         10
   106        160
   108        659
   109        160
   110        290
   111         30
   118         30
   119         49
   121        120
   135         29
   138        339
   139        370
   175        140
   177         49