##TITLE=Library Entry 20081
##JCAMP-DX=Revision 4.10 
##DATA TYPE=MASS SPECTRUM
##SAMPLE DESCRIPTION=ASES Database, Dalian Institute, P.R. China
##NAMES=HP
##CAS NAME=Chloromethyl 7-chlorodecanoate
##MOLFORM=C11H20Cl2O2
##CAS REGISTRY NO=80418-84-4
##MP= -300
##BP= -300
##MW= 254
##$RETENTION INDEX=1689
##$CONDENSED SPECTRUM=NO
##NPOINTS= 47
##XYDATA=(XY..XY) 1 
    36        111
    39        139
    41        622
    42        187
    43        279
    49         89
    53         80
    54        178
    55        999
    56        169
    57        129
    67        307
    68        291
    69        739
    70        160
    71         70
    72        337
    73         39
    79        110
    81        361
    82        189
    83        258
    84        567
    85        109
    93         59
    95        179
    96        361
    97        209
    98        140
   105         19
   106          9
   108         59
   109        179
   110        440
   111        260
   112         19
   118         40
   119         70
   121         79
   123        219
   124         79
   132          9
   134         60
   135        158
   152        249
   153        379
   189         79