##TITLE=Library Entry 84790
##JCAMP-DX=Revision 4.10 
##DATA TYPE=MASS SPECTRUM
##SAMPLE DESCRIPTION=ASES Database, Dalian Institute, P.R. China
##NAMES=HP
##CAS NAME=Chloromethyl 7-chloroheptanoate
##MOLFORM=C8H14Cl2O2
##CAS REGISTRY NO=80418-63-9
##MP= -300
##BP= -300
##MW= 212
##$RETENTION INDEX=1448
##$CONDENSED SPECTRUM=NO
##NPOINTS= 37
##XYDATA=(XY..XY) 1 
    36         28
    39        138
    41        480
    42        252
    43        312
    49        151
    51         49
    53         50
    54         29
    55         78
    56         99
    57        119
    67        101
    68        239
    69        207
    70         19
    72        589
    77         29
    79         30
    81         59
    82        119
    83        259
    84         80
    85         90
    93         10
    95         10
   105         79
   107         30
   108        999
   109         70
   110        400
   111         90
   118         20
   121         39
   135         19
   147        288
   149        100