##TITLE=Library Entry 21551
##JCAMP-DX=Revision 4.10 
##DATA TYPE=MASS SPECTRUM
##SAMPLE DESCRIPTION=ASES Database, Dalian Institute, P.R. China
##NAMES=HP
##CAS NAME=Chloromethyl 2-chloropentanoate
##MOLFORM=C6H10Cl2O2
##CAS REGISTRY NO=80418-50-4
##MP= -300
##BP= -300
##MW= 184
##$RETENTION INDEX=1108
##$CONDENSED SPECTRUM=NO
##NPOINTS= 33
##XYDATA=(XY..XY) 1 
    36          9
    39        100
    41         99
    42         20
    43         58
    49        227
    51         79
    53         50
    54         10
    55        999
    56         90
    57          9
    62         20
    63         50
    65         19
    71         10
    76        149
    78         50
    82         20
    83        160
    84         19
    85         10
    91        319
    93        108
    95         39
   106        529
   108        330
   110         49
   119        258
   121         89
   142        689
   144        430
   146         69