##TITLE=Library Entry 19482
##JCAMP-DX=Revision 4.10 
##DATA TYPE=MASS SPECTRUM
##SAMPLE DESCRIPTION=ASES Database, Dalian Institute, P.R. China
##NAMES=HP
##CAS NAME=Chloromethyl 11-chloroundecanoate
##MOLFORM=C12H22Cl2O2
##CAS REGISTRY NO=80418-97-9
##MP= -300
##BP= -300
##MW= 268
##$RETENTION INDEX=1859
##$CONDENSED SPECTRUM=NO
##NPOINTS= 40
##XYDATA=(XY..XY) 1 
    36         78
    39        171
    41        547
    42        201
    43        347
    49         50
    53         29
    54         78
    55        999
    56        150
    57        290
    67        138
    68         69
    69        379
    70         79
    71         50
    72        270
    73         40
    79         30
    81        130
    82         59
    83        199
    84        159
    85        208
    93         20
    95         59
    96         29
    97        140
    98        348
   108        428
   109         29
   111         70
   121        140
   123         39
   124          9
   125        300
   137         39
   148         10
   149         19
   203         70