##TITLE=Library Entry 19318
##JCAMP-DX=Revision 4.10 
##DATA TYPE=MASS SPECTRUM
##SAMPLE DESCRIPTION=ASES Database, Dalian Institute, P.R. China
##NAMES=HP
##CAS NAME=Chloromethyl 8-chlorododecanoate
##MOLFORM=C13H24Cl2O2
##CAS REGISTRY NO=80419-04-1
##MP= -300
##BP= -300
##MW= 282
##$RETENTION INDEX=1889
##$CONDENSED SPECTRUM=NO
##NPOINTS= 50
##XYDATA=(XY..XY) 1 
    36        118
    39        138
    41        652
    42        189
    43        297
    49         59
    53         69
    54        169
    55        999
    56        228
    57        139
    67        310
    68        268
    69        489
    70        140
    71         70
    72        168
    73         20
    79         90
    81        250
    82        179
    83        371
    84        340
    85         89
    93         49
    94         60
    95        189
    96        399
    97        310
    98        409
    99         60
   108        200
   109        100
   110         99
   111        100
   112         59
   119         60
   121         69
   123        109
   124         40
   136         89
   137         90
   138        209
   139         39
   162         50
   163         69
   180        100
   181        149
   182          9
   217         10