##TITLE=Library Entry 20083
##JCAMP-DX=Revision 4.10 
##DATA TYPE=MASS SPECTRUM
##SAMPLE DESCRIPTION=ASES Database, Dalian Institute, P.R. China
##NAMES=HP
##CAS NAME=Chloromethyl 8-chlorodecanoate
##MOLFORM=C11H20Cl2O2
##CAS REGISTRY NO=80418-85-5
##MP= -300
##BP= -300
##MW= 254
##$RETENTION INDEX=1704
##$CONDENSED SPECTRUM=NO
##NPOINTS= 46
##XYDATA=(XY..XY) 1 
    36         58
    39        131
    41        662
    42        202
    43        258
    49         98
    53         80
    54        140
    55        999
    56        198
    57        108
    67        240
    68        341
    69        741
    70        149
    71         70
    72        391
    73         30
    81        249
    82        130
    83        261
    84        508
    85        111
    95        169
    96        248
    97        130
    98        250
   105         30
   106         10
   108        630
   109        150
   110        329
   111        260
   112         30
   118         19
   119         49
   121        100
   123        199
   124         69
   132         30
   134         70
   135        139
   152        230
   153        310
   189         89
   191         29