##TITLE=Library Entry 19268
##JCAMP-DX=Revision 4.10 
##DATA TYPE=MASS SPECTRUM
##SAMPLE DESCRIPTION=ASES Database, Dalian Institute, P.R. China
##NAMES=HP
##CAS NAME=Chloromethyl 6-chloroundecanoate
##MOLFORM=C12H22Cl2O2
##CAS REGISTRY NO=80418-92-4
##MP= -300
##BP= -300
##MW= 268
##$RETENTION INDEX=1779
##$CONDENSED SPECTRUM=NO
##NPOINTS= 44
##XYDATA=(XY..XY) 1 
    36        128
    39        149
    41        697
    42        181
    43        390
    49        398
    53         99
    54        199
    55        999
    56        239
    57        151
    67        359
    68        310
    69        489
    70        148
    71         70
    72        160
    73         30
    79        100
    81        270
    82        329
    83        308
    84        340
    85         89
    93         39
    95        189
    96        320
    97        190
    98        240
   108        180
   109        100
   110         79
   111         90
   119         50
   121         50
   122         59
   123        109
   124        248
   125         40
   137         49
   148         19
   149        100
   166         60
   167        109