##TITLE=Library Entry 6739
##JCAMP-DX=Revision 4.10 
##DATA TYPE=MASS SPECTRUM
##SAMPLE DESCRIPTION=A.A.Kutin, Moscow, Russia
##NAMES=HP
##CAS NAME=Pyrimidin-4(3H)-one, 2-amino-6-hydroxy-5-nitro-
##MOLFORM=C4H4N4O4
##CAS REGISTRY NO=80466-56-4
##MP= -300
##BP= -300
##MW= 172
##$RETENTION INDEX=0
##$CONDENSED SPECTRUM=NO
##NPOINTS= 117
##XYDATA=(XY..XY) 1 
    33          1
    34          0
    35          3
    36          3
    38         39
    39         28
    40         45
    41        151
    42        389
    43        999
    44        418
    45         29
    46         99
    48          4
    49          0
    50          5
    51         10
    52         21
    53        106
    54        201
    55         41
    56         32
    57          8
    58          4
    59         10
    60          4
    61          0
    62          1
    63          3
    64          5
    65          8
    66         13
    67         22
    68         81
    69        401
    70        313
    71         40
    72          7
    73          0
    74          1
    75          1
    76          3
    77         15
    78          5
    79          2
    80          5
    81          6
    82          6
    83         29
    84         24
    85         15
    86         18
    87         29
    88          1
    90          0
    91          3
    92          1
    93          2
    94         20
    96         44
    97         11
    98          2
    99          2
   102          1
   103          1
   104          2
   105         17
   106          1
   107          1
   108          2
   109          2
   110          6
   112         75
   113         12
   114         88
   115          3
   116          0
   118          0
   119          2
   120          2
   122         10
   123          0
   124          1
   125          4
   126          4
   127          5
   128          5
   129         29
   130          2
   131          0
   134          2
   135          0
   136          2
   137          1
   138          5
   139         17
   140          6
   142        197
   143         10
   144          2
   146          0
   147          0
   148          0
   152          1
   153          2
   154          2
   155         13
   156          4
   157          1
   165          0
   168          6
   169          2
   170          8
   172        236
   173         14
   174          2
   176          2