##TITLE=Library Entry 48547
##JCAMP-DX=Revision 4.10 
##DATA TYPE=MASS SPECTRUM
##SAMPLE DESCRIPTION=T. CHIHARA, INST. PHYS. CHEM. RES., WAKO-SHI, SAITAMA,
 JAPAN
##NAMES=HP
##CAS NAME=4-(1-Hydroxyethyl)benzaldehyde
##MOLFORM=C9H10O2
##CAS REGISTRY NO=80463-21-4
##MP= -300
##BP= -300
##MW= 150
##$RETENTION INDEX=1291
##$CONDENSED SPECTRUM=NO
##NPOINTS= 63
##XYDATA=(XY..XY) 1 
    37         22
    38         41
    39        128
    40         14
    41         17
    42         10
    43        687
    44         24
    45         89
    49         14
    50        196
    51        363
    52         72
    53         57
    55         11
    61         15
    62         34
    63         64
    64          7
    65         36
    66          4
    67          7
    73         14
    74         70
    75         66
    76         65
    77        603
    78        119
    79        999
    80         63
    85          4
    86          5
    87          4
    89         16
    90          7
    91         41
    92          3
    93         10
   101          3
   102         13
   103         64
   104         32
   105        125
   106         41
   107        619
   108         66
   109          3
   119          3
   120          4
   121         35
   122          2
   123          1
   131         22
   132         14
   133         93
   134         13
   135        436
   136         33
   137          2
   148          8
   149         15
   150         10
   151          3