##TITLE=Library Entry 26805
##JCAMP-DX=Revision 4.10 
##DATA TYPE=MASS SPECTRUM
##SAMPLE DESCRIPTION=Robert B. Cody, JEOL USA, Inc.
##NAMES=HP
##CAS NAME=Fluticasone Propionate
##MOLFORM=C25H31F3O5S
##CAS REGISTRY NO=80474-14-2
##MP= -300
##BP= -300
##MW= 500
##$RETENTION INDEX=0
##$CONDENSED SPECTRUM=NO
##NPOINTS= 334
##XYDATA=(XY..XY) 1 
    27          8
    29        130
    33         25
    39          3
    41         34
    43         15
    45          1
    46          6
    47          4
    49          1
    53         19
    55         48
    56          1
    57        999
    58         31
    59          9
    61          2
    63          1
    65         12
    66          2
    67         25
    68          5
    69         26
    73          6
    75          4
    77         25
    78          5
    79         31
    80          5
    81         46
    82          5
    83          2
    85          4
    87          2
    88          2
    89          4
    91         48
    92          9
    93         40
    94          8
    95         29
    96         11
    97         20
    99         16
   100          1
   101          6
   102          2
   103          7
   105         36
   106         13
   107         67
   108         49
   109         72
   110         19
   111         29
   112          1
   113          8
   115         14
   116          5
   117          9
   118          6
   119         15
   120         11
   121        175
   122         36
   123         27
   124         11
   125         42
   126          6
   127         25
   128          7
   129         14
   130          3
   131         11
   132          5
   133         35
   134        172
   135        109
   136         14
   137         19
   138          6
   139        286
   140         92
   141         25
   142          7
   143          8
   144          7
   145         33
   146         13
   147         32
   148         10
   149         18
   150          6
   151         21
   152         18
   153         27
   154          7
   155         12
   156          5
   157         13
   158         10
   159         44
   160         13
   161         18
   162          9
   163         18
   164          6
   165         33
   166          8
   167          9
   168          3
   169         31
   170         11
   171         33
   172          9
   173         22
   174          7
   175         16
   176          7
   177         41
   178         19
   179         58
   180         11
   181         10
   182          7
   183         15
   184          7
   185         18
   186         10
   187         21
   188          7
   189         28
   190          8
   191         19
   192          6
   193         17
   194          4
   195         26
   196         14
   197         32
   198         10
   199         17
   200          6
   201         12
   202          6
   203         11
   204         10
   205         34
   206         19
   207         30
   208         10
   209         18
   210         10
   211         17
   212          6
   213         12
   214          4
   215          8
   216          6
   217          9
   218          9
   219          6
   220          4
   221         20
   222          8
   223         22
   224          9
   225         16
   226         20
   227         10
   228          5
   229          8
   230          3
   231          6
   232          4
   233          5
   234          5
   235         27
   236         16
   237         22
   238          7
   239         18
   240          9
   241         10
   242          5
   243          9
   244          4
   245          8
   246          5
   247          5
   248          3
   249         10
   250          5
   251         13
   252          4
   253         26
   254         11
   255         20
   256         11
   257         16
   258          5
   259         13
   260          7
   261          5
   262          5
   263          9
   264          7
   265         31
   266         10
   267         15
   268          4
   269          6
   270          3
   271          6
   272          5
   273          7
   274          8
   275         28
   276         10
   277         12
   278          4
   279          5
   280          4
   281          3
   282          5
   283         15
   284          9
   285         15
   286          6
   287          6
   288          1
   289          2
   290          1
   291          5
   292          7
   293         74
   294         33
   295         36
   296         10
   297          9
   298          3
   299          3
   300         12
   301          3
   302          3
   303          7
   304          3
   305          5
   306          1
   307          1
   309          3
   310          4
   311         71
   312         41
   313        122
   314         31
   315         15
   316          4
   317          3
   318          1
   319          1
   320          2
   321          8
   322          6
   323          5
   324          1
   325          3
   327          1
   329          3
   330          9
   331         32
   332         17
   333        132
   334         30
   335          6
   336          1
   338          1
   339          4
   340          5
   341         18
   342          5
   343          3
   344          1
   345          3
   346          1
   347         17
   348          5
   349          8
   350          9
   351        236
   352         57
   353         11
   358          5
   359          4
   360          6
   361         23
   362         10
   363          2
   365          1
   366          1
   367          3
   368          2
   369          8
   370          2
   378          6
   379         23
   380          7
   381          1
   383          1
   386          2
   387          4
   389          4
   395          1
   404          7
   405          1
   406          9
   407          8
   408          2
   411          1
   423          6
   424          3
   426          2
   434          6
   435        127
   436         36
   437          6
   444         12
   445          3
   462          3
   480         21
   481          7
   482          3
   483          1
   500          5