##TITLE=Library Entry 17739
##JCAMP-DX=Revision 4.10 
##DATA TYPE=MASS SPECTRUM
##SAMPLE DESCRIPTION=A.A.Kutin, Moscow, Russia
##NAMES=HP
##CAS NAME=6,7-Benzothiazoledione- 7-oxime
##MOLFORM=C7H4N2O2S
##CAS REGISTRY NO=80486-65-3
##MP= -300
##BP= -300
##MW= 180
##$RETENTION INDEX=0
##$CONDENSED SPECTRUM=NO
##NPOINTS= 94
##XYDATA=(XY..XY) 1 
    33         27
    34         11
    37        406
    38        353
    39        151
    40         88
    41         79
    42         28
    45        999
    47        109
    48         39
    49         96
    50        168
    51        349
    52        124
    53        132
    54         43
    55         62
    56         56
    57        121
    58         69
    61        211
    62        141
    63        110
    64        418
    66         27
    69        771
    70        160
    71         53
    72         16
    73         13
    75        118
    76        115
    77         55
    78        109
    79         64
    80         48
    81        200
    82        181
    83         55
    84         43
    85         40
    86         17
    87         15
    88         33
    89          9
    90         17
    93        380
    95        719
    96        117
    97         43
    98         15
   100          3
   101          5
   103          3
   104         17
   106        239
   108        279
   109         61
   110         34
   111         22
   112          8
   113          1
   115          2
   117          5
   118          6
   119          4
   122        295
   123         99
   124         38
   125          8
   126          3
   129          3
   131          2
   132          2
   135        292
   136         57
   137         28
   138          7
   139          4
   147          1
   150        201
   151        191
   152         29
   153         10
   163        953
   164         95
   165         50
   166         20
   180        988
   181         90
   182         44
   183          3
   184          1