##TITLE=Library Entry 30908
##JCAMP-DX=Revision 4.10 
##DATA TYPE=MASS SPECTRUM
##SAMPLE DESCRIPTION=Japan AIST/NIMC Database- Spectrum MS-NW-6149
##NAMES=HP
##CAS NAME=11-Acetamidooctadecanoic acid
##MOLFORM=C20H39NO3
##CAS REGISTRY NO=80509-30-4
##MP= -300
##BP= -300
##MW= 341
##$RETENTION INDEX=0
##$CONDENSED SPECTRUM=NO
##NPOINTS= 298
##XYDATA=(XY..XY) 1 
    14          2
    15         16
    16          2
    17         10
    18         44
    19          1
    26          5
    27         90
    28         56
    29        193
    30        270
    31         12
    32          1
    37          1
    38          3
    39         64
    40         16
    41        456
    42        109
    43        470
    44        191
    45         46
    46          3
    47          2
    50          2
    51          4
    52          4
    53         39
    54         56
    55        501
    56        345
    57        209
    58        176
    59         33
    60        999
    61         35
    62          4
    63          2
    64          1
    65          9
    66          7
    67        120
    68         54
    69        274
    70        136
    71         78
    72        129
    73        111
    74         19
    75          2
    76          3
    77          9
    78          7
    79         30
    80         13
    81        113
    82         60
    83        155
    84         81
    85         54
    86        264
    87         84
    88          6
    89          1
    91         12
    92          3
    93         19
    94         13
    95         86
    96         48
    97         95
    98         85
    99         40
   100        316
   101        102
   102          9
   103          2
   104          1
   105          6
   106          4
   107         13
   108          9
   109         45
   110         30
   111         45
   112         55
   113         23
   114        309
   115         68
   116          9
   117          3
   118          2
   119          6
   120          4
   121         13
   122          9
   123         29
   124         19
   125         24
   126         53
   127         22
   128        340
   129         71
   130         13
   131          4
   132          1
   133          8
   134          4
   135          9
   136          8
   137         20
   138         17
   139         14
   140         60
   141         20
   142        355
   143         65
   144         33
   145          5
   146          1
   147          5
   148          4
   149          8
   150          6
   151         13
   152         13
   153          9
   154         65
   155         29
   156        350
   157         68
   158         70
   159          9
   160          2
   161          5
   162          2
   163          5
   164          4
   165          9
   166          9
   167          9
   168         74
   169         31
   170        296
   171         62
   172        140
   173         18
   174          3
   175          4
   176          2
   177          4
   178          4
   179          7
   180          9
   181          8
   182         78
   183         30
   184        260
   185         60
   186        185
   187         26
   188          4
   189          3
   190          1
   191          3
   192          3
   193          6
   194          7
   195          7
   196         85
   197         28
   198        210
   199         49
   200        199
   201         29
   202          4
   203          2
   204          1
   205          2
   206          3
   207          6
   208          6
   209          6
   210         93
   211         26
   212        131
   213         33
   214        214
   215         37
   216          5
   217          1
   218          2
   219          2
   220          5
   221          7
   222          8
   223          6
   224         78
   225         23
   226         79
   227         23
   228        198
   229         39
   230          6
   231          2
   232          1
   233          1
   234          3
   235          6
   236          8
   237          5
   238         69
   239         19
   240         39
   241         12
   242        167
   243         31
   244          5
   245          2
   246          2
   247          2
   248          1
   249          3
   250          4
   251          4
   252         67
   253         21
   254         35
   255         10
   256        134
   257         29
   258          4
   259          1
   260          1
   261          1
   262          2
   263          5
   264         21
   265          8
   266         43
   267         13
   268         21
   269         13
   270        128
   271         29
   272          5
   273          1
   274          1
   275          1
   276          2
   277          2
   278          4
   279          3
   280         43
   281         13
   282        102
   283         25
   284         76
   285         20
   286          4
   287          1
   290          1
   291          1
   292          2
   293          2
   294         33
   295         11
   296          9
   297         19
   298         69
   299         18
   300          3
   301          1
   305          1
   306          1
   308          7
   309          2
   310          3
   311          2
   312         55
   313         19
   314          4
   321          1
   322          6
   323          4
   324          8
   325          2
   326         12
   327          6
   328          1
   337          1
   338          1
   339          7
   340          6
   341         89
   342         24
   343          5
   344          1