##TITLE=Library Entry 58236
##JCAMP-DX=Revision 4.10 
##DATA TYPE=MASS SPECTRUM
##SAMPLE DESCRIPTION=Institute of Chemistry, SAS, Bratislava, Slovakia
##NAMES=HP
##CAS NAME=Methyl-2,3-di-O-methyl-4-O-[(2,3-di-O-methyl.alpha.l-rhamnopyrano
syl)-4-O-(2,3,4-tri-O-methyl.alpha.l-rhamnopyranosyl)].alpha.l-rhamnopyranos
ide
##MOLFORM=C26H48O13
##CAS REGISTRY NO=80504-81-0
##MP= -300
##BP= -300
##MW= 568
##$RETENTION INDEX=0
##$CONDENSED SPECTRUM=NO
##NPOINTS= 29
##XYDATA=(XY..XY) 1 
    59          5
    72         15
    75        104
    85          5
    88        999
    99         13
   101         44
   115          8
   117          9
   124         42
   125         45
   129         16
   145         60
   157         97
   188         19
   189        416
   203         12
   205         11
   249        438
   259         25
   262         22
   275          9
   319        134
   323        170
   331         20
   363        214
   436          9
   537          3
   538          2