##TITLE=Library Entry 58235
##JCAMP-DX=Revision 4.10 
##DATA TYPE=MASS SPECTRUM
##SAMPLE DESCRIPTION=Institute of Chemistry, SAS, Bratislava, Slovakia
##NAMES=HP
##CAS NAME=Methyl-3,4-di-O-methyl-2-O-(2,3,4-tri-O-methyl.alpha.l-rhamnopyra
nosyl).alpha.l-rhamnopyranoside
##MOLFORM=C18H34O9
##CAS REGISTRY NO=80504-78-5
##MP= -300
##BP= -300
##MW= 394
##$RETENTION INDEX=0
##$CONDENSED SPECTRUM=NO
##NPOINTS= 24
##XYDATA=(XY..XY) 1 
    59         16
    72        116
    75         92
    85         13
    88        999
    97          9
    99         32
   101        110
   113         10
   117          5
   118          6
   125          6
   129         31
   131         10
   145         23
   157         35
   189        284
   203          9
   249        389
   259          6
   262         35
   275         33
   331          8
   349          5