##TITLE=Library Entry 107615
##JCAMP-DX=Revision 4.10 
##DATA TYPE=MASS SPECTRUM
##SAMPLE DESCRIPTION=NIST Mass Spectrometry Data Center, 2010
##NAMES=HP
##CAS NAME=4-Methoxyphenol, heptafluorobutyrate
##MOLFORM=C11H7F7O3
##CAS REGISTRY NO=80527-45-3
##MP= -300
##BP= -300
##MW= 320
##$RETENTION INDEX=1177
##$CONDENSED SPECTRUM=NO
##NPOINTS= 94
##XYDATA=(XY..XY) 1 
    15          2
    26          8
    27          2
    28          1
    29          2
    31          5
    37          2
    38          9
    39         15
    40          1
    41         42
    42          2
    43          1
    49          1
    50         16
    51         19
    52         37
    53         21
    54         29
    55          4
    61          3
    62         12
    63         40
    64         39
    65         31
    66          6
    67          8
    69        129
    70          2
    71          1
    73          1
    74          4
    75          8
    76          5
    77         41
    78          5
    79         17
    80         31
    81          5
    82         13
    83          1
    85          1
    91          1
    92         41
    93          4
    95        191
    96         13
    97          1
   100         24
   101          1
   107         73
   108         15
   109         10
   110          1
   114          1
   119         20
   120          1
   123        999
   124         80
   125          7
   126          1
   130          1
   131          2
   135          1
   145          1
   150          1
   151          2
   157          1
   163          1
   169         58
   170          5
   173          1
   175          1
   185          1
   187          1
   197          1
   200          2
   245         11
   246          1
   249          1
   253          6
   254          1
   257          1
   258          1
   273          7
   274          1
   277          1
   289          3
   301          2
   304          1
   317          1
   320        365
   321         47
   322          5