##TITLE=Library Entry 3217
##JCAMP-DX=Revision 4.10 
##DATA TYPE=MASS SPECTRUM
##SAMPLE DESCRIPTION=Chemical Concepts
##NAMES=HP
##CAS NAME=2-Bromo-3-methylbut-2-en-1-ol
##MOLFORM=C5H9BrO
##CAS REGISTRY NO=80555-61-9
##MP= -300
##BP= -300
##MW= 164
##$RETENTION INDEX=0
##$CONDENSED SPECTRUM=NO
##NPOINTS= 110
##XYDATA=(XY..XY) 1 
    25          3
    26         36
    27        295
    28         25
    29        358
    30          9
    31        118
    33          0
    34          1
    35          0
    36          2
    37         30
    38         67
    39        486
    40         64
    41        999
    42         59
    43        176
    44         16
    45         23
    46          1
    47          1
    48          1
    49         16
    50         83
    51        130
    52         39
    53        227
    54         29
    55        299
    56         32
    57        127
    58          6
    59          9
    60          2
    61          8
    62         10
    63         17
    64          3
    65        154
    66         35
    67        958
    68         65
    69         81
    70         15
    71         29
    72          2
    73          2
    74          1
    75          0
    76          0
    77          2
    78          2
    79         10
    80          9
    81         11
    82          8
    83         60
    84         14
    85        856
    86         45
    87          3
    88          1
    89          1
    91          1
    92          7
    93          9
    94          3
    95          7
    96          0
    97          1
    98          0
    99          0
   102          2
   103          1
   104          1
   105          6
   106          2
   107         14
   108          1
   109         10
   110          1
   111          4
   117          4
   119         12
   120          2
   121         10
   122          6
   123          2
   124          5
   130          2
   131          7
   132          2
   133          9
   134          1
   135          5
   136          1
   137          2
   146        266
   147         57
   148        261
   149         58
   150          5
   162          1
   163         13
   164        190
   165         22
   166        189
   167         10
   168          1