##TITLE=Library Entry 22820
##JCAMP-DX=Revision 4.10 
##DATA TYPE=MASS SPECTRUM
##SAMPLE DESCRIPTION=ASES Database, Dalian Institute, P.R. China
##NAMES=HP
##CAS NAME=Methyl 2-methyl-2-(methoxy-thiocyanato)amino-propanoate
##MOLFORM=C7H12N2O3S
##CAS REGISTRY NO=80552-74-5
##MP= -300
##BP= -300
##MW= 204
##$RETENTION INDEX=0
##$CONDENSED SPECTRUM=NO
##NPOINTS= 29
##XYDATA=(XY..XY) 1 
    29         97
    30         89
    41        164
    42        165
    43         74
    44         82
    45         80
    54         81
    55        105
    56        999
    57         88
    58         48
    59        373
    60         40
    69        115
    70         40
    72         82
    73        342
    74         41
    87        585
    88        402
   100         40
   101        147
   114         81
   115         41
   145        652
   146         80
   147         73
   204         81