##TITLE=Library Entry 109260
##JCAMP-DX=Revision 4.10 
##DATA TYPE=MASS SPECTRUM
##SAMPLE DESCRIPTION=NIST Mass Spectrometry Data Center, 1994
##NAMES=HP
##CAS NAME=3-Chloro-2-Methylbenzenesulphonyl chloride
##MOLFORM=C7H6Cl2O2S
##CAS REGISTRY NO=80563-86-6
##MP= -300
##BP= -300
##MW= 224
##$RETENTION INDEX=0
##$CONDENSED SPECTRUM=NO
##NPOINTS= 119
##XYDATA=(XY..XY) 1 
    15         15
    16         12
    17          2
    18         16
    26         30
    27         40
    28         12
    29         16
    31          4
    32         13
    35         31
    36         42
    37         51
    38         96
    39        289
    40         23
    41         10
    42          4
    43         43
    44          4
    45         94
    46          5
    47         19
    48        136
    49         44
    50        136
    51        171
    52         25
    53         10
    57          9
    58          6
    59          7
    60         24
    61         90
    62        232
    63        597
    64        178
    65        104
    66         10
    68          6
    69         59
    70          6
    71          9
    72         20
    73        139
    74         76
    75        121
    76         20
    77        114
    78         19
    79         10
    81         14
    82          9
    83         12
    84         17
    85         42
    86         68
    87         59
    88          9
    89        965
    90        171
    91         92
    92         12
    93         14
    95         23
    96          8
    97         32
    98          8
    99        231
   100         14
   101         78
   106          4
   107         13
   108         85
   109         41
   110         17
   111         19
   112         24
   113         12
   114          9
   120          5
   121         17
   122          7
   123         46
   124        452
   125        999
   126        253
   127        322
   128         37
   139          4
   140         32
   141         12
   142         17
   143         79
   144          7
   145         29
   153         18
   155         13
   158         10
   159         26
   160         13
   161         13
   162          5
   171        261
   172         28
   173        103
   174         14
   175          7
   189        380
   190         52
   191        146
   192         14
   193          8
   224        309
   225         32
   226        228
   227         22
   228         47
   229          5