##TITLE=Library Entry 19982
##JCAMP-DX=Revision 4.10 
##DATA TYPE=MASS SPECTRUM
##SAMPLE DESCRIPTION=Chemical Concepts
##NAMES=HP
##CAS NAME=2,3-Dibromo-3-methyl-butyric acid
##MOLFORM=C5H8Br2O2
##CAS REGISTRY NO=80573-34-8
##MP= -300
##BP= -300
##MW= 258
##$RETENTION INDEX=0
##$CONDENSED SPECTRUM=NO
##NPOINTS= 89
##XYDATA=(XY..XY) 1 
    26         30
    27        257
    28         83
    29        323
    30          7
    31         12
    36         23
    37         21
    38         73
    39        418
    40         46
    41        176
    42         45
    43        231
    44        189
    45         72
    49         14
    50         55
    51         69
    52         24
    53        255
    54         92
    55        999
    56         56
    57         59
    58          9
    59        424
    60         30
    65          7
    66         12
    67         26
    68         29
    69         40
    70         11
    71         57
    72          9
    73         10
    74          5
    75          3
    76          6
    77         10
    79         57
    80        131
    81         56
    82        185
    83        145
    84         14
    85        107
    86          5
    87          5
    91          9
    92          4
    93         10
    94          4
    95         14
    96          4
    97         10
    98         14
    99        243
   100        257
   101         17
   104          9
   105         11
   106          3
   107         12
   109         10
   113          4
   119         18
   120         25
   121         40
   122         27
   123         25
   133         19
   134        158
   135         89
   136        165
   137         73
   138         19
   140         15
   141          5
   160          5
   161          3
   162          5
   163          6
   178         15
   179        356
   180         42
   181        347
   182         23