##TITLE=Library Entry 73384
##JCAMP-DX=Revision 4.10 
##DATA TYPE=MASS SPECTRUM
##SAMPLE DESCRIPTION=NIST Mass Spectrometry Data Center
##NAMES=HP
##CAS NAME=Verbenyl ethyl ether
##MOLFORM=C12H20O
##CAS REGISTRY NO=80581-06-2
##MP= -300
##BP= -300
##MW= 180
##$RETENTION INDEX=1186
##$CONDENSED SPECTRUM=NO
##NPOINTS= 70
##XYDATA=(XY..XY) 1 
    27         56
    29         71
    31         29
    39        122
    41        283
    42         17
    45         30
    50         15
    51         50
    52         25
    53        103
    54         11
    55        164
    56         22
    57         50
    58         18
    59        181
    60          4
    64         12
    65        106
    66         20
    67         95
    69        156
    72         91
    73         16
    77        248
    78         80
    79        217
    80        157
    81        326
    83        107
    84         38
    85         14
    87        157
    88         15
    91        464
    92        153
    93        309
    94         57
    95        139
    96         45
    97         93
    99         12
   100        999
   101         63
   103         42
   104         18
   105        195
   106         48
   107        142
   108         34
   109        547
   110         51
   112         38
   113          6
   119        506
   120         50
   121        171
   122         25
   123         49
   124         12
   134         82
   137        433
   138         58
   151         13
   152          4
   165         66
   166         11
   179          3
   180          3