##TITLE=Library Entry 12225
##JCAMP-DX=Revision 4.10 
##DATA TYPE=MASS SPECTRUM
##SAMPLE DESCRIPTION=NIST Mass Spectrometry Data Center
##NAMES=HP
##CAS NAME=6-acetyl-2,2,4,4-tetramethylcyclohexane-1,3,5-trione
##MOLFORM=C12H16O4
##CAS REGISTRY NO=80597-59-7
##MP= -300
##BP= -300
##MW= 224
##$RETENTION INDEX=1369
##$CONDENSED SPECTRUM=NO
##NPOINTS= 124
##XYDATA=(XY..XY) 1 
    15          1
    27         62
    28         12
    29         52
    31         52
    37          3
    38         12
    39        169
    40         40
    41        509
    42        185
    43        999
    44         29
    45         18
    50          9
    51         41
    52         23
    53        118
    54         18
    55        204
    56          9
    57         35
    58         12
    59        409
    60          8
    61          3
    62          4
    63         15
    65         72
    66         20
    67        243
    68         81
    69        130
    70        179
    71        180
    72         19
    73          8
    74          7
    75          4
    76          3
    77        103
    78         22
    79         91
    80         14
    81        134
    82         16
    83        111
    84         28
    86          8
    87          5
    91         62
    93        178
    94         28
    95         91
    96        178
    97         29
    98          4
    99         12
   103          8
   105         29
   106          6
   107         69
   108         66
   109        347
   111        272
   112         38
   113         14
   115          7
   116          2
   119         31
   120         13
   121         90
   122         18
   123        167
   124         19
   125         42
   126         19
   127          5
   128          7
   130          3
   133          8
   135        125
   136         75
   137        221
   138         29
   139        658
   140         43
   141          5
   145          3
   147          5
   148          6
   149         19
   151         37
   152          8
   153         50
   154        188
   155         10
   157          1
   158          1
   159          1
   163         32
   164          4
   165         41
   166         63
   167         92
   168          7
   173          3
   175          1
   176          1
   177          2
   178          4
   179          4
   181        146
   182         20
   191         16
   193          3
   196         22
   205          1
   206          4
   208          3
   209        246
   210         31
   212          3
   224         39