##TITLE=Library Entry 32461
##JCAMP-DX=Revision 4.10 
##DATA TYPE=MASS SPECTRUM
##SAMPLE DESCRIPTION=O. VOSTROWSKY,INST. ORG. CHEM.,ERLANGEN-NUERNBERG UNIV.
,W.GER.
##NAMES=HP
##CAS NAME=1,E-8,Z-10-Tetradecatriene
##MOLFORM=C14H24
##CAS REGISTRY NO=80625-31-6
##MP= -300
##BP= -300
##MW= 192
##$RETENTION INDEX=0
##$CONDENSED SPECTRUM=NO
##NPOINTS= 80
##XYDATA=(XY..XY) 1 
    40         27
    41        503
    42         38
    43        100
    44          5
    50          5
    51         25
    52         17
    53        100
    54        240
    55        318
    56         17
    58          1
    63          5
    64          1
    65         83
    66         51
    67        999
    68        142
    69         60
    70          5
    71         41
    72          2
    75          1
    76          2
    77        116
    78         43
    79        350
    80        204
    81        491
    82        184
    83         40
    84          4
    85          6
    89          1
    91         79
    92         14
    93        165
    94         73
    95        196
    96        298
    97         34
    98          1
   103          3
   105          9
   106          4
   107         87
   108         35
   109        112
   110         40
   111          4
   117          2
   119          2
   120          4
   121         85
   122         33
   123         10
   124          8
   125          1
   133          0
   134         12
   135         72
   136         16
   137          5
   138         10
   139          1
   148         33
   149         64
   150         12
   151          2
   162          6
   163         16
   164          4
   176          1
   177          2
   178          0
   191         62
   192        171
   193         24
   194          1