##TITLE=Library Entry 32481
##JCAMP-DX=Revision 4.10 
##DATA TYPE=MASS SPECTRUM
##SAMPLE DESCRIPTION=O. VOSTROWSKY,INST. ORG. CHEM.,ERLANGEN-NUERNBERG UNIV.
,W.GER.
##NAMES=HP
##CAS NAME=1,E-8,Z-10-Tridecatriene
##MOLFORM=C13H22
##CAS REGISTRY NO=80625-30-5
##MP= -300
##BP= -300
##MW= 178
##$RETENTION INDEX=0
##$CONDENSED SPECTRUM=NO
##NPOINTS= 70
##XYDATA=(XY..XY) 1 
    40         38
    41        649
    42         39
    43         74
    44          2
    50          7
    51         34
    52         27
    53        183
    54        128
    55        421
    56         21
    57         11
    63          9
    64          3
    65         85
    66         74
    67        999
    68        253
    69         74
    70          5
    71         40
    72          2
    75          1
    77        157
    78         50
    79        425
    80        198
    81        432
    82        503
    83         54
    84          1
    89          1
    90          1
    91         79
    92         21
    93        234
    94         90
    95        459
    96        177
    97         20
   104          1
   105         12
   106          9
   107        131
   108         57
   109         49
   110         34
   111          4
   119          2
   121         73
   122         26
   123          8
   124         12
   133          0
   135         58
   136         12
   137          3
   147          0
   148         24
   149         64
   150         10
   151          0
   162          1
   163          4
   164          0
   177         93
   178        176
   179         23
   180          1