##TITLE=Library Entry 33604
##JCAMP-DX=Revision 4.10 
##DATA TYPE=MASS SPECTRUM
##SAMPLE DESCRIPTION=O. VOSTROWSKY,INST. ORG. CHEM.,ERLANGEN-NUERNBERG UNIV.
,W.GER.
##NAMES=HP
##CAS NAME=1,E-11,Z-13-Pentadecatriene
##MOLFORM=C15H26
##CAS REGISTRY NO=80625-34-9
##MP= -300
##BP= -300
##MW= 206
##$RETENTION INDEX=0
##$CONDENSED SPECTRUM=NO
##NPOINTS= 73
##XYDATA=(XY..XY) 1 
    40         23
    41        443
    42         55
    43         48
    44          4
    50          4
    51          9
    52          7
    53        162
    54         54
    55        260
    56         19
    57         20
    62          2
    63          4
    64          2
    65         37
    66         43
    67        333
    68        999
    69        119
    70          3
    76          2
    77         52
    78         19
    79        259
    80         87
    81        555
    82        189
    83         45
    84          5
    91         22
    92          6
    93         75
    94        112
    95        138
    96        103
    97         18
   105          4
   106          2
   107         38
   108         32
   109         50
   110         50
   111         11
   120          5
   121         50
   122         23
   123         17
   124         15
   125          1
   134         11
   135         45
   136         16
   137          8
   138         15
   139          2
   148          7
   149         22
   150          7
   162          4
   163         12
   164         15
   165          2
   177          6
   178          0
   190          0
   191          2
   192          0
   205          8
   206         53
   207          8
   208          0