##TITLE=Library Entry 32464
##JCAMP-DX=Revision 4.10 
##DATA TYPE=MASS SPECTRUM
##SAMPLE DESCRIPTION=O. VOSTROWSKY,INST. ORG. CHEM.,ERLANGEN-NUERNBERG UNIV.
,W.GER.
##NAMES=HP
##CAS NAME=1,E-8,Z-10-Hexadecatriene
##MOLFORM=C16H28
##CAS REGISTRY NO=80625-33-8
##MP= -300
##BP= -300
##MW= 220
##$RETENTION INDEX=0
##$CONDENSED SPECTRUM=NO
##NPOINTS= 86
##XYDATA=(XY..XY) 1 
    40         23
    41        582
    42         51
    43         91
    44          3
    50          1
    51         13
    52         18
    53        105
    54        254
    55        362
    56         20
    57         40
    65         77
    66         63
    67        999
    68        249
    69        129
    70         18
    71         80
    72          4
    77        107
    78         54
    79        413
    80        296
    81        546
    82        259
    83         84
    84          7
    85         10
    91         81
    92         32
    93        190
    94         99
    95        323
    96        340
    97         53
    98          3
   103          5
   104          1
   105         13
   106          7
   107         86
   108         54
   109        119
   110         77
   111         11
   115          3
   119          4
   120          7
   121        105
   122         43
   123         46
   124         64
   125          9
   133          1
   134         43
   135        126
   136         31
   137         21
   138         15
   144          1
   147          2
   148         47
   149        121
   150         28
   151          6
   152          7
   162         13
   163         30
   164          9
   165          5
   166          8
   167          2
   176          6
   177         13
   178          3
   179          1
   190          2
   191          7
   192          2
   205          0
   219         21
   220        143
   221         28
   222          2