##TITLE=Library Entry 48234
##JCAMP-DX=Revision 4.10 
##DATA TYPE=MASS SPECTRUM
##SAMPLE DESCRIPTION=A.A.Kutin, Moscow, Russia
##NAMES=HP
##CAS NAME=4-Pyridinecarboxylic acid (1,2-dimethyl-1,2-ethanediylidene) dihy
drazide
##MOLFORM=C16H16N6O2
##CAS REGISTRY NO=80623-34-3
##MP= -300
##BP= -300
##MW= 324
##$RETENTION INDEX=0
##$CONDENSED SPECTRUM=NO
##NPOINTS= 123
##XYDATA=(XY..XY) 1 
    36          1
    37          2
    38          8
    39         28
    40         12
    41         45
    42        130
    43         87
    44         20
    45         11
    46          3
    49          3
    50         76
    51        306
    52         40
    53         21
    54          8
    55         13
    56          8
    57         13
    58         10
    59          0
    60          0
    61          1
    62          2
    63          5
    64          4
    65          7
    66          5
    67          4
    68        309
    69         23
    70          3
    71          1
    73          0
    74          0
    75          6
    76         15
    77         38
    78        999
    79        158
    80         29
    81          2
    82          0
    83          7
    84          2
    85          0
    86         31
    87          1
    89          0
    90          0
    91          3
    92          1
    93          2
    95          2
    96          2
    97          0
    98          1
    99          0
   100          0
   103          0
   105         78
   106        460
   107        107
   108          9
   109          0
   111          1
   115          0
   117          0
   118          0
   119          6
   120         11
   121          8
   122         16
   123         61
   124          6
   125          0
   130          2
   131          4
   132          2
   133          1
   134          5
   135          3
   136          6
   137          8
   138          1
   139          0
   140          1
   141          1
   144          1
   145          1
   146          1
   147          2
   148          0
   149          2
   150          0
   152          3
   153          0
   154          0
   160          0
   161          0
   162        166
   163         18
   164          1
   167          0
   171          0
   172          4
   173          7
   174          6
   175         10
   176          2
   182          5
   184          2
   185          0
   188          0
   189          0
   190          9
   191          1
   202          1
   203         67
   204          8
   218         65
   219          8