##TITLE=Library Entry 32466
##JCAMP-DX=Revision 4.10 
##DATA TYPE=MASS SPECTRUM
##SAMPLE DESCRIPTION=O. VOSTROWSKY,INST. ORG. CHEM.,ERLANGEN-NUERNBERG UNIV.
,W.GER.
##NAMES=HP
##CAS NAME=1,E-11,Z-13-Octadecatriene
##MOLFORM=C18H32
##CAS REGISTRY NO=80625-36-1
##MP= -300
##BP= -300
##MW= 248
##$RETENTION INDEX=1685
##$CONDENSED SPECTRUM=NO
##NPOINTS= 91
##XYDATA=(XY..XY) 1 
    29        214
    30          7
    37          1
    38         10
    39        177
    40         12
    41        742
    42         75
    43        129
    45          8
    50          2
    51         17
    52         16
    53        101
    54        318
    55        436
    56         46
    57         51
    64          3
    65         60
    66         60
    67        999
    68        307
    69        152
    70         17
    71         23
    72          7
    73        244
    74         27
    75         10
    76          1
    77         97
    78         41
    79        268
    80        200
    81        664
    82        329
    83        105
    84          5
    85         14
    86          3
    91         54
    92         12
    93         93
    94         94
    95        288
    96        215
    97         47
    98          2
   105          7
   106          3
   107         59
   108         44
   109        139
   110        153
   111         24
   112          3
   115          3
   119          3
   120          2
   121         72
   122         34
   123         58
   124         24
   125          2
   130          0
   135         50
   136         22
   137         12
   138         12
   140          2
   146          8
   147         37
   148          9
   149         24
   150          5
   151          3
   152          6
   163         11
   164          4
   177          5
   191          2
   192          0
   193          1
   206          1
   207          4
   209          1
   221          6
   222          1
   248         11
   249          2