##TITLE=Library Entry 3760
##JCAMP-DX=Revision 4.10 
##DATA TYPE=MASS SPECTRUM
##SAMPLE DESCRIPTION=A.A.Kutin, Moscow, Russia
##NAMES=HP
##CAS NAME=Cyclopropane, 1-chloro-1-(1-hexynyl)-2,2,3,3-tetramethyl-
##MOLFORM=C13H21Cl
##CAS REGISTRY NO=80631-37-4
##MP= -300
##BP= -300
##MW= 212
##$RETENTION INDEX=0
##$CONDENSED SPECTRUM=NO
##NPOINTS= 96
##XYDATA=(XY..XY) 1 
    36         42
    38          3
    39        369
    40        283
    41        999
    42         59
    43        594
    44         99
    50         25
    51        137
    52         40
    53        174
    55        440
    57        600
    58         28
    63         89
    65        228
    66         33
    67        132
    69        264
    73          7
    75         36
    77        446
    78        107
    79        377
    81        322
    82          9
    83         82
    84          3
    89         50
    90          7
    91        681
    92        100
    93        449
    94         46
    95         62
    96         21
    97          5
   102          5
   103         98
   104         51
   105        596
   106         95
   107        411
   108         39
   109         40
   113         13
   114         15
   115         86
   116         47
   117        116
   118         43
   119        566
   120        160
   121        403
   122         49
   123         12
   125          6
   127         91
   128         17
   129         32
   131         34
   133        266
   134        117
   135        216
   136         12
   139         23
   140          4
   141        160
   142         11
   143         43
   145          3
   147         50
   148          8
   149         15
   153         11
   154         12
   155        277
   156         36
   157         79
   161         51
   162          5
   169        173
   170         59
   171         76
   172          5
   176        120
   177        428
   178         60
   183         37
   197        149
   198          4
   199         36
   212        201
   213         19
   214         52