##TITLE=Library Entry 32978
##JCAMP-DX=Revision 4.10 
##DATA TYPE=MASS SPECTRUM
##SAMPLE DESCRIPTION=O. VOSTROWSKY,INST. ORG. CHEM.,ERLANGEN-NUERNBERG UNIV.
,W.GER.
##NAMES=HP
##CAS NAME=1,E-11,Z-13-Hexadecatriene
##MOLFORM=C16H28
##CAS REGISTRY NO=80634-97-5
##MP= -300
##BP= -300
##MW= 220
##$RETENTION INDEX=0
##$CONDENSED SPECTRUM=NO
##NPOINTS= 93
##XYDATA=(XY..XY) 1 
    40         26
    41        630
    42         59
    43         84
    44          4
    50          4
    51         13
    52         24
    53        145
    54        131
    55        456
    56         40
    57         29
    63          5
    64          0
    65         58
    66         55
    67        999
    68        322
    69        115
    70          9
    71         18
    77        110
    78         38
    79        331
    80        185
    81        446
    82        916
    83        140
    84          7
    85          2
    90          1
    91         57
    92         20
    93        175
    94        145
    95        656
    96        242
    97         47
    98          3
   103          2
   104          0
   105          8
   106          8
   107         72
   108         85
   109        127
   110         72
   111          9
   119          3
   120          8
   121         96
   122         50
   123         39
   124         37
   125          5
   126          0
   127          1
   128          1
   131          1
   132          1
   133          1
   134         25
   135         77
   136         28
   137         18
   138         29
   139          3
   140          1
   148         15
   149         39
   150         12
   151          8
   152         19
   153          2
   161          0
   162          8
   163         27
   164         19
   165          4
   166          1
   176          2
   177         13
   178          6
   179          1
   190          4
   191         18
   192          3
   205          2
   219         18
   220        150
   221         32
   222          4