##TITLE=Library Entry 12110
##JCAMP-DX=Revision 4.10 
##DATA TYPE=MASS SPECTRUM
##SAMPLE DESCRIPTION=A.A.Kutin, Moscow, Russia
##NAMES=HP
##CAS NAME=Benzenecarboximidamide, 4-(hexyloxy)-N-hydroxy-
##MOLFORM=C13H20N2O2
##CAS REGISTRY NO=80641-18-5
##MP= -300
##BP= -300
##MW= 236
##$RETENTION INDEX=0
##$CONDENSED SPECTRUM=NO
##NPOINTS= 121
##XYDATA=(XY..XY) 1 
    33          9
    34          1
    36          0
    39        192
    41        486
    43        999
    46          3
    49          0
    50         33
    51         39
    52         51
    53         51
    55        191
    56         40
    57         87
    58         26
    60          9
    63         64
    65        209
    66         24
    67         18
    69         38
    70          4
    71          3
    73          4
    75         25
    76         50
    77         34
    79         86
    80         46
    81         13
    82          4
    83         12
    84         19
    85         28
    86          2
    88          4
    89          6
    90         16
    91         38
    92         41
    93         73
    94         32
    95         14
    97          2
    98          2
    99          0
   101          1
   102         21
   103         38
   104         17
   105         18
   106         28
   107         35
   108         56
   109         30
   110          2
   111          1
   112          1
   115          2
   117          6
   120        501
   121        617
   122         38
   123          6
   124          5
   127          0
   129          3
   131          2
   132          4
   135        930
   137        692
   138        220
   140          1
   144          1
   145          1
   146          5
   147          9
   148          3
   152        542
   153         36
   154          3
   157          0
   158          1
   160          5
   161          4
   162          2
   163          2
   164          1
   165         10
   166          0
   171          0
   174          0
   175          2
   176          0
   177          2
   178          2
   185          0
   189          0
   191          1
   192          0
   201          0
   202          0
   203          6
   204         16
   205         22
   206          2
   207          0
   217          0
   219         47
   220         63
   221        223
   222         26
   223          2
   228          0
   233          2
   234          9
   236        444
   237         53
   238          4
   239          0