##TITLE=Library Entry 48631
##JCAMP-DX=Revision 4.10 
##DATA TYPE=MASS SPECTRUM
##SAMPLE DESCRIPTION=K. BRINK, HEYMANNSTRASSE, LEVERKUSEN, W. GER.
##NAMES=HP
##CAS NAME=N,O-Bis(methylsulfonyl)-N-methylhydroxylamine
##MOLFORM=C3H9NO5S2
##CAS REGISTRY NO=80653-57-2
##MP= -300
##BP= -300
##MW= 203
##$RETENTION INDEX=0
##$CONDENSED SPECTRUM=NO
##NPOINTS= 23
##XYDATA=(XY..XY) 1 
    29        100
    30        430
    31         90
    42         70
    45        400
    46        240
    48        150
    60        210
    63        850
    64        170
    65        190
    79        999
    80        100
    81        260
    94         60
    95         60
    97        210
   111        130
   124        660
   143        110
   157         60
   158        130
   173         10