##TITLE=Library Entry 45935
##JCAMP-DX=Revision 4.10 
##DATA TYPE=MASS SPECTRUM
##SAMPLE DESCRIPTION=Chemical Concepts
##NAMES=HP
##CAS NAME=2,2-Dimethyltetrahydrofuran-3-one, 5-[4-(t-butyldimethylsilyloxy)
pentanoyl]-
##MOLFORM=C17H32O4Si
##CAS REGISTRY NO=80708-12-9
##MP= -300
##BP= -300
##MW= 328
##$RETENTION INDEX=0
##$CONDENSED SPECTRUM=NO
##NPOINTS= 248
##XYDATA=(XY..XY) 1 
    26          4
    27         27
    28         15
    29         47
    30          2
    31         13
    37          1
    38          2
    39         31
    40          5
    41        153
    42         60
    43        219
    44         17
    45         55
    46          3
    47         47
    48          2
    49          1
    50          2
    51          4
    52          2
    53         10
    54         16
    55        184
    56         22
    57         53
    58         49
    59        182
    60         20
    61         53
    62          3
    63          3
    64          1
    65          4
    66          2
    67         25
    68          5
    69        351
    70         33
    71         30
    72         24
    73        548
    74         53
    75        999
    76         85
    77         77
    78          5
    79          8
    80          2
    81         18
    82          6
    83        167
    84         12
    85        190
    86         20
    87         40
    88          4
    89          8
    90          1
    91         17
    92          2
    93        145
    94         12
    95         46
    96          5
    97         19
    98          5
    99         66
   100         40
   101         77
   102         44
   103         46
   104          5
   105         25
   106          2
   107         10
   108          1
   109         42
   110          7
   111         72
   112         33
   113        163
   114         20
   115        203
   116         40
   117         78
   118          9
   119        116
   120          9
   121         38
   122          3
   123         23
   124          4
   125         30
   126         18
   127         39
   128         10
   129         93
   130         10
   131         19
   132          8
   133         56
   134          6
   135         11
   136          1
   137         26
   138          4
   139         25
   140         17
   141         45
   142         11
   143         62
   144         11
   145         97
   146         13
   147          9
   148          1
   149          7
   150          2
   151        143
   152         14
   153         12
   154          4
   155         22
   156          9
   157        201
   158         29
   159        263
   160         38
   161         41
   162          5
   163          3
   164          0
   165          6
   166          1
   167         26
   168          5
   169         90
   170         20
   171         42
   172         23
   173         25
   174          3
   175        112
   176         17
   177          7
   178          2
   179        234
   180         34
   181         33
   182          5
   183        101
   184         21
   185        749
   186        124
   187         77
   188         11
   189          4
   190          1
   191          2
   192          0
   193          2
   194          1
   195         45
   196         45
   197        135
   198         24
   199         38
   200          7
   201         26
   202          4
   203          2
   204          0
   205          1
   206          0
   207          2
   208          0
   209         28
   210          5
   211         58
   212         11
   213         67
   214         11
   215        275
   216         45
   217         19
   218          2
   219          2
   220          1
   221          0
   222          1
   223          3
   224          1
   225         94
   226         19
   227         50
   228          9
   229         48
   230          7
   231          3
   232          0
   233          0
   234          0
   235         12
   236          6
   237          4
   238          1
   239          1
   240          1
   241          5
   242          1
   243         14
   244          2
   245          1
   251          4
   252          1
   253        179
   254         34
   255         17
   256          2
   257          3
   258          0
   267          2
   268          0
   269         15
   270          5
   271        473
   272         92
   273         30
   274          3
   285          1
   286          2
   287          1
   288          0
   289          4
   290          1
   294          0
   295          6
   296          1
   311          0
   312          0
   313         18
   314          3
   315          1
   327          4
   328          8
   329          3