##TITLE=Library Entry 50475
##JCAMP-DX=Revision 4.10 
##DATA TYPE=MASS SPECTRUM
##SAMPLE DESCRIPTION=Chemical Concepts
##NAMES=HP
##CAS NAME=8,16-Dimethyl-1,9-dioxacyclohexadeca-3,11-diene-2,10-dione
##MOLFORM=C16H24O4
##CAS REGISTRY NO=80708-15-2
##MP= -300
##BP= -300
##MW= 280
##$RETENTION INDEX=0
##$CONDENSED SPECTRUM=NO
##NPOINTS= 131
##XYDATA=(XY..XY) 1 
    26          8
    27        124
    29        160
    31          9
    38          4
    39        197
    40        108
    41        291
    42         83
    43        211
    44         14
    45         36
    51         13
    52         11
    53        314
    54         83
    55        430
    56         30
    57         39
    58         19
    59          4
    65         29
    66         57
    67        242
    68        491
    69         67
    70         29
    71         47
    72          3
    73         13
    74          5
    77         35
    78         13
    79        130
    80        104
    81        999
    82         99
    83         24
    84         61
    85         42
    86        146
    87          9
    91         16
    92          4
    94        245
    95        942
    96        110
    97        215
    98        131
    99        218
   100         10
   104          3
   105          9
   106          3
   107         37
   108          8
   109         10
   110          9
   111         48
   112         89
   113         17
   114          5
   119          4
   120          6
   121         19
   122        751
   123        554
   124         59
   125        109
   126          8
   127          2
   131          4
   133          5
   134          3
   135          7
   136          6
   137         10
   138         20
   139         48
   140        685
   141        215
   142         18
   143          3
   151          8
   152          6
   153         11
   154         17
   155          5
   156          7
   157          9
   158          6
   159          2
   160          3
   161          4
   162          5
   163          6
   164          8
   165          7
   166          5
   167         14
   168          3
   173          5
   175          3
   176          5
   177         14
   178          4
   179          6
   180          9
   181          4
   182          4
   183          2
   189          3
   190          9
   191          4
   192          3
   193          8
   194          2
   195          7
   206          2
   207          4
   208         10
   218          7
   219          3
   234          5
   236          4
   244          4
   252          5
   262         62
   263         12
   264          5
   280          6