##TITLE=Library Entry 51112
##JCAMP-DX=Revision 4.10 
##DATA TYPE=MASS SPECTRUM
##SAMPLE DESCRIPTION=Chemical Concepts
##NAMES=HP
##CAS NAME=Cobalt, (.eta.5-2,4-cyclopentadien-1-yl)bis[tris(1-methylethyl) p
hosphite-P]-
##MOLFORM=C23H47CoO6P2
##CAS REGISTRY NO=80719-05-7
##MP= -300
##BP= -300
##MW= 540
##$RETENTION INDEX=0
##$CONDENSED SPECTRUM=NO
##NPOINTS= 310
##XYDATA=(XY..XY) 1 
    24          2
    26         21
    27        266
    28         28
    29         19
    30          0
    31         36
    33          1
    34          0
    36          2
    37         16
    38         29
    39        228
    40         49
    41        425
    42        108
    43        949
    44         33
    45        232
    46          5
    47         52
    48          2
    49          2
    50          4
    51          5
    52          4
    53          3
    54          3
    55         14
    56          1
    57          6
    58         11
    59         99
    60          3
    61          6
    62          9
    63         17
    64          4
    65        397
    66         35
    67          3
    68          2
    69          7
    70          1
    71          1
    72          0
    73          1
    74          2
    75          2
    76          0
    77          3
    78          3
    79          5
    80          2
    81         14
    82        999
    83        386
    84          8
    85          5
    86          0
    87          2
    89          1
    90          2
    91         22
    92         13
    93         14
    94          1
    95          1
    96         10
    97          9
    98         25
    99        139
   100          1
   101          5
   102          1
   103          1
   104          0
   105         20
   106          6
   107        460
   108         23
   109        389
   110          8
   111          2
   113          0
   115          1
   116          1
   117          6
   118          3
   119          1
   120          0
   121          1
   122         17
   123         64
   124        646
   125        199
   126          9
   127          2
   128          5
   129          3
   130          1
   131          0
   132          0
   133          0
   134          2
   135          3
   136          1
   137          5
   138          2
   139          7
   140         22
   141         29
   142          8
   143          0
   146          0
   147          1
   148          1
   149         47
   150          3
   151          3
   152          0
   153          0
   154          0
   155          0
   156          1
   157          2
   158          0
   159          1
   160          0
   161          1
   162          1
   163          3
   164         23
   165         14
   166         60
   167         43
   168          3
   169          0
   170          0
   171          4
   172          1
   173          0
   174          3
   175          0
   178          0
   179          0
   180          9
   181         25
   182         24
   183         47
   184         34
   185          3
   186         19
   187        126
   188        319
   189        123
   190         16
   191          0
   193          0
   198          0
   201          0
   202          3
   203          5
   204         25
   205         22
   206        173
   207         12
   208         12
   209          7
   210          0
   214          0
   216          0
   219          0
   220          2
   221          5
   222         14
   223          5
   224          7
   225          2
   226          3
   227          0
   228          3
   229          3
   230         96
   231         41
   232          9
   233          1
   234          0
   235          0
   236          0
   240          0
   244          0
   245          3
   246         11
   247         21
   248        102
   249         10
   250         12
   251          5
   252          1
   253          4
   254          0
   261          0
   262          1
   263          2
   264          1
   265          0
   266          0
   267          9
   268         25
   269          4
   270          2
   271          4
   272          0
   273          0
   274         17
   275          2
   276          0
   282          1
   284          2
   285          3
   286          6
   287          6
   288          8
   289         12
   290        105
   291         12
   292          1
   293          2
   295          2
   296          0
   304          0
   305          1
   306          0
   307          0
   309          4
   310          4
   311          4
   312          1
   313          1
   315          0
   316          0
   317          0
   324          0
   325          0
   326          2
   327          2
   328          1
   329          3
   330          4
   332        784
   333        122
   334         14
   335          1
   337          1
   338          0
   346          0
   348          0
   349          0
   351          1
   352          1
   353          3
   354          1
   355          2
   367          0
   368          1
   369          1
   370          1
   371          3
   372          0
   373          1
   374          0
   379          0
   380          0
   394          0
   395          1
   396          1
   397          3
   398          0
   410          0
   411          1
   412          0
   413          3
   414          0
   417          0
   422          1
   423          0
   433          0
   438          6
   439          6
   440          1
   453          1
   455          1
   456          0
   473          1
   475         13
   476          2
   477          0
   480          0
   481         33
   482          8
   483          1
   495          1
   497          8
   498          4
   499          1
   540        200
   541         54
   542          9
   543          1