##TITLE=Library Entry 46338
##JCAMP-DX=Revision 4.10 
##DATA TYPE=MASS SPECTRUM
##SAMPLE DESCRIPTION=Chemical Concepts
##NAMES=HP
##CAS NAME=4-Chloro-3-methyl-5-(phthalimidomethyl)isoxazole
##MOLFORM=C13H9ClN2O3
##CAS REGISTRY NO=80728-25-2
##MP= -300
##BP= -300
##MW= 276
##$RETENTION INDEX=0
##$CONDENSED SPECTRUM=NO
##NPOINTS= 110
##XYDATA=(XY..XY) 1 
    34         34
    35         52
    36        132
    37        130
    38        213
    39        255
    40        249
    41        112
    42        216
    43        319
    44        175
    47        229
    49        280
    50        823
    51        457
    52        227
    53         92
    54         46
    55         43
    56         85
    57         13
    59         14
    61        243
    62        152
    63        137
    64         84
    65         48
    66         91
    67         30
    68         20
    69         12
    70         22
    71         19
    73        168
    74        311
    75        466
    76        999
    77        726
    78         98
    80         29
    81         42
    82         16
    85         19
    86         46
    87         65
    88        208
    89        103
    90         85
    91         21
    99         13
   100         30
   101         51
   102        142
   103        229
   104        827
   105        289
   106         12
   115         75
   116        166
   117         32
   118         54
   124         14
   127         12
   128         29
   129         46
   130        195
   132        233
   133        159
   134         14
   138         19
   142         14
   143         26
   144         35
   147         14
   148         58
   149         40
   150         23
   151         90
   152         19
   153         29
   158         52
   160        560
   161         43
   170         23
   171         52
   172        177
   173         23
   179         26
   185         23
   186         16
   199        101
   200         19
   204         42
   205         12
   206         21
   207         12
   210         23
   213        590
   214         52
   231         18
   232         12
   241        119
   242         13
   247         15
   248         32
   249         12
   250         10
   276        154
   277         25
   278         38