##TITLE=Library Entry 62445
##JCAMP-DX=Revision 4.10 
##DATA TYPE=MASS SPECTRUM
##SAMPLE DESCRIPTION=NIST Mass Spectrometry Data Center, 1994
##NAMES=HP
##CAS NAME=4-Methoxy-2,3,6-trimethylbenzenesulfonyl chloride
##MOLFORM=C10H13ClO3S
##CAS REGISTRY NO=80745-07-9
##MP= -300
##BP= -300
##MW= 248
##$RETENTION INDEX=0
##$CONDENSED SPECTRUM=NO
##NPOINTS= 137
##XYDATA=(XY..XY) 1 
    15        466
    16         28
    17          6
    18         34
    26         25
    27        266
    29         86
    30         12
    31         18
    32         12
    35         25
    36         60
    37         18
    38         72
    39        499
    40         93
    41        248
    42         21
    43        110
    44          5
    45         93
    47         14
    48        197
    49         15
    50        121
    51        366
    52        162
    53        236
    54         30
    55         76
    57         17
    58         17
    59         36
    61         15
    62         69
    63        198
    64        334
    65        384
    66        117
    67         87
    68         12
    69         45
    70         13
    71         15
    73         11
    74         46
    75         63
    76         52
    77        464
    78        213
    79        344
    80         46
    81         44
    82         15
    83         34
    84         10
    85         16
    86         14
    87         23
    88          8
    89         85
    90          8
    91        999
    92        108
    93        117
    94         24
    95         13
    97         26
    99         30
   101         15
   102         49
   103        225
   104        102
   105        476
   106        129
   107         85
   108         25
   109         27
   111         11
   115        186
   116         51
   117        160
   118         64
   119        754
   120         96
   121        335
   122         60
   123         53
   124         12
   125         13
   131         33
   132         19
   133        223
   134        419
   135        330
   136        102
   137         66
   138         12
   139         22
   141         20
   147         68
   148        232
   149        914
   150        323
   151         47
   152         42
   153         32
   154         11
   155         10
   163         14
   164        125
   165        169
   166         25
   167         36
   168         10
   169         81
   170         10
   171         25
   181         14
   182         42
   183         19
   184         86
   185         16
   186         38
   195         75
   196         22
   197         18
   213        559
   214         81
   215         43
   228         15
   230         14
   248        547
   249         69
   250        218
   251         32
   252         12