##TITLE=Library Entry 26232
##JCAMP-DX=Revision 4.10 
##DATA TYPE=MASS SPECTRUM
##SAMPLE DESCRIPTION=NIST Mass Spectrometry Data Center
##NAMES=HP
##CAS NAME=Isobutyl 3-hydroxy-2-methylenebutanoate
##MOLFORM=C9H16O3
##CAS REGISTRY NO=80758-68-5
##MP= -300
##BP= -300
##MW= 172
##$RETENTION INDEX=1179
##$CONDENSED SPECTRUM=NO
##NPOINTS= 71
##XYDATA=(XY..XY) 1 
    19          1
    26         14
    27        107
    28         22
    29        157
    30          6
    31         18
    33          1
    37          3
    38          8
    39        139
    40         23
    41        430
    42         50
    43        345
    44         17
    45        199
    46          5
    47          2
    50          9
    51         19
    52         11
    53        209
    54        127
    55        380
    56        295
    57        999
    58         46
    59          8
    61          7
    70        187
    71        294
    72         57
    73        306
    74         12
    75          1
    81        371
    82         60
    83        286
    84         30
    85         13
    87         26
    88          1
    97        170
    98        431
    99        867
   100         60
   101        728
   102         33
   103          6
   107          2
   108          3
   112          4
   113          1
   114          5
   115         66
   116        128
   117         24
   118          2
   121          3
   125          4
   126          1
   127          5
   129         31
   130          2
   139         13
   140          1
   157         96
   158          8
   159          1
   171          1