##TITLE=Library Entry 55724
##JCAMP-DX=Revision 4.10 
##DATA TYPE=MASS SPECTRUM
##SAMPLE DESCRIPTION=A.A.Kutin, Moscow, Russia
##NAMES=HP
##CAS NAME=Cyclohexane, 1-isopropyl-2-(2-hydroxy-3-tert-butylaminopropoxy)-4
-methyl-
##MOLFORM=C17H35NO2
##CAS REGISTRY NO=80768-75-8
##MP= -300
##BP= -300
##MW= 285
##$RETENTION INDEX=0
##$CONDENSED SPECTRUM=NO
##NPOINTS= 150
##XYDATA=(XY..XY) 1 
    39        126
    41        623
    42        142
    43        322
    44         63
    45         15
    46          1
    47          0
    48          0
    49          1
    50          7
    51         17
    53         55
    54         26
    55        327
    56        119
    57        393
    58        112
    60        115
    61          3
    62          2
    63          3
    64          2
    65         14
    67         69
    68         18
    69        130
    70        115
    71        141
    72         42
    74         69
    75          4
    77         30
    78          4
    79         20
    80          7
    81         66
    82         21
    83        131
    84         40
    86        999
    87         56
    88          3
    90         32
    91          9
    92          8
    93         12
    94          3
    95         39
    96         16
    97         25
    98         18
    99          4
   100         11
   101         13
   102          3
   104          2
   105          1
   106          0
   107          1
   108          0
   109          4
   110          2
   111          2
   112          5
   113          6
   114         40
   115          9
   116         66
   117         10
   118         13
   119          1
   120          0
   121          0
   123          6
   124          0
   125          0
   126          0
   127          2
   128         21
   129          4
   130         36
   132        168
   133         10
   134          1
   135          0
   136          0
   137          1
   138          3
   139         14
   140          2
   141          0
   142          0
   143          0
   144          1
   146         61
   147          5
   148          1
   149          0
   150          0
   151          0
   152          0
   153          0
   154          0
   155          0
   156          0
   157          0
   158          2
   159          0
   162          0
   167          0
   168          0
   169          0
   170          0
   171          2
   172          0
   180          0
   182          0
   183          0
   184          1
   186          0
   194          0
   195          1
   196          0
   197          0
   198          0
   200          1
   207          0
   209          0
   210          0
   211          0
   212          0
   214          0
   224          0
   226          0
   228          1
   229          0
   252         11
   253          1
   254          0
   256          0
   266          0
   267          3
   268          0
   270        110
   271         17
   272          2
   284          0
   285          4
   286          0