##TITLE=Library Entry 37417
##JCAMP-DX=Revision 4.10 
##DATA TYPE=MASS SPECTRUM
##SAMPLE DESCRIPTION=J.E. WILKINSON S-CUBED, SAN DIEGO, CA.
##NAMES=HP
##CAS NAME=Cyclodecanamine, N-methyl-
##MOLFORM=C11H23N
##CAS REGISTRY NO=80789-66-8
##MP= -300
##BP= -300
##MW= 169
##$RETENTION INDEX=0
##$CONDENSED SPECTRUM=NO
##NPOINTS= 65
##XYDATA=(XY..XY) 1 
    40          9
    41        139
    42        103
    43         25
    44        107
    45          2
    51          5
    52          2
    53         22
    54         22
    55         74
    56         79
    57        271
    58         26
    63          0
    65          7
    66          2
    67         30
    68         32
    69         13
    70        999
    71         83
    72          6
    77          8
    78          1
    79         11
    80          8
    81         20
    82         27
    83         18
    84         74
    85          7
    86          0
    91          5
    93          5
    94          6
    95         16
    96         28
    97         10
    98         37
    99          4
   100          0
   108          2
   109          3
   110         26
   111         11
   112         52
   113          6
   122          1
   124         48
   126        139
   127         13
   136          3
   137          1
   138         12
   139          0
   140         34
   141          3
   152          0
   154         11
   166          0
   167          7
   168         16
   169         70
   170         11