##TITLE=Library Entry 84534
##JCAMP-DX=Revision 4.10 
##DATA TYPE=MASS SPECTRUM
##SAMPLE DESCRIPTION=Chemical Concepts
##NAMES=HP
##CAS NAME=Diazene,1-(4-methoxyphenyl)-2-(2-hydroxy-4-methylphenyl)-
##MOLFORM=C14H14N2O2
##CAS REGISTRY NO=80784-23-2
##MP= -300
##BP= -300
##MW= 242
##$RETENTION INDEX=0
##$CONDENSED SPECTRUM=NO
##NPOINTS= 79
##XYDATA=(XY..XY) 1 
    26          5
    27         24
    28          9
    29         10
    37          2
    38         10
    39         59
    40          7
    50         15
    51         38
    52         38
    53         40
    54          5
    62          5
    63         37
    64         62
    65         67
    66         18
    67         12
    68          3
    75          5
    76         13
    77        350
    78         64
    79         82
    80         19
    81         12
    82          5
    89          4
    90          3
    91         17
    92        118
    93         15
    94          3
   104          2
   105         23
   106         13
   107        999
   108         89
   109         13
   110          2
   120          6
   121         34
   122         25
   123         10
   124          8
   125          4
   127          6
   128         17
   129          6
   134         11
   135        363
   136         29
   137          3
   139          3
   141          8
   142          4
   143          3
   152          5
   153          4
   154          2
   155          4
   165          3
   167          5
   169          3
   170          2
   171          6
   181          2
   183          4
   184          2
   198          3
   199         15
   200          2
   213          3
   214          7
   241          3
   242        432
   243         72
   244          6