##TITLE=Library Entry 48028
##JCAMP-DX=Revision 4.10 
##DATA TYPE=MASS SPECTRUM
##SAMPLE DESCRIPTION=Japan AIST/NIMC Database- Spectrum MS-IW-4605
##NAMES=HP
##CAS NAME=2,4,6-Trinitro-N-(p-(phenylazo)phenyl)aniline
##MOLFORM=C18H12N6O6
##CAS REGISTRY NO=80792-89-8
##MP= -300
##BP= -300
##MW= 408
##$RETENTION INDEX=0
##$CONDENSED SPECTRUM=NO
##NPOINTS= 244
##XYDATA=(XY..XY) 1 
    27          7
    28         11
    30         20
    37          1
    38          7
    39         22
    40          2
    41          2
    43          1
    44          8
    46          1
    50         43
    51        130
    52         21
    53         16
    54          1
    55          7
    61          4
    62         23
    63         60
    64         72
    65         31
    66          5
    67          2
    68          1
    69          2
    73          1
    74         24
    75         43
    76         68
    77        999
    78         95
    79         75
    80         16
    81          7
    82          1
    83          1
    86          8
    87         19
    88         28
    89         14
    90         19
    91         14
    92        114
    93         17
    94          3
    95          5
    98          3
    99         10
   100         12
   101         15
   102         16
   103         10
   104          8
   105        266
   106         23
   107          9
   108          1
   109          6
   110          2
   111          5
   112          8
   113         19
   114         30
   115         12
   116          9
   117          4
   118          4
   119          2
   120          2
   121          1
   122          1
   123          2
   124          3
   125         17
   126         26
   127         23
   128         13
   129          6
   130          2
   131          2
   132          1
   133          1
   134          1
   135          1
   136          3
   137         33
   138         47
   139         34
   140         32
   141         17
   142          6
   143          4
   144          3
   145          1
   146          1
   148          1
   149          1
   150          7
   151         18
   152         60
   153         52
   154         19
   155         33
   156          8
   157          3
   158          1
   159          1
   161          1
   162          3
   163          9
   164         97
   165         94
   166         54
   167        341
   168         53
   169         10
   170          4
   171          4
   172          1
   173          1
   175          1
   176          3
   177         10
   178         13
   179         10
   180         17
   181         23
   182         27
   183         64
   184         10
   185          2
   186          1
   187          2
   188          3
   189          4
   190          2
   191          1
   192          1
   193         11
   194         13
   195         17
   196          4
   197         13
   198         21
   199         13
   200          4
   201          2
   202          3
   203          2
   204         14
   205          2
   206          1
   207          1
   209          3
   210         25
   211         61
   212         16
   213         34
   214         10
   215          6
   216          3
   217          1
   223          8
   224          5
   225          9
   226         12
   227         13
   228         13
   229          6
   230          2
   231          1
   234          2
   238          2
   239         10
   240         20
   241         22
   242          9
   243          3
   244          3
   245          1
   251          4
   252          1
   253          6
   254          5
   255          2
   256         18
   257         12
   258          4
   259          1
   269         25
   270          8
   271          3
   272          2
   273          3
   277          4
   281          1
   282          1
   283          3
   284          1
   285          3
   286          8
   287         10
   288          2
   297          1
   299          4
   300          2
   301          1
   303        870
   304        130
   305         19
   306          2
   309          1
   315          2
   316          1
   317          1
   318          1
   320          1
   328          1
   329          3
   331        225
   332         35
   333          6
   334          1
   344          3
   345          4
   346          1
   354          1
   361          2
   362          2
   363          1
   374         53
   375         20
   376          3
   377          1
   378          1
   390          5
   391          1
   392          4
   393          1
   408        890
   409        195
   410         31
   411          3