##TITLE=Library Entry 53870
##JCAMP-DX=Revision 4.10 
##DATA TYPE=MASS SPECTRUM
##SAMPLE DESCRIPTION=CYA 0030
##NAMES=HP
##CAS NAME=Sancycline
##MOLFORM=C21H22N2O7
##CAS REGISTRY NO=808-26-4
##MP= -300
##BP= -300
##MW= 414
##$RETENTION INDEX=0
##$CONDENSED SPECTRUM=NO
##NPOINTS= 112
##XYDATA=(XY..XY) 1 
    39         15
    40         62
    41         33
    42        192
    43         47
    44        436
    45         70
    46        529
    55         59
    56         11
    57         74
    58        701
    59         19
    68         18
    69         39
    70         33
    71         82
    72         26
    74         13
    77         22
    82         26
    84        999
    85        153
    86         38
    97         12
    98        100
    99         13
   100         15
   113         10
   114         24
   115         58
   126         20
   127         32
   128         15
   131         41
   139         11
   141         12
   143         12
   151         19
   152         30
   153         23
   154         19
   155         12
   156         11
   160         39
   161         28
   165         10
   166         15
   169         12
   170         66
   171         18
   173         26
   174         24
   178         12
   181         20
   182         10
   183         13
   187        115
   188         15
   189         12
   194         11
   197         16
   198         10
   199         32
   200         52
   201         24
   202         19
   209         17
   210         13
   211         14
   213         14
   221         10
   226         13
   227         21
   228         14
   229         17
   232         33
   242         14
   243         12
   245         13
   256         14
   257         12
   272         11
   284         14
   296         32
   298         16
   299         25
   300         86
   301         83
   308         29
   313         16
   324         35
   325         16
   336         19
   341         21
   352         39
   353         24
   354         57
   355         16
   369         31
   371         69
   372         10
   379         27
   380         41
   395         15
   396         57
   397         55
   398         12
   412         61
   413         20
   414        412
   415         94