##TITLE=Library Entry 30932
##JCAMP-DX=Revision 4.10 
##DATA TYPE=MASS SPECTRUM
##SAMPLE DESCRIPTION=V.A.Korolev, Moscow, Russia
##NAMES=HP
##CAS NAME=3-(Pyridin-4-yl)-[1,2,4]triazolo[3,4-b][1,3,4]thiadiazol-6-amine
##MOLFORM=C8H6N6S
##CAS REGISTRY NO=80809-41-2
##MP= -300
##BP= -300
##MW= 218
##$RETENTION INDEX=0
##$CONDENSED SPECTRUM=NO
##NPOINTS= 67
##XYDATA=(XY..XY) 1 
    33         29
    34         93
    36         10
    37        110
    38        100
    39        109
    40         62
    41        141
    42        354
    43         62
    44        385
    45         53
    46         58
    47          6
    48         10
    49         67
    50        383
    51        357
    52        108
    53        214
    54         30
    55          8
    56          7
    58        140
    59        605
    60        999
    61         80
    62        116
    63         85
    64        109
    65         10
    66          7
    67          9
    68         10
    69         11
    70         89
    72         11
    73          7
    74          5
    75         74
    76        153
    77        281
    78         92
    79         13
    81          5
    85         11
    86         85
    88          4
    91          7
    93          8
    94         84
    95         12
   103         20
   104        268
   105        155
   106         10
   129          5
   130          5
   158         33
   159          2
   176         24
   177          2
   217          4
   218        370
   219         44
   220         18
   221          1