##TITLE=Library Entry 79754
##JCAMP-DX=Revision 4.10 
##DATA TYPE=MASS SPECTRUM
##SAMPLE DESCRIPTION=A.S.Moskovkin,I.M.Karnaukh, Russian Center on Disaster
 Medicine
##NAMES=HP
##CAS NAME=3,7-Dibenzoyl-1,5-dimethyl-3,7-diazabicyclo-[3,3,1]nonan-9-one
##MOLFORM=C23H24N2O3
##CAS REGISTRY NO=80808-90-8
##MP= -300
##BP= -300
##MW= 376
##$RETENTION INDEX=0
##$CONDENSED SPECTRUM=NO
##NPOINTS= 190
##XYDATA=(XY..XY) 1 
    37          3
    38         11
    39         34
    40         25
    41        100
    42         77
    43         64
    44        100
    45         10
    46          6
    49          2
    50         19
    51         80
    52         11
    53         11
    54          8
    55         55
    56         21
    57         45
    58         11
    59          2
    62          1
    63          3
    64          2
    65          5
    66          3
    67         13
    68         13
    69         64
    70         19
    71         21
    72          4
    73          5
    74          5
    75          5
    76         19
    77        530
    78         57
    79          9
    80          5
    81         13
    82         23
    83         20
    84         17
    85         16
    86          5
    87          2
    89          2
    90          1
    91         19
    92          4
    93          5
    94          8
    95         13
    96         13
    97         14
    98          7
    99          4
   100         14
   101          2
   102          1
   103          5
   104         11
   105        999
   106        120
   107         11
   108          7
   109         14
   110         13
   111         11
   112          4
   113          4
   115          4
   116          3
   117          4
   118          4
   119          7
   120          4
   121         10
   122         21
   123         12
   124         98
   125         13
   126          3
   127          2
   128          2
   129          3
   130          2
   131          5
   132          2
   133          3
   134          5
   135          4
   136          6
   137         14
   138         55
   139          9
   140          2
   141         11
   142          2
   143          2
   144          1
   145          3
   146         17
   147          9
   148         47
   149         37
   150          8
   151          4
   152         22
   153          4
   154          2
   155          2
   156          1
   157          1
   158          2
   159          2
   160          4
   163          2
   164          1
   165          4
   166          2
   167          3
   168          2
   169          3
   170          8
   171          2
   172          2
   173          1
   174          3
   179          2
   180         31
   181          7
   182          3
   183         11
   184          2
   185          1
   186          3
   187          2
   188          3
   189          2
   195          4
   196          4
   197          6
   198          5
   199          2
   200          4
   201          3
   202          1
   211          3
   212          3
   213          2
   214          4
   215          2
   224          2
   225          4
   226          3
   227          4
   228        420
   229         72
   230         11
   231          3
   239          2
   240          2
   241          3
   242         10
   243          5
   253          2
   254          6
   255          2
   270          4
   271         29
   272          6
   276          7
   277          2
   300          6
   301          1
   332          4
   333          2
   334          1
   341          3
   346          4
   347          2
   348          1
   358          1
   361          2
   375         18
   376         71
   377         18
   378          2