##TITLE=Library Entry 78765
##JCAMP-DX=Revision 4.10 
##DATA TYPE=MASS SPECTRUM
##SAMPLE DESCRIPTION=A.A.Kutin, Moscow, Russia
##NAMES=HP
##CAS NAME=Benzamide, N-[4-(benzoyloxy)-phenyl]-
##MOLFORM=C20H15NO3
##CAS REGISTRY NO=80824-77-7
##MP= -300
##BP= -300
##MW= 317
##$RETENTION INDEX=0
##$CONDENSED SPECTRUM=NO
##NPOINTS= 115
##XYDATA=(XY..XY) 1 
    33          0
    34          1
    35          0
    36          1
    37          7
    38         18
    39         49
    40         17
    41         26
    43         28
    44          8
    45          2
    49          5
    50        143
    51        400
    52         57
    53         42
    55         20
    56          5
    57         12
    58          0
    59          1
    60          1
    62         10
    63         20
    64         10
    65          9
    66          2
    67          2
    68          2
    69          5
    70          3
    71          5
    73          4
    74         31
    75         29
    77        892
    78         55
    79          9
    80          4
    81          7
    82          1
    83          3
    84          2
    85          0
    87          0
    88          0
    89          3
    90          2
    91         10
    92          4
    93          0
    94          0
    95          1
    97          1
    98          1
    99          0
   100          0
   101          1
   102          3
   105        999
   106         61
   107          5
   108          1
   109          0
   110          0
   111          1
   112          1
   113          0
   114          0
   115          1
   116          0
   117          0
   118          0
   119          9
   120          2
   121          1
   123          0
   125          0
   126          0
   127          1
   128          2
   129          0
   130          0
   131          0
   133          0
   135          0
   136          0
   137          0
   139          0
   140          0
   141          0
   143          0
   149          2
   150          0
   152          1
   153          0
   154          1
   155          0
   157          0
   165          0
   166          0
   167          0
   168          0
   171          2
   172          0
   182          0
   183          0
   211          0
   212          1
   213          1
   240          0
   317         50
   318         10
   319          1