##TITLE=Library Entry 66762
##JCAMP-DX=Revision 4.10 
##DATA TYPE=MASS SPECTRUM
##SAMPLE DESCRIPTION=V.A. KOPTYUG, VOL5, ATLAS OF MS OF ORGANIC COMPOUNDS
##NAMES=HP
##CAS NAME=2-(3-Phenylureido)-4-phenylpyrimidine-1-oxide
##MOLFORM=C17H14N4O2
##CAS REGISTRY NO=80830-59-7
##MP= -300
##BP= -300
##MW= 306
##$RETENTION INDEX=0
##$CONDENSED SPECTRUM=NO
##NPOINTS= 138
##XYDATA=(XY..XY) 1 
    36          5
    37         14
    38         26
    39         84
    40         19
    41         35
    42         14
    43         12
    44        212
    45         16
    46          7
    48          3
    49          4
    50         49
    51         99
    52         32
    53          8
    54         16
    55          4
    56          2
    57          3
    58          1
    59          2
    60          2
    61          9
    62         21
    63         64
    64         67
    65        128
    66        232
    67         26
    68          7
    69          6
    70         35
    72          1
    73          3
    74         19
    75         26
    76         49
    77        191
    78         32
    79          5
    81          2
    83          2
    84          2
    85          7
    86          3
    87          5
    88          9
    89         41
    90         41
    91         97
    92         78
    93        999
    94         75
    95          3
    97          2
    98         13
    99          3
   100          3
   101         17
   102         67
   103         49
   104         46
   105        188
   106         15
   107          1
   109          1
   110          3
   113         64
   114         13
   115         61
   116         38
   117         32
   118          8
   119        183
   120         17
   126          1
   127          7
   128         49
   129         64
   130         14
   131          5
   132          1
   140          8
   141          5
   142         19
   143         26
   144         16
   145         20
   146         26
   147          3
   149          3
   152          3
   153          6
   154          3
   155         17
   156          3
   157          3
   158          3
   159          1
   160          1
   165         11
   166          2
   168          3
   169         32
   170        290
   171        290
   172         35
   173          2
   178          2
   179          1
   180          2
   181          4
   182          1
   183          7
   186         48
   187        174
   188         20
   189          2
   195          3
   196          5
   197         36
   198         14
   199          2
   212          5
   213        406
   214        186
   215         20
   216          2
   217          5
   228          3
   259          5
   290         58
   291         10
   292          1
   306         26
   307          5