##TITLE=Library Entry 67773
##JCAMP-DX=Revision 4.10 
##DATA TYPE=MASS SPECTRUM
##SAMPLE DESCRIPTION=A.A.Kutin, Moscow, Russia
##NAMES=HP
##CAS NAME=Piperazine, 1,4-bis[2-(2-furoyloxy)ethyl)-
##MOLFORM=C18H22N2O6
##CAS REGISTRY NO=80838-46-6
##MP= -300
##BP= -300
##MW= 362
##$RETENTION INDEX=0
##$CONDENSED SPECTRUM=NO
##NPOINTS= 148
##XYDATA=(XY..XY) 1 
    33         28
    34         25
    39        385
    40         18
    41        215
    42        808
    43        117
    44        148
    45         65
    46          2
    47          2
    48          2
    49          2
    50          4
    51         15
    52          8
    53         29
    54        123
    55        402
    56        381
    57        120
    58        108
    59          7
    60          4
    61          1
    62          3
    63         10
    64          5
    65          8
    66         20
    67         73
    68         63
    69        143
    70        364
    71         41
    72         31
    73         19
    74         17
    75          3
    76          1
    77          6
    78          4
    79          6
    80         10
    81         30
    82        161
    83         96
    84         90
    85         17
    86         20
    87          4
    88          9
    89          1
    90          1
    91          6
    92          3
    95        999
    96         96
    97        315
    98        366
    99         50
   100        106
   101          9
   102          2
   103          0
   104          1
   105          3
   106          3
   107          5
   108          7
   109         15
   110         39
   111         50
   112        105
   113         44
   114         10
   115          4
   117          1
   118          3
   119          2
   120          1
   121          3
   123         45
   125        710
   126         72
   128         18
   129          3
   130          0
   131          1
   134          0
   135          3
   136          7
   138        288
   139        328
   140         26
   141         15
   143        140
   144         17
   145          2
   149          0
   150          0
   151          0
   152          3
   153          1
   154          1
   155          6
   156         51
   157          6
   158          0
   161          3
   162          0
   164          2
   166          0
   167          0
   168         11
   169          1
   171          3
   173          1
   174          0
   179          0
   180          4
   181          3
   182         18
   183          1
   193          0
   194         19
   195          2
   196          4
   208          0
   209          0
   220          0
   221          3
   222         38
   223          5
   233          2
   234          5
   235         16
   237        387
   238         53
   239          5
   246          2
   247          2
   248          7
   250        260
   251         70
   252          8
   253          0
   256          0