##TITLE=Library Entry 31664
##JCAMP-DX=Revision 4.10 
##DATA TYPE=MASS SPECTRUM
##SAMPLE DESCRIPTION=J.E. WILKINSON S-CUBED, SAN DIEGO, CA.
##NAMES=HP
##CAS NAME=Benzene, 1-chloro-2-methoxy-3-nitro-
##MOLFORM=C7H6ClNO3
##CAS REGISTRY NO=80866-77-9
##MP= -300
##BP= -300
##MW= 187
##$RETENTION INDEX=0
##$CONDENSED SPECTRUM=NO
##NPOINTS= 74
##XYDATA=(XY..XY) 1 
    40          2
    41          0
    42          0
    43          5
    46         24
    47          8
    49         69
    50        194
    51        264
    52         31
    53        104
    59          2
    60         26
    61        130
    62        277
    63        999
    64         56
    65         95
    72         79
    73        123
    74        215
    75        705
    76        186
    77        241
    78        100
    79         79
    84         63
    85         63
    86         69
    87         47
    88          8
    90          3
    91         94
    92          3
    93          4
    94          2
    96          8
    97         44
    98        201
    99        598
   100         87
   101        176
   105          0
   106          1
   107          6
   108          1
   110         43
   111        715
   112        227
   113        278
   114        115
   115          5
   116          1
   121          4
   122         18
   126        564
   127        507
   128        226
   129        214
   130         11
   140        286
   141         13
   142         85
   156         15
   157        780
   158         55
   159        240
   160          5
   170          5
   172          4
   187        603
   188         43
   189        186
   190          5