##TITLE=Library Entry 80033
##JCAMP-DX=Revision 4.10 
##DATA TYPE=MASS SPECTRUM
##SAMPLE DESCRIPTION=Institute of Organic Chemistry, Novosibirsk, USSR 1988
##NAMES=HP
##CAS NAME=4-(2-Benzoylhydrazono)-2-dimethylamino-6,7-dihydrooxazolo[3,2-a][
1,3,5]triazine
##MOLFORM=C14H16N6O2
##CAS REGISTRY NO=80862-58-4
##MP= -300
##BP= -300
##MW= 300
##$RETENTION INDEX=0
##$CONDENSED SPECTRUM=NO
##NPOINTS= 18
##XYDATA=(XY..XY) 1 
    77        399
    88        219
   104        149
   105        999
   121        239
   137         59
   138        159
   139        139
   151         69
   152        139
   166         89
   167        169
   180        119
   181        179
   186        109
   285         79
   300        399
   301        139