##TITLE=Library Entry 22510
##JCAMP-DX=Revision 4.10 
##DATA TYPE=MASS SPECTRUM
##SAMPLE DESCRIPTION=Japan AIST/NIMC Database- Spectrum MS-IW- 896
##NAMES=HP
##CAS NAME=3,4-Dihydro-2,2-dimethyl-4-oxo-2H-pyran-6-carboxylic acid
##MOLFORM=C8H10O4
##CAS REGISTRY NO=80866-93-9
##MP= -300
##BP= -300
##MW= 170
##$RETENTION INDEX=0
##$CONDENSED SPECTRUM=NO
##NPOINTS= 75
##XYDATA=(XY..XY) 1 
    14          2
    15          6
    17          1
    18          1
    26          3
    27         31
    28         53
    29         48
    30          1
    31          2
    37          1
    38          3
    39         61
    40         26
    41        391
    42         29
    43         47
    44          6
    45         15
    47          1
    50          2
    51          4
    52          2
    53         21
    54          8
    55         89
    56        999
    57        329
    58         13
    59          9
    65          1
    66          1
    67         19
    68          2
    69        780
    70         32
    71          6
    73          1
    77          3
    78          1
    79          8
    80          2
    81          5
    82          5
    83         28
    84          3
    85          1
    87         16
    95          7
    96        116
    97         21
    98          2
   107          8
   108          1
   109          2
   111          2
   114          1
   115        224
   116          9
   117          2
   123          1
   124          8
   125        435
   126         35
   127          4
   134          1
   135          1
   142          6
   152          9
   153          7
   155         39
   156          3
   170        372
   171         51
   172          6