##TITLE=Library Entry 82426
##JCAMP-DX=Revision 4.10 
##DATA TYPE=MASS SPECTRUM
##SAMPLE DESCRIPTION=A.A.Kutin, Moscow, Russia
##NAMES=HP
##CAS NAME=Ethanamine, 2-(2,6-dinitrophenylthio)-N-phenyl-
##MOLFORM=C14H13N3O4S
##CAS REGISTRY NO=80887-92-9
##MP= -300
##BP= -300
##MW= 319
##$RETENTION INDEX=0
##$CONDENSED SPECTRUM=NO
##NPOINTS= 174
##XYDATA=(XY..XY) 1 
    33          1
    34          1
    35          0
    36          0
    37          4
    38         10
    39         43
    40         11
    41          8
    42         10
    43          3
    44         15
    45         19
    46          3
    47          2
    48          2
    50         19
    51         59
    52         14
    53          6
    54          3
    55          1
    56          0
    57          1
    58          3
    59          3
    60          1
    61          3
    62          9
    63         33
    64         16
    65         66
    66         12
    67          2
    69         22
    70          3
    71          2
    72          0
    74         13
    75         40
    77        186
    78         35
    79         48
    80          7
    81          6
    82          4
    83          2
    84          1
    85          0
    86          0
    87          0
    88          1
    89          6
    90          9
    91         44
    92         25
    93         17
    94          5
    95          6
    96          3
    97          1
    98          0
    99          0
   100          0
   101          0
   102          2
   103          9
   104         31
   106        999
   107         68
   108          5
   109          3
   110          1
   111          0
   112          0
   113          0
   114          0
   115          0
   116          2
   117         11
   118         47
   119         20
   120         16
   121          5
   122          2
   123          6
   124          3
   125          0
   126          0
   127          0
   128          0
   129          0
   130          0
   131          0
   132          0
   133          1
   134          5
   135          2
   136          2
   137          1
   138          2
   139          1
   140          1
   141          0
   146          0
   147          0
   148          0
   149          0
   150          1
   151          1
   152          2
   153          1
   154          1
   155          0
   159          0
   163          0
   164          0
   165          1
   166          1
   167          3
   168          0
   169          0
   170          0
   171          0
   172          0
   178          0
   179          0
   180          1
   181          1
   183          6
   184          1
   185          0
   186          0
   191          0
   192          0
   193          0
   194          1
   195          0
   196          0
   197          0
   198          0
   199          1
   200          0
   206          0
   207          0
   208          0
   209          0
   210          0
   211          0
   212          0
   213          0
   214          0
   215          0
   223          0
   224          0
   225          0
   226          0
   227          0
   239          0
   240          0
   242          0
   261          0
   272          0
   282          0
   283          0
   287          0
   289          1
   290          0
   315          0
   316          1
   319         62
   320         10
   321          3
   322          0