##TITLE=Library Entry 52066
##JCAMP-DX=Revision 4.10 
##DATA TYPE=MASS SPECTRUM
##SAMPLE DESCRIPTION=T.Hofmann ET AL.JAFC, 46,2721(1998)
##NAMES=HP
##CAS NAME=2-Propionyl-3,4,5,6-tetrahydropyridine
##MOLFORM=C8H13NO
##CAS REGISTRY NO=80933-75-1
##MP= -300
##BP= -300
##MW= 139
##$RETENTION INDEX=1148
##$CONDENSED SPECTRUM=NO
##NPOINTS= 30
##XYDATA=(XY..XY) 1 
    39         96
    41        186
    42         27
    51         17
    52         47
    53         87
    54        845
    55        675
    56         67
    57        746
    68         57
    79         17
    80         57
    82        815
    83        999
    84        146
    85          6
    93          6
    96         75
    98          6
   106          6
   110        247
   111        287
   122         28
   124        258
   125         96
   136          8
   138        116
   139        827
   140         57