##TITLE=Library Entry 22304
##JCAMP-DX=Revision 4.10 
##DATA TYPE=MASS SPECTRUM
##SAMPLE DESCRIPTION=A.A.Kutin, Moscow, Russia
##NAMES=HP
##CAS NAME=4-Ethyl-4-methyl-5-methylene-[1,3]dioxolan-2-one
##MOLFORM=C7H10O3
##CAS REGISTRY NO=80956-52-1
##MP= -300
##BP= -300
##MW= 142
##$RETENTION INDEX=0
##$CONDENSED SPECTRUM=NO
##NPOINTS= 29
##XYDATA=(XY..XY) 1 
    39         83
    40         18
    41        177
    42        112
    43        154
    44         19
    45          3
    51         12
    52          3
    53         38
    54         23
    55        279
    56        999
    57         49
    67          4
    69         27
    70        103
    71          5
    73         22
    79         10
    81          2
    83         68
    85          6
    91          4
    97         20
    98         43
   113         16
   119          1
   142         15