##TITLE=Library Entry 43475
##JCAMP-DX=Revision 4.10 
##DATA TYPE=MASS SPECTRUM
##SAMPLE DESCRIPTION=A. Brossi, LAC, NIDDK, NIH, Bethesda, MD 20892
##NAMES=HP
##CAS NAME=Morphinan-6-one, N-formyl-4-methoxy-
##MOLFORM=C18H21NO3
##CAS REGISTRY NO=80993-51-7
##MP= -300
##BP= -300
##MW= 299
##$RETENTION INDEX=0
##$CONDENSED SPECTRUM=NO
##NPOINTS= 194
##XYDATA=(XY..XY) 1 
    41        104
    42         87
    43         84
    44         53
    45         38
    46         32
    47          1
    50          9
    51         39
    52         16
    53         42
    54         29
    55        154
    56         39
    57         19
    58        266
    59         16
    60          2
    61          2
    62          5
    63         29
    64         14
    65         43
    66          1
    67         31
    68         31
    69         13
    70         11
    71         14
    72          7
    73        999
    74         40
    75         12
    76         18
    77         75
    78         33
    79         23
    80         15
    81          8
    82         16
    83         17
    84         12
    85         10
    86          6
    87          5
    88          5
    89         26
    90         14
    91         62
    92         14
    93         16
    94         12
    95          5
    96          3
    97          6
    98          6
    99          4
   100          8
   101          9
   102         23
   103         26
   104         13
   105         15
   106         10
   107         12
   108          8
   109          1
   110          2
   111          1
   112          1
   113          8
   114          2
   115        170
   116         32
   117         19
   118          8
   119          5
   120          3
   121         16
   122          6
   123          1
   124          1
   125          1
   126         10
   127         62
   128         94
   129         56
   130         17
   131         23
   132          9
   133          5
   134          3
   136         10
   138          1
   139         22
   140         11
   141         98
   142         23
   143         21
   144         20
   145         21
   146         10
   147          6
   148          6
   149          2
   150          7
   151          9
   152         36
   153         38
   154         25
   155         38
   156         30
   157         36
   158         27
   159         18
   160         15
   161          2
   162          1
   163          1
   164          2
   165         38
   166         14
   167         34
   168         19
   169         38
   170         25
   171        241
   172         44
   173         12
   174          5
   175          0
   176          2
   177          6
   178          7
   179          7
   180          5
   181         14
   182         17
   183         28
   184         29
   185         27
   186          9
   187          3
   188          2
   189          1
   190          1
   191          6
   192          1
   193          1
   194         16
   195          9
   196         12
   197         54
   198         22
   199         30
   200          7
   201          1
   208         11
   209         45
   210         19
   211         21
   212         13
   213         10
   214          9
   215          1
   216          1
   222          1
   223         18
   224          9
   225          3
   226        101
   227        333
   228         61
   229          8
   236          6
   237          1
   239          3
   240          3
   241         17
   242          7
   243          1
   253          2
   254         62
   255         12
   256          1
   257          2
   267         27
   268          9
   269          1
   270          2
   281          2
   299        222
   300         49
   301          6