##TITLE=Library Entry 73196
##JCAMP-DX=Revision 4.10 
##DATA TYPE=MASS SPECTRUM
##SAMPLE DESCRIPTION=Chemical Concepts
##NAMES=HP
##CAS NAME=Acetic acid, [2-[2-(diethylamino)-2-oxoethoxy]ethoxy]-
##MOLFORM=C10H19NO5
##CAS REGISTRY NO=80994-20-3
##MP= -300
##BP= -300
##MW= 233
##$RETENTION INDEX=0
##$CONDENSED SPECTRUM=NO
##NPOINTS= 72
##XYDATA=(XY..XY) 1 
    26          4
    27         50
    28         74
    29        226
    30         56
    31         73
    36          2
    39          2
    41         18
    42         74
    43         63
    44        186
    45        288
    46          8
    52          1
    54          3
    55          6
    56         64
    57         27
    58         89
    59         15
    60          4
    61         12
    69          3
    70         16
    71         27
    72        591
    73         27
    74         11
    75         15
    77          1
    83          1
    84          5
    85         16
    86         59
    87         21
    88          4
    89          3
   100        999
   101         61
   102         24
   103        120
   104          6
   105          2
   113          8
   114         98
   115        176
   116         20
   117          2
   126          2
   128          3
   129         25
   130         97
   131         28
   132         14
   133          6
   140          6
   142          2
   144         25
   145          2
   157        238
   158         55
   159          8
   165          1
   174          2
   188          2
   189          2
   190          5
   204          1
   218          2
   233          1
   234          3