##TITLE=Library Entry 46396
##JCAMP-DX=Revision 4.10 
##DATA TYPE=MASS SPECTRUM
##SAMPLE DESCRIPTION=NIST Mass Spectrometry Data Center, 1998.
##NAMES=HP
##CAS NAME=Saccharin
##MOLFORM=C7H5NO3S
##CAS REGISTRY NO=81-07-2
##MP= -300
##BP= -300
##MW= 183
##$RETENTION INDEX=0
##$CONDENSED SPECTRUM=NO
##NPOINTS= 102
##XYDATA=(XY..XY) 1 
    26          6
    27         14
    29         16
    30          2
    31          3
    32          3
    36          2
    37         37
    38         74
    39         62
    40          6
    41         46
    42         12
    43         59
    44         11
    45         28
    47          7
    48         39
    49         37
    50        670
    51         67
    52         53
    53         21
    54          5
    55         35
    56          8
    57         38
    58          9
    59          3
    60         62
    61         34
    62         41
    63        154
    64        164
    65         39
    66          5
    67          5
    68          5
    69         53
    70         27
    71         24
    72          3
    73         96
    74        247
    75        178
    76        999
    77         85
    78         17
    79          6
    80          1
    81         12
    82         11
    83         13
    84         52
    85          8
    86          2
    87         12
    88          2
    89          1
    90         31
    91         86
    92        446
    93         38
    94          2
    95         18
    96         22
    97          8
    98          5
    99          3
   101          5
   102          3
   103        205
   104        254
   105         23
   106         11
   107          2
   108          2
   110          3
   111          3
   112         22
   113          1
   115          9
   119        534
   120        490
   121         52
   122         20
   123          2
   129         30
   130          2
   133          6
   135          1
   139          2
   140         85
   141          5
   142          3
   143          6
   151          5
   152          1
   183        879
   184         82
   185         52
   186          1