##TITLE=Library Entry 31752
##JCAMP-DX=Revision 4.10 
##DATA TYPE=MASS SPECTRUM
##SAMPLE DESCRIPTION=Japan AIST/NIMC Database- Spectrum MS-NW-8875
##NAMES=HP
##CAS NAME=4,4'-Diaminostilbene-2,2'-disulfonic acid
##MOLFORM=C14H14N2O6S2
##CAS REGISTRY NO=81-11-8
##MP= -300
##BP= -300
##MW= 370
##$RETENTION INDEX=0
##$CONDENSED SPECTRUM=NO
##NPOINTS= 186
##XYDATA=(XY..XY) 1 
    24          2
    26          4
    27         17
    28        132
    29         10
    30          9
    31          7
    32         51
    33         14
    34         46
    36          8
    37          6
    38         17
    39         69
    40         19
    41         31
    42         12
    43         15
    44        244
    45          8
    46         12
    47          2
    48        400
    49          4
    50         26
    51         23
    52         23
    53         16
    54         17
    55          9
    56          4
    57          8
    58          2
    60          9
    61          5
    62         11
    63         29
    64        999
    65        143
    66        184
    67         21
    68          3
    69          7
    70          4
    71          4
    73          5
    74          5
    75          5
    76          9
    77         23
    78         14
    79         10
    80         34
    81         16
    82          7
    83          5
    84          4
    85          2
    87          2
    88          2
    89         11
    90         16
    91         26
    92         86
    93        337
    94         24
    95          4
    96          5
    97          6
    98          4
    99          2
   101          2
   102          3
   103          4
   104         20
   105         29
   106         49
   107         26
   108          6
   109         24
   110          3
   111          2
   112          2
   113          2
   114          2
   115          6
   116          5
   117         18
   118         10
   119          8
   120          9
   121          4
   123          2
   124          3
   125         14
   126          4
   127          6
   128          4
   129          2
   130          4
   131          2
   135          2
   136          3
   137          2
   139          5
   140          4
   141          5
   142          2
   143          4
   149          2
   150          2
   151          8
   152          8
   153          6
   154          5
   155          2
   156          2
   157          2
   163          3
   164          5
   165         22
   166          8
   167         12
   168          7
   169          2
   173         78
   174          7
   175          5
   176          3
   177          6
   178          7
   179          5
   180         19
   181          8
   182          7
   183          3
   184          2
   185          3
   187          5
   190          5
   191          9
   192         19
   193         27
   194         19
   195         37
   196          7
   197          2
   199          2
   205          3
   206          3
   207          6
   208         33
   209         40
   210        182
   211         30
   212          5
   218          3
   219          3
   220          4
   221          3
   222          3
   223          4
   224         12
   225          4
   226          5
   227          5
   233          2
   234          3
   236          4
   237          2
   238          2
   239          3
   240         17
   241          3
   242          3
   253          3
   254         10
   255          3
   256          8
   270          3
   278          2
   288          5
   290          5
   311          2
   325          4
   326          2