##TITLE=Library Entry 19374
##JCAMP-DX=Revision 4.10 
##DATA TYPE=MASS SPECTRUM
##SAMPLE DESCRIPTION=D.HENNEBERG, MAX-PLANCK INSTITUTE, MULHEIM, WEST GERMAN
Y
##NAMES=HP
##CAS NAME=Cholic acid
##MOLFORM=C24H40O5
##CAS REGISTRY NO=81-25-4
##MP= -300
##BP= -300
##MW= 408
##$RETENTION INDEX=0
##$CONDENSED SPECTRUM=NO
##NPOINTS= 315
##XYDATA=(XY..XY) 1 
    27        103
    28         43
    29        323
    31         62
    39         73
    41        666
    42         49
    43        549
    44         32
    45         88
    53        147
    54         35
    55        999
    56         79
    57        233
    59        101
    60        132
    65         52
    67        490
    68        105
    69        287
    70         62
    71        115
    73         40
    77        161
    78         39
    79        396
    80         86
    81        628
    82         89
    83        249
    84         87
    85         96
    91        346
    92         75
    93        495
    94        177
    95        453
    96         67
    97        104
    99         55
   101         49
   103         23
   105        366
   106        103
   107        379
   108        103
   109        258
   110         51
   111         59
   115         33
   116         20
   117        100
   118         68
   119        244
   120         89
   121        230
   122         62
   123         97
   124         26
   125         30
   127         32
   128         28
   129         62
   130         31
   131        171
   132         60
   133        200
   134         63
   135        124
   136         32
   137         48
   138         13
   139         17
   140         23
   141         33
   142         35
   143        135
   144         62
   145        252
   146         68
   147        169
   148         43
   149         60
   150         18
   151         25
   153         16
   154         11
   155         46
   156         24
   157        135
   158         65
   159        173
   160         55
   161         96
   162         36
   163         52
   164         21
   165         28
   166          9
   167         15
   168          9
   169         51
   170         26
   171        106
   172         68
   173        104
   174         36
   175         53
   176         18
   177         28
   178         13
   179         12
   180         11
   181         41
   182         19
   183         51
   184         25
   185         86
   186         30
   187         64
   188         20
   189         34
   190         19
   191         16
   192          9
   193         24
   194         28
   195         30
   196         12
   197         73
   198         36
   199        112
   200         40
   201        106
   202         27
   203         30
   204         11
   205         12
   206          5
   207         13
   208          6
   209         24
   210         10
   211        106
   212         45
   213         74
   214         34
   215         81
   216         38
   217         43
   218         17
   219         14
   220          7
   221          8
   222          4
   223         12
   224          8
   225         37
   226        213
   227        134
   228         41
   229         88
   230         26
   231         30
   232         23
   233         34
   234         13
   235         17
   236         14
   237         17
   238          9
   239         18
   240         12
   241         14
   242          6
   243         22
   244         90
   245         55
   246         77
   247        198
   248         56
   249         25
   250          9
   251         15
   252         14
   253        527
   254        116
   255         36
   256          8
   257         11
   258         15
   259         27
   260         33
   261         22
   262         12
   263         11
   264          8
   265         11
   266          5
   267          6
   268          3
   269         13
   270          9
   271        625
   272        141
   273         27
   274          9
   275          5
   276          4
   277          4
   278          7
   279         11
   280          4
   281         47
   282         14
   283         12
   284          4
   285          8
   286          6
   287         10
   288          8
   289         68
   290         19
   291          5
   292          1
   293          6
   294          6
   295         15
   296          5
   297         14
   298          9
   299         50
   300         90
   301         26
   302         11
   303          6
   304          3
   305          2
   306          1
   307          3
   308          3
   309          3
   310          1
   311         10
   312         12
   313         39
   314         14
   315         12
   316          5
   317          8
   318         13
   319          3
   320          2
   321         12
   322          5
   323          2
   325         12
   326         11
   327          6
   328          8
   329         20
   330         11
   331         12
   332          3
   333          1
   334          1
   335          2
   336         10
   337         18
   338         10
   339        128
   340         35
   341         25
   342         10
   343        191
   344         56
   345         11
   346          5
   347          4
   348          1
   349          4
   350          1
   353         13
   354        346
   355         99
   356         24
   357        112
   358         31
   359          8
   360          2
   361         12
   362          5
   363          1
   364          0
   365          0
   367          0
   368          1
   369          1
   370          4
   371          8
   372        598
   373        167
   374         28
   375         11
   376          2
   377          0
   388          2
   389          0
   390         31
   391          9
   392          1
   406          0
   408          8
   409          1