##TITLE=Library Entry 48792
##JCAMP-DX=Revision 4.10 
##DATA TYPE=MASS SPECTRUM
##SAMPLE DESCRIPTION=NIST Mass Spectrometry Data Center, 1998.
##NAMES=HP
##CAS NAME=Benzene, 1,3-dimethyl-2-nitro-
##MOLFORM=C8H9NO2
##CAS REGISTRY NO=81-20-9
##MP= -300
##BP= -300
##MW= 151
##$RETENTION INDEX=1197
##$CONDENSED SPECTRUM=NO
##NPOINTS= 81
##XYDATA=(XY..XY) 1 
    15          2
    26          8
    27         65
    29          9
    30         42
    31          3
    37         11
    38         34
    39        212
    40         20
    41         38
    42          3
    43         22
    44          1
    45          1
    46         16
    47          1
    49          7
    50        109
    51        268
    52        101
    53        129
    54         12
    55          7
    60          2
    61         20
    62         65
    63        184
    64         45
    65        150
    66         39
    67         25
    68          4
    73          7
    74         43
    75         38
    76         46
    77        974
    78        315
    79        999
    80         78
    81         10
    82          2
    84          1
    85          3
    86         13
    87         15
    88          4
    89         76
    90         22
    91        193
    92         35
    93         19
    94          8
    95          1
    97          1
    98          6
    99          2
   100          1
   101          8
   102         67
   103        419
   104        169
   105        246
   106        444
   107         70
   108          5
   116         13
   117          5
   118          7
   119          7
   120          4
   121         18
   122          3
   132         10
   134        822
   135         77
   136          6
   151        319
   152         29
   153          3