##TITLE=Library Entry 80137
##JCAMP-DX=Revision 4.10 
##DATA TYPE=MASS SPECTRUM
##SAMPLE DESCRIPTION=J.E. WILKINSON S-CUBED, SAN DIEGO, CA.
##NAMES=HP
##CAS NAME=Benzamide, N-(4-chloro-9,10-dihydro-9,10-dioxo-1-anthracenyl)-
##MOLFORM=C21H12ClNO3
##CAS REGISTRY NO=81-45-8
##MP= -300
##BP= -300
##MW= 361
##$RETENTION INDEX=0
##$CONDENSED SPECTRUM=NO
##NPOINTS= 59
##XYDATA=(XY..XY) 1 
    49          0
    50         10
    51         66
    52          0
    57          0
    74          2
    75          5
    76         26
    77        427
    78         26
    84          0
    86          0
    87          1
    88          3
    89          0
    90          0
    97          0
    98          0
   105        999
   106         73
   107          1
   111          0
   112          0
   113          0
   123          0
   124          0
   125          0
   126          0
   135          0
   137         11
   138         18
   139          4
   141          0
   144          0
   147          0
   149          1
   150          7
   151          0
   152          0
   164         31
   165          7
   166          0
   167          0
   173         15
   174          0
   175          3
   177          0
   193          1
   200         10
   201          1
   202          1
   203          0
   209          0
   258          0
   326          0
   361        101
   362         19
   363         33
   364          2