##TITLE=Library Entry 78623
##JCAMP-DX=Revision 4.10 
##DATA TYPE=MASS SPECTRUM
##SAMPLE DESCRIPTION=A.A.Kutin, Moscow, Russia
##NAMES=HP
##CAS NAME=Benzamide, N-(4-amino-9,10-dihydro-9,10-dioxo-1-anthracenyl)-
##MOLFORM=C21H14N2O3
##CAS REGISTRY NO=81-46-9
##MP= -300
##BP= -300
##MW= 342
##$RETENTION INDEX=0
##$CONDENSED SPECTRUM=NO
##NPOINTS= 149
##XYDATA=(XY..XY) 1 
    33          7
    34          1
    35          1
    37          8
    38         12
    39         53
    41          6
    42          5
    43         12
    44          7
    46          1
    47          1
    51        329
    53         41
    54          6
    55          4
    56          3
    57          1
    58          0
    60          0
    62         13
    63         20
    64          7
    65          8
    66          1
    67          1
    68          1
    69          1
    70          1
    71          0
    74         27
    75         40
    77        793
    79          8
    80          1
    81          0
    82          1
    83          2
    84          0
    85          1
    86          4
    87          7
    88          5
    89          8
    90          6
    91          3
    93          2
    94          0
    95          1
    96          0
    98          1
    99          7
   100          7
   101         22
   102         13
   105        999
   107          3
   108          0
   109          0
   110          1
   111          3
   112          1
   113          6
   114          4
   115          3
   116          1
   117          0
   118          0
   119          1
   120          0
   121          0
   122          1
   123          6
   124          2
   126         26
   127         46
   128         16
   129          7
   130          1
   131          1
   132          0
   133          1
   134          0
   135          0
   137          2
   138          8
   139         10
   140          6
   141          1
   142          0
   143          0
   148          0
   149          0
   150          2
   152         10
   153         17
   154         22
   155          6
   156          3
   157          0
   159          0
   160          0
   161          0
   164         14
   165          3
   166          2
   167          1
   168          0
   176          0
   177          0
   179          7
   180          3
   181         11
   182         34
   183          6
   184          0
   189          0
   190          0
   191          1
   192          3
   193          0
   194          0
   206          2
   207          1
   209         27
   210          8
   211          1
   220          0
   222          0
   233          0
   234          2
   237         51
   238         14
   239         14
   240          2
   241          0
   255          0
   265          0
   324          0
   325          0
   327          1
   328          0
   336          0
   337          5
   339          7
   340          8
   342         85
   343         17
   344          2