##TITLE=Library Entry 1355
##JCAMP-DX=Revision 4.10 
##DATA TYPE=MASS SPECTRUM
##SAMPLE DESCRIPTION=RADIAN CORP
##NAMES=HP
##CAS NAME=9,10-Anthracenedione, 1,8-dihydroxy-4,5-dinitro-
##MOLFORM=C14H6N2O8
##CAS REGISTRY NO=81-55-0
##MP= -300
##BP= -300
##MW= 330
##$RETENTION INDEX=0
##$CONDENSED SPECTRUM=NO
##NPOINTS= 130
##XYDATA=(XY..XY) 1 
    30        999
    36         35
    37         22
    38         53
    46        152
    49         29
    50         89
    51        164
    52        116
    53        207
    62        557
    63        786
    64        152
    74        318
    75        427
    76        311
    77        111
    78        137
    79         78
    80        181
    86        261
    87        215
    88        287
    89         90
    90        196
    91        396
    92        176
    98         65
    99        274
   100        247
   101         71
   102         69
   103         27
   104        180
   106        349
   107         73
   110         73
   113        241
   114        435
   116        133
   117         15
   118         56
   119         76
   120        125
   122        174
   123        180
   124         68
   125        125
   126        846
   127         84
   128         53
   131          3
   132        180
   133         46
   134         76
   135         93
   136        142
   137          2
   138          3
   140         18
   141         22
   142        887
   143         77
   144        153
   145         17
   146         17
   150         95
   151         77
   152          6
   153         86
   154        201
   155         26
   156         63
   158        109
   159          4
   160         59
   164         36
   165         20
   166         20
   168         30
   169        122
   170        365
   171         22
   172        127
   173         33
   174         40
   176        198
   177         29
   178          5
   180          8
   181         74
   182        157
   183         37
   184         97
   186        359
   187         63
   188        110
   189          2
   192         12
   197         60
   198        356
   199         42
   200         91
   201         20
   202         32
   210         50
   211         22
   212         29
   214        187
   215         33
   216         40
   218         36
   226         84
   227        120
   228        166
   229         38
   232         51
   239         32
   240         31
   242         51
   246          4
   254         72
   255         76
   256          7
   284          2
   300         58
   314         26
   330        880
   331        146
   332         22