##TITLE=Library Entry 70020
##JCAMP-DX=Revision 4.10 
##DATA TYPE=MASS SPECTRUM
##SAMPLE DESCRIPTION=NIST Mass Spectrometry Data Center
##NAMES=HP
##CAS NAME=6-Undecyl-5,6-dihydro-2H-pyran-2-one
##MOLFORM=C16H28O2
##CAS REGISTRY NO=81017-06-3
##MP= -300
##BP= -300
##MW= 252
##$RETENTION INDEX=2123
##$CONDENSED SPECTRUM=NO
##NPOINTS= 63
##XYDATA=(XY..XY) 1 
    27         16
    29         51
    39         88
    40         65
    41        274
    42         61
    43        189
    44         19
    53         29
    54         39
    55        248
    56         64
    57        115
    67        128
    68        524
    69        286
    70         63
    71         49
    79         32
    80         58
    81        127
    82         56
    83        100
    84         46
    85         30
    86         95
    93         30
    94         83
    95        105
    96         90
    97        999
    98         74
    99         71
   100         11
   107         34
   108         47
   109         58
   110         24
   111         52
   112         38
   113         19
   121         27
   122         32
   123         26
   124         18
   125         40
   126         27
   127         18
   133         12
   135         32
   136         27
   138         14
   139         29
   140         22
   149         19
   150         40
   153         15
   154         13
   164         11
   167         11
   192         43
   193         10
   252          8