##TITLE=Library Entry 53659
##JCAMP-DX=Revision 4.10 
##DATA TYPE=MASS SPECTRUM
##SAMPLE DESCRIPTION=NIST Mass Spectrometry Data Center
##NAMES=HP
##CAS NAME=N.alpha.-Acetyl-L-lysine-N-methylamide
##MOLFORM=C9H19N3O2
##CAS REGISTRY NO=81013-00-5
##MP= -300
##BP= -300
##MW= 201
##$RETENTION INDEX=0
##$CONDENSED SPECTRUM=NO
##NPOINTS= 101
##XYDATA=(XY..XY) 1 
    15         26
    17          1
    18         15
    26          2
    27         17
    28         15
    29         20
    30        271
    31         13
    32         89
    33          1
    38          1
    39         15
    40          4
    41         43
    42         82
    43        336
    44        110
    45         13
    46          2
    51          1
    52          2
    53          8
    54         16
    55         41
    56        211
    57         37
    58         92
    59         66
    60         26
    65          3
    66          2
    67         28
    68         15
    69         21
    70         47
    71         11
    72         59
    73         23
    74          3
    80          4
    81          2
    82         54
    83         63
    84        999
    85        106
    86         77
    87         75
    88         28
    89          1
    94          1
    95          3
    96          4
    97          6
    98         32
    99         43
   100         30
   101         29
   102          4
   109          1
   110          9
   111          4
   112         40
   113         18
   114         44
   115         14
   116          2
   123          4
   124          2
   125         10
   126         18
   127         29
   128         24
   129         79
   130         39
   131          2
   140          2
   141         70
   142         17
   143         84
   144         18
   145          1
   152          2
   153          2
   154          1
   155          1
   156          3
   157          6
   158          7
   159          1
   166          3
   169          1
   170         52
   171          5
   172         28
   173          2
   183          3
   184          7
   185          4
   201          5
   202          1