##TITLE=Library Entry 57830
##JCAMP-DX=Revision 4.10 
##DATA TYPE=MASS SPECTRUM
##SAMPLE DESCRIPTION=Chemical Concepts
##NAMES=HP
##CAS NAME=Carbamothioic acid, dimethyl-, O,O'-[1,1'-biphenyl]-2,2'-diyl est
er
##MOLFORM=C18H20N2O2S2
##CAS REGISTRY NO=81056-07-7
##MP= -300
##BP= -300
##MW= 360
##$RETENTION INDEX=0
##$CONDENSED SPECTRUM=NO
##NPOINTS= 186
##XYDATA=(XY..XY) 1 
    26          0
    27          5
    28          7
    29          2
    30          1
    33          0
    39          6
    40          2
    41          3
    42         51
    43          5
    44         41
    45          7
    46          2
    47         21
    48          0
    49          1
    50          1
    51          4
    52          0
    53          0
    54          0
    55          1
    56         35
    57          1
    58          0
    59          1
    60          1
    61          8
    62          2
    63          7
    64          0
    65          1
    68          0
    69          0
    70          0
    71          0
    72        570
    73         68
    74          8
    75          5
    76          8
    77          4
    78          1
    79          0
    81          1
    82          0
    86          1
    87          6
    88        999
    89         50
    90         45
    91          2
    92          0
    97          0
    98          1
    99          1
   100          0
   101          3
   102          7
   103          0
   104          2
   105          0
   109          0
   111          0
   113          4
   114          5
   115          6
   116          7
   117          0
   118          0
   119          0
   120          0
   121          0
   122          0
   124          0
   125          0
   126          4
   127          8
   128          4
   129          1
   130          0
   131          0
   132          3
   133          0
   134          0
   135          0
   136          0
   137          1
   138          1
   139         40
   140          5
   141          3
   142          0
   143          1
   144          0
   145          0
   146          0
   147          0
   148         38
   149          2
   150          3
   151          4
   152          8
   153          2
   154          0
   155          1
   156          0
   158          1
   159          0
   161          0
   163          0
   164          0
   165          1
   166          1
   167          1
   168         13
   169          5
   170          1
   171          7
   172          2
   173          0
   176        114
   177         12
   178          5
   179          1
   180          8
   181          3
   182          1
   183          2
   184        103
   185         16
   186          6
   187          1
   191          1
   192          0
   194          1
   195          3
   196          9
   197          3
   198          1
   199          3
   200          1
   201          0
   207          0
   208          3
   209          0
   210          0
   211          1
   212          2
   213          1
   214          0
   215          7
   216          9
   217          3
   218          0
   222          0
   223          0
   224          8
   225          1
   226          0
   229          0
   231          1
   240         18
   241          2
   242          0
   243          1
   255          0
   256         23
   257          3
   258          1
   259          0
   260          1
   270          0
   272          2
   273          0
   288         29
   289          4
   290          5
   291          0
   299          2
   360        105
   361         26
   362         13
   363          1
   364          0