##TITLE=Library Entry 51247
##JCAMP-DX=Revision 4.10 
##DATA TYPE=MASS SPECTRUM
##SAMPLE DESCRIPTION=Chemical Concepts
##NAMES=HP
##CAS NAME=Cyclopropane, 2-(1,1-dimethyl-2-propenyl)-1,1-dimethyl-
##MOLFORM=C10H18
##CAS REGISTRY NO=81051-15-2
##MP= -300
##BP= -300
##MW= 138
##$RETENTION INDEX=0
##$CONDENSED SPECTRUM=NO
##NPOINTS= 73
##XYDATA=(XY..XY) 1 
    27        224
    28         12
    29        119
    30          3
    31          0
    37          2
    38         10
    39        249
    40         44
    41        753
    42         54
    43         89
    44          0
    45          0
    46          0
    47          0
    48          0
    49          0
    50         11
    51         38
    52         19
    53        138
    54         71
    55        150
    56         24
    57         17
    58          1
    59          0
    61          0
    62          2
    63          8
    64          1
    65         41
    66         21
    67        991
    68         69
    69        391
    70         53
    71          2
    74          0
    75          0
    76          1
    77         44
    78          9
    79         60
    80         12
    81        202
    82        999
    83         70
    84         17
    85          1
    89          1
    90          0
    91         28
    92          4
    93         22
    94          5
    95        100
    96         10
    97          1
   103          1
   104          0
   105          4
   106          0
   107          5
   108          3
   109          7
   110          1
   111          2
   112          0
   121          1
   123         23
   124          2