##TITLE=Library Entry 19141
##JCAMP-DX=Revision 4.10 
##DATA TYPE=MASS SPECTRUM
##SAMPLE DESCRIPTION=Chemical Concepts
##NAMES=HP
##CAS NAME=Zinc, bis(4-methyl-4-pentenyl)-
##MOLFORM=C12H22Zn
##CAS REGISTRY NO=81069-80-9
##MP= -300
##BP= -300
##MW= 230
##$RETENTION INDEX=0
##$CONDENSED SPECTRUM=NO
##NPOINTS= 97
##XYDATA=(XY..XY) 1 
    27        321
    28         64
    29        348
    30          9
    31         21
    37         16
    38         34
    39        399
    40         99
    41        670
    42        145
    43        124
    44         12
    45         13
    49          4
    50         26
    51         39
    52         17
    53        128
    54         83
    55        999
    56        525
    57        115
    58          5
    59          3
    61          3
    63          8
    64         20
    65         24
    66         14
    67        234
    68         57
    69        179
    70         23
    71         19
    72         16
    73          6
    77         14
    78          6
    79         25
    80          9
    81         59
    82         67
    83         60
    84        126
    85         23
    91          6
    92          3
    93          4
    94          3
    95         46
    96          5
    97          7
    98          6
    99          4
   100          4
   105          3
   107          3
   109          9
   110         10
   111          6
   113          6
   114          6
   115         16
   116          5
   117         10
   119        252
   120         14
   121        144
   122         29
   123         92
   124          8
   132          7
   133         10
   138          2
   143          3
   146          3
   147        323
   148         34
   149        185
   150         40
   151        123
   152          9
   153          6
   175          3
   177          3
   189          7
   198          4
   199          4
   202         22
   204         14
   205          3
   206          9
   230         15
   231          2
   232          6
   234          3