##TITLE=Library Entry 50715
##JCAMP-DX=Revision 4.10 
##DATA TYPE=MASS SPECTRUM
##SAMPLE DESCRIPTION=D.HENNEBERG, MAX-PLANCK INSTITUTE, MULHEIM, WEST GERMAN
Y
##NAMES=HP
##CAS NAME=Zinc, bis(2,2-dimethyl-3(cis)-(1-methylprop-2-enyl)-cyclopropyl)-
##MOLFORM=C18H30Zn
##CAS REGISTRY NO=81069-88-7
##MP= -300
##BP= -300
##MW= 310
##$RETENTION INDEX=0
##$CONDENSED SPECTRUM=NO
##NPOINTS= 130
##XYDATA=(XY..XY) 1 
    26          0
    27        102
    29        141
    30          3
    37          1
    38          2
    39        102
    40         23
    41        420
    42         23
    43        377
    44         11
    45          0
    47          0
    48          0
    49          0
    50          3
    51         18
    52         10
    53        135
    54         17
    55        313
    56         20
    57        147
    58          6
    59          0
    61          0
    62          0
    63          4
    64          5
    65         42
    66         19
    67        234
    68         63
    69        141
    70          8
    71          0
    72          0
    73          1
    74          1
    75          1
    76          1
    77         68
    78         13
    79        120
    80         25
    81        999
    82         75
    83         10
    84          0
    89          1
    90          0
    91         77
    92         12
    93         84
    94         20
    95        137
    96         20
    97          1
   102          0
   103          2
   104          1
   105         17
   106          4
   107        145
   108         35
   109         33
   110          3
   111          0
   112          0
   113          1
   114          1
   115          1
   116          1
   117          1
   118          0
   119          4
   120          1
   121         24
   122        145
   123        918
   124        106
   125          6
   126          0
   128          0
   131          8
   132          0
   133          5
   134          1
   135          3
   136          0
   137          0
   145          2
   146          0
   147          0
   149          0
   159          0
   161          0
   163          0
   173          0
   175          0
   177          4
   178          0
   184          0
   185          0
   186          1
   187        110
   188         16
   189         59
   190         18
   191         41
   192          6
   193          1
   229          0
   241          0
   242          0
   243          0
   255          0
   295          1
   296          0
   297          1
   298          0
   299          0
   310         16
   311          3
   312          9
   313          3
   314          6
   315          1
   316          0