##TITLE=Library Entry 20567
##JCAMP-DX=Revision 4.10 
##DATA TYPE=MASS SPECTRUM
##SAMPLE DESCRIPTION=G.Hallstrom ET.AL.Biomed.Mass Spectrom.,8,514(1981)
##NAMES=HP
##CAS NAME=N-(3-Oxopent-4-enyl)-succinimide
##MOLFORM=C9H11NO3
##CAS REGISTRY NO=81068-31-7
##MP= -300
##BP= -300
##MW= 181
##$RETENTION INDEX=0
##$CONDENSED SPECTRUM=NO
##NPOINTS= 30
##XYDATA=(XY..XY) 1 
    39         20
    40         18
    41         50
    42         41
    43         39
    44         84
    53         17
    54         37
    55        999
    56        180
    57         28
    69         19
    70         31
    81         18
    82        359
    83         45
    84         64
    97         24
    98         53
    99         75
   100         54
   112         54
   124         13
   125         18
   126         88
   127         18
   153         50
   154         33
   181         40
   182         14