##TITLE=Library Entry 42540
##JCAMP-DX=Revision 4.10 
##DATA TYPE=MASS SPECTRUM
##SAMPLE DESCRIPTION=James Shoemaker, St. Louis Online Library of Metabolic
 Mass Spectra
##NAMES=HP
##CAS NAME=3-Hydroxydodecanedioic acid, tris(O-trimethylsilyl)
##MOLFORM=C21H46O5Si3
##CAS REGISTRY NO=81089-39-6
##MP= -300
##BP= -300
##MW= 462
##$RETENTION INDEX=2268
##$CONDENSED SPECTRUM=NO
##NPOINTS= 127
##XYDATA=(XY..XY) 1 
    55         61
    57         10
    59         16
    61          7
    67         48
    68          4
    69         19
    71          8
    72         20
    73        999
    74         91
    75        240
    76         12
    77         16
    79          9
    81         73
    82          6
    83         15
    85          9
    91         15
    93          9
    95         20
    96          3
    97         13
    99         11
   100          7
   101         46
   102          4
   103         23
   105         11
   107         16
   109         23
   111          3
   113          5
   115         15
   116         25
   117         86
   118          7
   119         12
   121          8
   122          2
   123         23
   127          3
   129        106
   130         61
   131         46
   132          8
   133         85
   134          8
   135          7
   136          2
   142          2
   143         57
   144          6
   145          8
   146         11
   147        488
   148         75
   149         70
   150          9
   151         13
   155          3
   156          3
   157         12
   158          3
   159          2
   164          4
   165         14
   169          7
   171          4
   174          3
   175         15
   189         60
   190          9
   191         35
   192         10
   193         29
   203          4
   204         62
   205         11
   206          3
   207          6
   217        106
   218         30
   219          8
   221          2
   225          4
   231          2
   233        119
   234         20
   235          7
   241          2
   243          2
   255          2
   259          2
   267          1
   273          1
   283          2
   287          8
   288          1
   299         15
   300          2
   301          2
   302          9
   303          2
   305          5
   313          1
   315         28
   316          5
   317          3
   319          1
   328          1
   329          1
   331         67
   332         17
   333          4
   344          4
   345          1
   357          8
   358          1
   387          7
   388          1
   405         11
   406         16
   407          4
   447          7
   448          1