##TITLE=Library Entry 77061
##JCAMP-DX=Revision 4.10 
##DATA TYPE=MASS SPECTRUM
##SAMPLE DESCRIPTION=V.G.Zaikin,TIPS,Russian Acad.Sci.Moscow
##NAMES=HP
##CAS NAME=Pentafluoropropionic acid, 2-phenylethyl ester
##MOLFORM=C11H9F5O2
##CAS REGISTRY NO=81089-48-7
##MP= -300
##BP= -300
##MW= 268
##$RETENTION INDEX=0
##$CONDENSED SPECTRUM=NO
##NPOINTS= 55
##XYDATA=(XY..XY) 1 
    26         12
    27         69
    28          5
    29         29
    31         39
    36          6
    37          3
    38         26
    39        145
    40         19
    41         35
    42          2
    43          6
    44         64
    45         25
    47          1
    48          1
    49          1
    50         88
    51        185
    52         15
    53         45
    54         27
    55          2
    57          2
    59          2
    61          5
    62         19
    63         57
    64         15
    65        171
    66         15
    69        115
    73          2
    74         15
    75         15
    76         17
    77        131
    78        108
    79         71
    80          7
    81         17
    89         28
    90         20
    91        765
    92         71
    93          2
   100         17
   101          2
   102         11
   103         95
   104        999
   105        329
   106         29
   119         73