##TITLE=Library Entry 77062
##JCAMP-DX=Revision 4.10 
##DATA TYPE=MASS SPECTRUM
##SAMPLE DESCRIPTION=V.G.Zaikin, TIPS, Russian Acad. Sci.
##NAMES=HP
##CAS NAME=1-Heptafluorobutyryloxy-2-phenylethane
##MOLFORM=C12H9F7O2
##CAS REGISTRY NO=81089-49-8
##MP= -300
##BP= -300
##MW= 318
##$RETENTION INDEX=1157
##$CONDENSED SPECTRUM=NO
##NPOINTS= 60
##XYDATA=(XY..XY) 1 
    39        203
    40         10
    41         49
    43         10
    44         53
    45        430
    46         21
    47         12
    50        125
    51        241
    55          3
    56          3
    57         10
    58         19
    59          8
    60          8
    61         12
    62         42
    63        113
    64         31
    65        310
    66         23
    67         40
    68         14
    69        520
    70         10
    71          3
    74         26
    75         23
    76         19
    77        341
    78        164
    81         26
    87          5
    88          8
    89         62
    90         59
    91        813
    92        138
    93         17
    97          5
    98          3
    99          6
   100        336
   101         28
   102         87
   103        317
   104        999
   105        759
   106         90
   109         24
   118          4
   119        297
   120         12
   131         50
   150        198
   151          4
   169        222
   170          5
   197         10