##TITLE=Library Entry 51233
##JCAMP-DX=Revision 4.10 
##DATA TYPE=MASS SPECTRUM
##SAMPLE DESCRIPTION=G.D. Roberts, E. White V, SmithKline Corp., Phila., PA,
 USA
##NAMES=HP
##CAS NAME=Methanethiol, trifluoro-, silver(1+) salt
##MOLFORM=CAgF3S
##CAS REGISTRY NO=811-68-7
##MP= -300
##BP= -300
##MW= 208
##$RETENTION INDEX=0
##$CONDENSED SPECTRUM=NO
##NPOINTS= 84
##XYDATA=(XY..XY) 1 
    31         72
    32         83
    44         56
    50         90
    63        389
    64         11
    65         22
    69         21
    76         10
    82        999
    83         23
    84         54
   105          1
   107         15
   109         14
   139          1
   141          1
   214          1
   216          3
   218          1
   233          8
   235         16
   237          7
   246          3
   248          6
   250          3
   278          0
   280          1
   282          0
   315          3
   317          6
   319          3
   321          1
   325          2
   327          0
   353          2
   355          6
   357          6
   359          3
   361          3
   363          3
   365          1
   372          0
   374          1
   376          1
   378          0
   441          1
   443          4
   445          4
   447          1
   473          0
   475          0
   477          0
   479          0
   481          0
   483          0
   485          0
   487          0
   489          0
   491          0
   523          0
   525          1
   527          1
   529          0
   567          0
   569          0
   571          0
   573          0
   575          0
   601          0
   603          0
   605          0
   624          0
   626          0
   628          0
   630          0
   649          0
   651          0
   653          0
   655          0
   657          0
   733          0
   735          0
   737          0