##TITLE=Library Entry 17314
##JCAMP-DX=Revision 4.10 
##DATA TYPE=MASS SPECTRUM
##SAMPLE DESCRIPTION=NIST Mass Spectrometry Data Center, 1994
##NAMES=HP
##CAS NAME=Chloro(dimethyl)phosphine
##MOLFORM=C2H6ClP
##CAS REGISTRY NO=811-62-1
##MP= -300
##BP= -300
##MW= 96
##$RETENTION INDEX=0
##$CONDENSED SPECTRUM=NO
##NPOINTS= 44
##XYDATA=(XY..XY) 1 
    12         26
    13         61
    14        155
    15        335
    16          2
    24          1
    25          5
    26         24
    27         91
    29          3
    31         57
    33         18
    34         15
    35         54
    36         18
    37         17
    38          5
    44        399
    45        999
    46         84
    47          7
    48          3
    49          7
    51          2
    55         40
    56        123
    57        329
    58        131
    59        353
    60          2
    61        439
    62          8
    66         78
    67         56
    68         25
    69         19
    78         10
    79         31
    81        915
    83        310
    93          2
    96        788
    98        246
    99          7