##TITLE=Library Entry 31109
##JCAMP-DX=Revision 4.10 
##DATA TYPE=MASS SPECTRUM
##SAMPLE DESCRIPTION=A.Clerici ET AL.Biomed. Mass Spectrom.,9,257(1982)
##NAMES=HP
##CAS NAME=(S)-N,N'-Bis-[2-hydroxy-1-(hydroxymethyl)ethyl]-5-[(2-hydroxy-1-o
xypropyl)amino]-1,3-benzenedicarboxamide
##MOLFORM=C17H25N3O8
##CAS REGISTRY NO=81126-71-8
##MP= -300
##BP= -300
##MW= 399
##$RETENTION INDEX=0
##$CONDENSED SPECTRUM=NO
##NPOINTS= 78
##XYDATA=(XY..XY) 1 
    39        198
    40        111
    41        696
    42        603
    43        988
    44        498
    45        798
    46         22
    50         47
    51        202
    52         40
    53        103
    54        219
    55        727
    56        397
    57        524
    58        174
    59        103
    60        999
    61         61
    67         51
    68         51
    69        200
    70        103
    71         30
    77        320
    78         40
    95         75
    96        223
    97         34
   103         55
   104        200
   105        312
   106         42
   115         97
   116         43
   117        306
   118        121
   119         97
   120         32
   130         36
   131        243
   132        140
   133         28
   142         18
   143        111
   144         55
   145        134
   146         57
   147         63
   148         18
   157         99
   158        152
   159        407
   160        115
   161         61
   184         43
   185        150
   186         99
   187         43
   223         30
   224         34
   230         38
   231         67
   232        174
   233         36
   258        146
   259         89
   260        180
   261         34
   291        425
   292        107
   293         28
   332        992
   333        354
   334         51
   363         93
   364         34