##TITLE=Library Entry 63402
##JCAMP-DX=Revision 4.10 
##DATA TYPE=MASS SPECTRUM
##SAMPLE DESCRIPTION=NINDS, NIH, Bethesda, MD 20892
##NAMES=HP
##CAS NAME=2-Aminoacetic acid, N-diphenylmethylene-, methyl ester
##MOLFORM=C16H15NO2
##CAS REGISTRY NO=81167-39-7
##MP= -300
##BP= -300
##MW= 253
##$RETENTION INDEX=0
##$CONDENSED SPECTRUM=NO
##NPOINTS= 116
##XYDATA=(XY..XY) 1 
    41          8
    42          5
    43          8
    44          2
    45         34
    46          0
    50         12
    51         41
    52          5
    53          1
    55          1
    56          3
    57         12
    58          0
    59         14
    62          5
    63         19
    64          5
    65         50
    66          3
    69         10
    70          7
    71          2
    73          3
    74          5
    75          7
    76         12
    77         62
    78          6
    79          1
    81          1
    82         26
    83         24
    84         10
    86          3
    87          6
    88          5
    89         31
    91        999
    92         77
    93          3
    96          7
    97         26
    98          1
    99          2
   100          4
   101          2
   102          4
   103          4
   104          3
   105         18
   106          1
   110          1
   111          1
   113          6
   114          4
   115         14
   116         17
   117         17
   118         22
   119          2
   121          2
   125          0
   126          5
   127          5
   128          4
   137          3
   138          3
   139         21
   140          4
   141          2
   148         11
   149          2
   150          2
   151          4
   152         13
   153          4
   154          1
   155          1
   162          3
   163         26
   164         33
   165        151
   166         28
   167          6
   169          0
   171          0
   176          7
   177          3
   178          3
   179          4
   180         51
   181          8
   182          0
   190          6
   191          6
   192         28
   193         42
   194        770
   195        124
   196         10
   206          0
   208          0
   209          0
   210          2
   216          0
   219          2
   220          1
   222          2
   236          0
   238          4
   250          1
   252         10
   253        167
   254         32
   255          4