##TITLE=Library Entry 82256
##JCAMP-DX=Revision 4.10 
##DATA TYPE=MASS SPECTRUM
##SAMPLE DESCRIPTION=Japan AIST/NIMC Database- Spectrum MS-IW-7728
##NAMES=HP
##CAS NAME=(+-)-1,2,3,4-Tetraphenyl-1,4-butanedione
##MOLFORM=C28H22O2
##CAS REGISTRY NO=81176-44-5
##MP= -300
##BP= -300
##MW= 390
##$RETENTION INDEX=0
##$CONDENSED SPECTRUM=NO
##NPOINTS= 164
##XYDATA=(XY..XY) 1 
    27          1
    28          1
    39          2
    50          2
    51         17
    52          1
    57          1
    63          3
    65          2
    75          1
    76          5
    77        204
    78         16
    87          1
    88          1
    89          6
    90          2
    91          3
   102          3
   103          1
   104          1
   105        999
   106         78
   107          5
   113          2
   115          5
   118          1
   119          2
   120          1
   125          1
   126          2
   128          1
   130          1
   131          7
   132         10
   133         17
   137          2
   138          4
   139          4
   141          1
   143          3
   144          3
   145          1
   146          2
   147         13
   149          1
   150          8
   151          9
   152          8
   153          2
   155          3
   156          9
   157          6
   158          3
   159          1
   162          5
   163         19
   164          9
   165         63
   166         11
   167          9
   168          9
   169         13
   170          8
   171          7
   172          4
   174          1
   175          4
   176         11
   177         11
   178         32
   179         16
   180         14
   181          2
   183          1
   184          2
   185          3
   186         21
   187          3
   188          2
   189         15
   190          3
   191          2
   193          1
   194          2
   195          5
   196          1
   200          1
   202          2
   207          1
   213          2
   215          1
   223          3
   224          1
   225          1
   226          3
   227          1
   237          3
   238          1
   239          9
   240          3
   241          1
   250          4
   251          2
   252         19
   253          5
   254          1
   255          1
   261          2
   262          1
   263         19
   264          8
   265         62
   266         19
   267        269
   268        239
   269         49
   270          8
   271          1
   276          1
   278          1
   281          1
   283          2
   284          3
   285        104
   286         23
   287          3
   289          1
   293          2
   294          3
   295          2
   300          1
   302          1
   313          2
   315          1
   326          2
   327          2
   328          1
   329          1
   337          2
   339          4
   340          1
   341          2
   342          1
   343          4
   344          4
   345          1
   352          1
   353          1
   354          3
   355          1
   356          1
   357          2
   359          1
   360          1
   370          2
   372        909
   373        279
   374         43
   375          4
   388          2
   390         26
   391          8
   392          1