##TITLE=Library Entry 87023
##JCAMP-DX=Revision 4.10 
##DATA TYPE=MASS SPECTRUM
##SAMPLE DESCRIPTION=Chemical Concepts
##NAMES=HP
##CAS NAME=Ethanesulfonic acid, 2-hydroxy-, methyl ester
##MOLFORM=C3H8O4S
##CAS REGISTRY NO=81171-21-3
##MP= -300
##BP= -300
##MW= 140
##$RETENTION INDEX=0
##$CONDENSED SPECTRUM=NO
##NPOINTS= 68
##XYDATA=(XY..XY) 1 
    24          1
    25          1
    26         26
    27        327
    28          0
    29        273
    30         29
    31        308
    33        234
    34          3
    36          0
    40         18
    41          0
    42         50
    43        344
    44        535
    45        702
    46         70
    47          3
    48         55
    49         16
    50         16
    51          0
    52          1
    61         23
    63         20
    64         28
    65        246
    66          4
    67         13
    72          1
    73          5
    74          1
    76          0
    77          2
    78         28
    79        436
    80        681
    81         32
    82         28
    87          0
    91          4
    92          0
    93          0
    94          2
    95         33
    97        189
    98          3
    99         11
   105          0
   107         59
   108          2
   109         69
   110        999
   111         35
   112         48
   113          2
   114          0
   122          2
   123          2
   127          0
   137          2
   139         44
   140          2
   141         19
   142          0
   143          1
   144          0