##TITLE=Library Entry 23737
##JCAMP-DX=Revision 4.10 
##DATA TYPE=MASS SPECTRUM
##SAMPLE DESCRIPTION=V.Zaikin,Topchiev Inst.Petrochem.Synth.,Moscow
##NAMES=HP
##CAS NAME=Valeric acid, dodecyl ester
##MOLFORM=C17H34O2
##CAS REGISTRY NO=81186-22-3
##MP= -300
##BP= -300
##MW= 270
##$RETENTION INDEX=2834
##$CONDENSED SPECTRUM=NO
##NPOINTS= 96
##XYDATA=(XY..XY) 1 
    27        346
    28         96
    29        603
    30         27
    31         20
    36         10
    37         12
    38         16
    39        225
    40         37
    41        996
    42        266
    43        791
    44         89
    45         31
    47          3
    50          8
    51         21
    52          4
    53         69
    54        123
    55        701
    56        410
    57        999
    58         64
    59         20
    60        112
    61         53
    62          3
    63          5
    65         16
    66         11
    67        109
    68        128
    69        343
    70        275
    71        168
    72         14
    73         70
    74          7
    75         13
    76          5
    77         12
    78          3
    79         15
    81         64
    82        130
    83        307
    84        217
    85        748
    86         43
    87         17
    88          4
    91          9
    93          6
    94          3
    95         22
    96         61
    97        205
    98        132
    99         28
   100          8
   101         26
   102         61
   103        822
   104         53
   105         12
   108          3
   109          5
   110         17
   111         98
   112         62
   113         17
   115         12
   116         23
   117          3
   119          2
   124         15
   125         41
   126         28
   129          9
   130          3
   133          2
   138          5
   139         10
   140         70
   141         10
   143          8
   152          3
   155          4
   158          6
   163          3
   168        104
   169         18
   171          2
   213          2