##TITLE=Library Entry 76563
##JCAMP-DX=Revision 4.10 
##DATA TYPE=MASS SPECTRUM
##SAMPLE DESCRIPTION=Zaikin V.G., TIPS RAS, Moscow, Russia
##NAMES=HP
##CAS NAME=Pentanoic acid, undecyl ester
##MOLFORM=C16H32O2
##CAS REGISTRY NO=81186-23-4
##MP= -300
##BP= -300
##MW= 256
##$RETENTION INDEX=0
##$CONDENSED SPECTRUM=NO
##NPOINTS= 106
##XYDATA=(XY..XY) 1 
    26          8
    27         20
    28          1
    29         50
    36          9
    38          3
    39         23
    40         10
    41        125
    42         40
    43        136
    44         12
    45          4
    51          3
    52          4
    53         11
    54         24
    55        177
    56        150
    57        336
    58         20
    59          5
    60         35
    61         31
    65          3
    66          3
    67         38
    68         56
    69        184
    70        190
    71        103
    72          6
    73         48
    74          4
    75         11
    77          5
    78          3
    79         13
    80          3
    81         25
    82         89
    83        212
    84        169
    85        475
    86         34
    87         12
    91          8
    92          5
    93         10
    95         18
    96         47
    97        231
    98        107
    99         20
   100          7
   101         16
   102         58
   103        999
   104         56
   105         12
   106          3
   107          3
   109          9
   110         21
   111        132
   112         69
   113         15
   115         10
   116         37
   117          5
   119          5
   123          5
   124         11
   125         67
   126        135
   127         18
   129         10
   130          5
   133          3
   134          3
   135         37
   136          5
   137          3
   139          3
   140          4
   141          3
   143         10
   147          4
   148          3
   149         13
   151          3
   152          5
   153          3
   154        212
   155         31
   156          3
   158         12
   169          7
   171          6
   184          3
   193          4
   197          4
   199         32
   200          5
   214          5
   227          3