##TITLE=Library Entry 45815
##JCAMP-DX=Revision 4.10 
##DATA TYPE=MASS SPECTRUM
##SAMPLE DESCRIPTION=V.G.Zaikin,TIPS RAS, Moscow, Russia
##NAMES=HP
##CAS NAME=Allyl(cyclohexyloxy)dimethylsilane
##MOLFORM=C11H22OSi
##CAS REGISTRY NO=81194-47-0
##MP= -300
##BP= -300
##MW= 198
##$RETENTION INDEX=0
##$CONDENSED SPECTRUM=NO
##NPOINTS= 71
##XYDATA=(XY..XY) 1 
    35          2
    36         30
    37          2
    38         15
    39         69
    40          9
    41         99
    42         11
    43         45
    44         16
    45         78
    46          2
    47         37
    51          2
    53         15
    54         12
    55         45
    56          8
    57         27
    58         12
    59         91
    60         12
    61         53
    62          2
    65          5
    66          2
    67         19
    69          6
    70          3
    71         17
    72          4
    73          8
    74          8
    75        999
    76         71
    77         32
    79          4
    80          2
    81         17
    82         11
    83          9
    84          2
    85          9
    87          7
    89          2
    93          2
    95          2
    97          4
    98          2
    99         35
   100          2
   101         55
   102          4
   103          2
   113          4
   114          2
   115          8
   127          2
   128          2
   133          4
   141          2
   156          6
   157        368
   158         52
   159         17
   160          2
   183          6
   184          1
   198         22
   199          2
   200          1