##TITLE=Library Entry 31661
##JCAMP-DX=Revision 4.10 
##DATA TYPE=MASS SPECTRUM
##SAMPLE DESCRIPTION=Japan AIST/NIMC Database- Spectrum MS-NW-4906
##NAMES=HP
##CAS NAME=Propane, 1,1,1,2-tetrachloro-
##MOLFORM=C3H4Cl4
##CAS REGISTRY NO=812-03-3
##MP= -300
##BP= -300
##MW= 180
##$RETENTION INDEX=918
##$CONDENSED SPECTRUM=NO
##NPOINTS= 110
##XYDATA=(XY..XY) 1 
    12          9
    13          4
    14          9
    15         29
    16          2
    17          3
    18         13
    23          2
    24          6
    25         23
    26         71
    27        456
    28         15
    29          2
    35         99
    36         95
    37        145
    38        155
    39        462
    40         18
    41          4
    43          2
    44         13
    47        109
    48         27
    49        188
    50          9
    51         54
    53          1
    54          2
    55          2
    59          8
    60         52
    61         46
    62         41
    63        999
    64         29
    65        300
    66          8
    70          5
    71         12
    72         46
    73        174
    74         31
    75        300
    76         14
    77         87
    78          3
    82         67
    83        213
    84         48
    85        132
    86          9
    87         22
    91          1
    94         10
    95         25
    96          9
    97         52
    98          3
    99         23
   100          1
   101          3
   106          1
   107         14
   108          2
   109        490
   110         77
   111        320
   112         46
   113         56
   114          8
   117         96
   118          1
   119         91
   120          1
   121         30
   123          4
   126          1
   127          2
   128          2
   129          9
   130         41
   131          9
   132         40
   133          4
   134         12
   135          1
   136          2
   143         17
   144          7
   145        494
   146         23
   147        434
   148         17
   149        147
   150          5
   151         16
   164          1
   165          6
   166          1
   167          7
   169          3
   178          1
   179          9
   180          2
   181         10
   182          1
   183          6
   185          1