##TITLE=Library Entry 35194
##JCAMP-DX=Revision 4.10 
##DATA TYPE=MASS SPECTRUM
##SAMPLE DESCRIPTION=E. W. LAWLESS MIDWEST RESEARCH INST., KANSAS CITY, MO,
 USA
##NAMES=HP
##CAS NAME=Methanesulfinyl fluoride, trifluoro-
##MOLFORM=CF4OS
##CAS REGISTRY NO=812-12-4
##MP= -300
##BP= -300
##MW= 136
##$RETENTION INDEX=0
##$CONDENSED SPECTRUM=NO
##NPOINTS= 11
##XYDATA=(XY..XY) 1 
    31         80
    32         60
    48        380
    50        100
    51        110
    67        450
    69        999
    82         20
   101          6
   117         10
   136          0