##TITLE=Library Entry 42154
##JCAMP-DX=Revision 4.10 
##DATA TYPE=MASS SPECTRUM
##SAMPLE DESCRIPTION=D.HENNEBERG, MAX-PLANCK INSTITUTE, MULHEIM, WEST GERMAN
Y
##NAMES=HP
##CAS NAME=Disilane, pentamethyl-
##MOLFORM=C5H16Si2
##CAS REGISTRY NO=812-15-7
##MP= -300
##BP= -300
##MW= 132
##$RETENTION INDEX=0
##$CONDENSED SPECTRUM=NO
##NPOINTS= 72
##XYDATA=(XY..XY) 1 
    27          2
    28         17
    29         16
    30          1
    31         31
    32          1
    33          0
    36          0
    39          0
    41          0
    42          6
    43         87
    44         16
    45        101
    46          7
    47          3
    51          0
    52          1
    53          5
    54          0
    55          8
    56          1
    57          8
    58         20
    59         62
    60          5
    61          2
    66          2
    67          1
    68          0
    69         10
    70          4
    71          5
    72         17
    73        999
    74         80
    75         35
    76          1
    77          0
    78          1
    81          2
    82          0
    83          3
    84          2
    85          8
    86          2
    87          2
    88          0
    89          1
    91          0
    95          0
    97          1
    98          0
    99          5
   100          1
   101         15
   102          2
   103          1
   105          0
   113          0
   114          0
   115          8
   116         19
   117        143
   118         19
   119          9
   120          0
   129          0
   131         12
   132         91
   133         15
   134          6