##TITLE=Library Entry 20999
##JCAMP-DX=Revision 4.10 
##DATA TYPE=MASS SPECTRUM
##SAMPLE DESCRIPTION=NIST Mass Spectrometry Data Center, 2010
##NAMES=HP
##CAS NAME=(S,Z)-Heptadeca-1,9-dien-4,6-diyn-3-ol
##MOLFORM=C17H24O
##CAS REGISTRY NO=81203-57-8
##MP= -300
##BP= -300
##MW= 244
##$RETENTION INDEX=1997
##$CONDENSED SPECTRUM=NO
##NPOINTS= 121
##XYDATA=(XY..XY) 1 
    26         17
    27        228
    28         36
    29        279
    31          9
    37          2
    38         10
    39        224
    40         32
    41        552
    42         46
    43        561
    44         17
    50         37
    51        149
    52         49
    53        166
    54        201
    55        999
    56         65
    57        172
    58          9
    61          7
    62         33
    63        144
    64         35
    65        206
    66         63
    67        216
    68         92
    69         74
    71         18
    74         34
    75         60
    76         52
    77        327
    78        220
    79        241
    80         57
    81        245
    82         80
    83         51
    84          8
    85         11
    86         11
    87         21
    88         15
    89        122
    90         45
    91        816
    92        106
    93         69
    94         35
    95         80
    96         81
    97         13
    98         10
   101         20
   102         88
   103        296
   104         94
   105        258
   106        125
   107         93
   108         18
   109         46
   110         56
   113         15
   114         14
   115        634
   116        269
   117        576
   118        116
   119        107
   120         54
   121         25
   122          9
   123          8
   126         17
   127        154
   128        327
   129        443
   130        135
   131        411
   132         84
   133         88
   134         19
   138         30
   139         29
   140          8
   141        320
   142         75
   143         80
   144        133
   145        229
   146         51
   147         34
   148          6
   151          7
   152         21
   153         45
   154         34
   155         89
   156         17
   157         64
   158         42
   159        353
   160         62
   161         18
   169         16
   170          4
   171          8
   172          5
   173         60
   174         13
   187         14
   189          5
   201          3
   217          3
   229          8
   243          3