##TITLE=Library Entry 44693
##JCAMP-DX=Revision 4.10 
##DATA TYPE=MASS SPECTRUM
##SAMPLE DESCRIPTION=ASES Database, Dalian Institute, P.R. China
##NAMES=HP
##CAS NAME=Methyl 4,4-dichlorobutanoate
##MOLFORM=C5H8Cl2O2
##CAS REGISTRY NO=81236-55-7
##MP= -300
##BP= -300
##MW= 170
##$RETENTION INDEX=1045
##$CONDENSED SPECTRUM=NO
##NPOINTS= 33
##XYDATA=(XY..XY) 1 
    39        181
    41        181
    42        156
    43        274
    49         92
    51         35
    55         67
    56         35
    57         30
    59        286
    61         17
    71         97
    73         35
    74        999
    75        331
    76         42
    77         96
    83         61
    85         41
    99        108
   103        121
   105         91
   109         60
   111         41
   113         17
   133         29
   135         60
   137         36
   139        241
   141        157
   143         24
   169         18
   171         11