##TITLE=Library Entry 28468
##JCAMP-DX=Revision 4.10 
##DATA TYPE=MASS SPECTRUM
##SAMPLE DESCRIPTION=A.A.Kutin, Moscow, Russia
##NAMES=HP
##CAS NAME=Acetamide, 2-[2,2-bis(trifluoromethyl)-1-aziridinyloxy]-N-methyl-
##MOLFORM=C7H8F6N2O2
##CAS REGISTRY NO=81258-63-1
##MP= -300
##BP= -300
##MW= 266
##$RETENTION INDEX=0
##$CONDENSED SPECTRUM=NO
##NPOINTS= 51
##XYDATA=(XY..XY) 1 
    33         51
    34          0
    38          0
    40         25
    42         51
    43         32
    44         89
    45          4
    46          1
    51          2
    54          1
    55          0
    56          6
    58        999
    60          5
    64          6
    69         56
    70          3
    72         95
    73          6
    75          2
    76          0
    77          0
    78          4
    82          0
    87          0
    88          5
    89          8
    90          8
    91          2
    93          1
    95          5
   100          1
   101          1
   102          3
   105          2
   108          2
   109         16
   110          0
   128         41
   129          1
   140          0
   145          3
   158          9
   159         12
   167          0
   178         17
   179         13
   180          1
   266         13
   267          0