##TITLE=Library Entry 11747
##JCAMP-DX=Revision 4.10 
##DATA TYPE=MASS SPECTRUM
##SAMPLE DESCRIPTION=Div. of Experiment Therapeutics WRAIR, WRAMC, Washingto
n DC 20307
##NAMES=HP
##CAS NAME=9,9-Bis[4-acetamidophenylthio]fluorene
##MOLFORM=C29H24N2O2S2
##CAS REGISTRY NO=81269-14-9
##MP= -300
##BP= -300
##MW= 496
##$RETENTION INDEX=0
##$CONDENSED SPECTRUM=NO
##NPOINTS= 83
##XYDATA=(XY..XY) 1 
    41         27
    42         33
    43        999
    44         17
    45         88
    49         39
    50         31
    51         89
    52         38
    53         77
    54          7
    62         28
    63         61
    64         25
    65         69
    69         64
    70         52
    71         24
    77         96
    78         29
    80        229
    81         46
    84         10
    86         14
    90          7
    91         61
    92          7
    93         42
    95         15
    96         46
    97         97
    98         20
    99         20
   107         11
   108          7
   123         34
   124        777
   125        414
   126         40
   127          7
   135          8
   137          7
   144          7
   148         12
   149         17
   150         96
   151          9
   152         44
   156         51
   157         10
   160         14
   161         30
   162        147
   163        179
   165        147
   166        111
   167        135
   180         27
   196         27
   226          9
   254         28
   256         34
   258         31
   259         15
   271         29
   286         42
   287         24
   288         63
   289          7
   298         16
   300         29
   322         28
   324        126
   325         51
   326        132
   327        352
   328        522
   329        128
   330        456
   331        109
   332        227
   333         34
   334          8