##TITLE=Library Entry 109175
##JCAMP-DX=Revision 4.10 
##DATA TYPE=MASS SPECTRUM
##SAMPLE DESCRIPTION=Div. of Experiment Therapeutics WRAIR, WRAMC, Washingto
n DC 20307
##NAMES=HP
##CAS NAME=Bis[phenylsulfonyl]-4-carboxyl phenyl methane
##MOLFORM=C20H16O6S2
##CAS REGISTRY NO=81269-08-1
##MP= -300
##BP= -300
##MW= 416
##$RETENTION INDEX=0
##$CONDENSED SPECTRUM=NO
##NPOINTS= 95
##XYDATA=(XY..XY) 1 
    41          6
    43          4
    44          2
    45         34
    47          3
    48          3
    49         11
    50         50
    51        261
    52         18
    53         48
    55          5
    57          2
    62         14
    63         42
    64         10
    65         44
    66          5
    69         11
    70          4
    71          5
    73          1
    74         10
    75         10
    77        514
    78         53
    79          4
    81         24
    84          5
    86          5
    87          4
    88          1
    89         31
    90          5
    91         24
    92          1
    93          3
    94          4
    95          2
    96          1
    97        198
    98         10
    99          9
   105         47
   106          1
   107          8
   108          3
   109         27
   110          1
   111          3
   115          7
   118          1
   121          8
   123          4
   125        999
   126         61
   127         45
   128          5
   133         20
   134          1
   135         21
   137          7
   139          7
   141         83
   142          9
   143          5
   149         15
   150          1
   151          4
   152         22
   153          6
   154          3
   163          6
   164          7
   165         63
   166         27
   167         14
   181          4
   184          1
   209          2
   211         19
   212          3
   225          4
   226          1
   258         82
   259         12
   260          5
   266         22
   267          3
   268          3
   275          9
   399          6
   416         10
   417          2
   418          1