##TITLE=Library Entry 109533
##JCAMP-DX=Revision 4.10 
##DATA TYPE=MASS SPECTRUM
##SAMPLE DESCRIPTION=Div. of Experiment Therapeutics WRAIR, WRAMC, Washingto
n DC 20307
##NAMES=HP
##CAS NAME=4-Acetamidophenyl-.alpha.-chlorobenzyl sulfone
##MOLFORM=C15H14ClNO3S
##CAS REGISTRY NO=81269-17-2
##MP= -300
##BP= -300
##MW= 323
##$RETENTION INDEX=0
##$CONDENSED SPECTRUM=NO
##NPOINTS= 68
##XYDATA=(XY..XY) 1 
    41         12
    42         13
    43        236
    44          5
    45          3
    49          1
    50         14
    51         24
    52         13
    53          6
    54          3
    58          2
    62         16
    63         85
    64         37
    65        131
    66         14
    69          4
    73         11
    74          2
    75         11
    76          8
    77         15
    78          7
    79          6
    80          8
    84          4
    85          1
    86          3
    87          1
    89        133
    90         44
    91         34
    92         53
    93         15
    97          2
    99         38
   101         14
   104          2
   105          3
   106          4
   108         22
   112          1
   121          1
   123          5
   125        999
   126         77
   127        310
   128         22
   134         18
   139          1
   140         30
   141          2
   152          6
   153         10
   165         10
   180         12
   181          7
   182         36
   183          7
   198          4
   217          1
   224         12
   225          1
   259          8
   261          1
   323         11
   325          3