##TITLE=Library Entry 9762
##JCAMP-DX=Revision 4.10 
##DATA TYPE=MASS SPECTRUM
##SAMPLE DESCRIPTION=Chemical Concepts
##NAMES=HP
##CAS NAME=2,5-Dioxaspiro[3.4]octan-6-ol, 1,1,3,3,6,7,7-heptamethyl-
##MOLFORM=C13H24O3
##CAS REGISTRY NO=81274-39-7
##MP= -300
##BP= -300
##MW= 228
##$RETENTION INDEX=0
##$CONDENSED SPECTRUM=NO
##NPOINTS= 151
##XYDATA=(XY..XY) 1 
    26          4
    27         44
    28         10
    29         60
    30          1
    31         56
    35          1
    36          1
    37          2
    38          2
    39         76
    40         18
    41        245
    42         72
    43        999
    44         25
    45          9
    47          5
    48          2
    49          2
    50          3
    51         11
    52          5
    53         41
    54          8
    55        124
    56         40
    57         99
    58         47
    59        582
    60         19
    61          5
    63          4
    65         18
    66          6
    67        153
    68         38
    69        198
    70        142
    71        151
    72         20
    73          3
    75          3
    76          2
    77         29
    78          5
    79         33
    80          6
    81         63
    82         28
    83        131
    84        733
    85        220
    86        591
    87         42
    88          3
    89          2
    91         23
    92          5
    93         25
    94         15
    95        253
    96         31
    97        277
    98         22
    99         34
   100         24
   101         21
   102          3
   103          3
   104          2
   105         12
   106          3
   107         26
   108          8
   109        161
   110        215
   111         98
   112        593
   113         96
   114         21
   115         36
   116          4
   117          3
   119         22
   120          4
   121         15
   122          9
   123         12
   124          2
   125         46
   126         11
   127        357
   128        166
   129         26
   130        379
   131         32
   132          2
   133          3
   134          4
   135         78
   136         12
   137        134
   138         15
   139         10
   141         10
   142          2
   143          3
   145          3
   147          3
   149          9
   150         34
   151         15
   152        130
   153        293
   154         31
   155        147
   156         17
   157          4
   161          6
   163          2
   165          3
   167          6
   168         38
   169         18
   170        361
   171         56
   172         64
   173          8
   174          0
   178          4
   179          2
   181          5
   182          1
   183          2
   184          0
   186          5
   187          0
   188          0
   189          5
   190          0
   195         19
   196          5
   197          0
   210         29
   211          4
   213          9
   214          1
   228         46
   229          7
   230          0