##TITLE=Library Entry 37214
##JCAMP-DX=Revision 4.10 
##DATA TYPE=MASS SPECTRUM
##SAMPLE DESCRIPTION=Chemical Concepts
##NAMES=HP
##CAS NAME=1,3-Dioxolan-4-one, 2-(1,1-dimethylethyl)-5-(1-hydroxy-1-methylet
hyl)-5-methyl-, (2S-trans)-
##MOLFORM=C11H20O4
##CAS REGISTRY NO=81286-87-5
##MP= -300
##BP= -300
##MW= 216
##$RETENTION INDEX=0
##$CONDENSED SPECTRUM=NO
##NPOINTS= 82
##XYDATA=(XY..XY) 1 
    26          7
    27        135
    28         25
    29        232
    30          6
    31        126
    38          6
    39        146
    40         22
    41        441
    42        105
    43        659
    44         61
    45         86
    46          2
    50          3
    51          8
    52          4
    53         36
    54         11
    55        235
    56         30
    57        505
    58         34
    59        438
    60         16
    61          4
    65          4
    66          1
    67         15
    68          7
    69        124
    70        999
    71        159
    72         38
    73         10
    74         13
    75          5
    77          2
    83         12
    84         12
    85        460
    86        120
    87        424
    88         33
    89          5
    90         27
    91          2
    95          2
    96          3
    97          8
    98          4
    99         19
   100         19
   101         81
   102         22
   103         92
   104          5
   113         59
   114          8
   115         36
   116          4
   117          2
   127          2
   128         17
   129          9
   130          4
   131         44
   132          3
   133          3
   141          3
   143          8
   145         14
   157          4
   158        471
   159        121
   160         11
   173          8
   187          6
   201          3
   215          1
   217          0