##TITLE=Library Entry 67971
##JCAMP-DX=Revision 4.10 
##DATA TYPE=MASS SPECTRUM
##SAMPLE DESCRIPTION=NIST Mass Spectrometry Data Center, 1990.
##NAMES=HP
##CAS NAME=4-Hepten-3-ol, 4-methyl-
##MOLFORM=C8H16O
##CAS REGISTRY NO=81280-12-8
##MP= -300
##BP= -300
##MW= 128
##$RETENTION INDEX=0
##$CONDENSED SPECTRUM=NO
##NPOINTS= 66
##XYDATA=(XY..XY) 1 
    15         18
    17          5
    18         10
    26         15
    27        150
    28         65
    29        108
    30          4
    31         38
    37          9
    38         36
    39        385
    40         88
    41        446
    42         57
    43        512
    44         29
    45         18
    50         48
    51        106
    52         51
    53        265
    54         50
    55        382
    56         40
    57        104
    58          8
    59         25
    61          5
    62         20
    63         45
    64         10
    65        121
    66          5
    67        746
    68         82
    69         83
    70         15
    71         72
    72          4
    74          8
    75          4
    77        163
    78         34
    79        218
    80         60
    81        267
    82         52
    83         19
    84          9
    85          4
    86         21
    91         77
    93        122
    95        999
    96         79
    97         11
    98          4
    99        339
   100         23
   107          3
   108          3
   110        298
   111         27
   113          7
   128         33