##TITLE=Library Entry 26029
##JCAMP-DX=Revision 4.10 
##DATA TYPE=MASS SPECTRUM
##SAMPLE DESCRIPTION=Chemical Concepts
##NAMES=HP
##CAS NAME=Hexanoic acid, 2,2-dimethyl-
##MOLFORM=C8H16O2
##CAS REGISTRY NO=813-72-9
##MP= -300
##BP= -300
##MW= 144
##$RETENTION INDEX=0
##$CONDENSED SPECTRUM=NO
##NPOINTS= 81
##XYDATA=(XY..XY) 1 
    26          4
    27        124
    28         11
    29        165
    30          3
    31         12
    37          0
    38          2
    39         84
    40         12
    41        271
    42         32
    43        274
    44          7
    45         28
    46          1
    47          1
    50          1
    51          6
    52          2
    53         19
    54          4
    55        102
    56         32
    57        999
    58         42
    59         47
    60          8
    61          1
    62          0
    63          0
    65          1
    66          0
    67          4
    68          1
    69         33
    70         29
    71          9
    72          0
    73        144
    74          9
    75          1
    77          1
    78          0
    79          1
    80          0
    81          1
    82          1
    83         23
    84          2
    85          1
    86          1
    87         60
    88        693
    89         35
    90          3
    91          0
    93          0
    95          0
    96          0
    97          4
    98          6
    99        248
   100         20
   101         46
   102         21
   103          1
   108          0
   111          2
   113          0
   115         15
   116          4
   117          0
   126          0
   127          1
   128          0
   129          3
   143          0
   144          1
   145         15
   146          2