##TITLE=Library Entry 24413
##JCAMP-DX=Revision 4.10 
##DATA TYPE=MASS SPECTRUM
##SAMPLE DESCRIPTION=Chemical Concepts
##NAMES=HP
##CAS NAME=Butanoic acid, 2,2-diethyl-
##MOLFORM=C8H16O2
##CAS REGISTRY NO=813-58-1
##MP= -300
##BP= -300
##MW= 144
##$RETENTION INDEX=0
##$CONDENSED SPECTRUM=NO
##NPOINTS= 59
##XYDATA=(XY..XY) 1 
    26          7
    27        126
    28         13
    29        171
    31         10
    38          6
    39        102
    40         12
    41        302
    42         37
    43        546
    44         18
    45        122
    50          5
    51         10
    53         27
    54          6
    55        149
    56         19
    57        999
    58         34
    59         24
    60         10
    65          6
    67         14
    68          9
    69        113
    71        111
    73        361
    74         21
    77         11
    79          5
    81         13
    82          4
    83         20
    84          4
    85         10
    87        150
    88        350
    89         16
    91          5
    93          3
    95          7
    96          4
    97         15
    98         10
    99        267
   100         16
   101         84
   102          4
   105          6
   109          4
   111          6
   114          5
   115         60
   116         83
   117          7
   129         16
   145          4