##TITLE=Library Entry 30652
##JCAMP-DX=Revision 4.10 
##DATA TYPE=MASS SPECTRUM
##SAMPLE DESCRIPTION=ASES Database, Dalian Institute, P.R. China
##NAMES=HP
##CAS NAME=Propanoic acid, pentachloro-, methyl ester
##MOLFORM=C4H3Cl5O2
##CAS REGISTRY NO=813-46-7
##MP= -300
##BP= -300
##MW= 258
##$RETENTION INDEX=1273
##$CONDENSED SPECTRUM=NO
##NPOINTS= 30
##XYDATA=(XY..XY) 1 
    59        999
    60         22
    61         23
    63         38
    65         23
    94         84
    96         54
   117        176
   119        176
   121         62
   129         77
   131         92
   133         53
   141         22
   143         22
   153        114
   155         76
   157        154
   159        155
   161         45
   164        386
   166        485
   168        231
   170         61
   188         54
   190         54
   199         62
   201        107
   203         76
   205         23