##TITLE=Library Entry 91001
##JCAMP-DX=Revision 4.10 
##DATA TYPE=MASS SPECTRUM
##SAMPLE DESCRIPTION=A.A.Kutin, Moscow, Russia
##NAMES=HP
##CAS NAME=Phosphorochloridic acid, dimethyl ester
##MOLFORM=C2H6ClO3P
##CAS REGISTRY NO=813-77-4
##MP= -300
##BP= -300
##MW= 144
##$RETENTION INDEX=0
##$CONDENSED SPECTRUM=NO
##NPOINTS= 83
##XYDATA=(XY..XY) 1 
    34          0
    35          8
    36          2
    37          2
    38          0
    39          3
    40          0
    41          6
    42          4
    43         23
    44          2
    45         33
    47        382
    48         58
    49         26
    50          6
    51          4
    52          0
    53          0
    55          0
    57          0
    58          0
    59          2
    60          0
    61          0
    62          3
    63         37
    64         18
    65        105
    66          6
    67          1
    68          2
    69          1
    71          0
    76          3
    77         31
    79        840
    80         11
    81          4
    82          2
    83         34
    84          7
    85         12
    86          1
    87          1
    91          3
    92          2
    93         45
    95          1
    96          1
    97          7
    98          5
    99         52
   100         74
   101         23
   102         23
   103          1
   105          0
   106          0
   107          5
   109        378
   110          9
   111          7
   113        271
   114        999
   115        136
   116        328
   117          8
   118          1
   121         16
   122          1
   127          4
   128         10
   129          5
   130          3
   131          0
   132          0
   141          0
   142          5
   143          4
   144         12
   145          2
   146          4