##TITLE=Library Entry 75929
##JCAMP-DX=Revision 4.10 
##DATA TYPE=MASS SPECTRUM
##SAMPLE DESCRIPTION=ASES Database, Dalian Institute, P.R. China
##NAMES=HP
##CAS NAME=Methyl 2-[methoxy(methyl)amino]-2-methylpropanoate  #
##MOLFORM=C7H15NO3
##CAS REGISTRY NO=81308-37-4
##MP= -300
##BP= -300
##MW= 161
##$RETENTION INDEX=0
##$CONDENSED SPECTRUM=NO
##NPOINTS= 12
##XYDATA=(XY..XY) 1 
    56        430
    59         42
    70        116
    71        225
   102        999
   103         83
   114          7
   115          7
   116          7
   130          8
   146         17
   161         42