##TITLE=Library Entry 34144
##JCAMP-DX=Revision 4.10 
##DATA TYPE=MASS SPECTRUM
##SAMPLE DESCRIPTION=ASES Database, Dalian Institute, P.R. China
##NAMES=HP
##CAS NAME=3-Methyl-3-dimethoxyamino-butan-1-ol
##MOLFORM=C7H17NO3
##CAS REGISTRY NO=81308-29-4
##MP= -300
##BP= -300
##MW= 163
##$RETENTION INDEX=0
##$CONDENSED SPECTRUM=NO
##NPOINTS= 34
##XYDATA=(XY..XY) 1 
    29        131
    30        183
    31        224
    41        506
    42        165
    43        222
    44         46
    45        327
    46         33
    47        178
    48         28
    53         50
    54         39
    55         69
    56        229
    57        220
    58         57
    59         39
    60         34
    61         29
    62        114
    68         56
    69        999
    70        229
    71         50
    76         23
    77         85
    83         10
    87        166
    88        108
   132         10
   133         10
   145         11
   163         57