##TITLE=Library Entry 57710
##JCAMP-DX=Revision 4.10 
##DATA TYPE=MASS SPECTRUM
##SAMPLE DESCRIPTION=ASES Database, Dalian Institute, P.R. China
##NAMES=HP
##CAS NAME=Methoxy-(1,1-dimethyl-2-hydroxy-ethyl)-amine
##MOLFORM=C5H13NO2
##CAS REGISTRY NO=81308-34-1
##MP= -300
##BP= -300
##MW= 119
##$RETENTION INDEX=0
##$CONDENSED SPECTRUM=NO
##NPOINTS= 22
##XYDATA=(XY..XY) 1 
    29        156
    30        156
    31        207
    32         85
    33         68
    41        156
    42        569
    43        154
    44         92
    45        232
    46         47
    47        311
    48         47
    55        169
    56        649
    57        116
    58         92
    86         70
    88        999
    89         85
   102         61
   119         16