##TITLE=Library Entry 36629
##JCAMP-DX=Revision 4.10 
##DATA TYPE=MASS SPECTRUM
##SAMPLE DESCRIPTION=ASES Database, Dalian Institute, P.R. China
##NAMES=HP
##CAS NAME=2-(1-Methyl-1-dimethoxyamino)ethyl-propan-1,3-diol
##MOLFORM=C8H19NO4
##CAS REGISTRY NO=81308-30-7
##MP= -300
##BP= -300
##MW= 193
##$RETENTION INDEX=0
##$CONDENSED SPECTRUM=NO
##NPOINTS= 37
##XYDATA=(XY..XY) 1 
    29         32
    30         62
    31         54
    41        105
    42         60
    43        178
    44         27
    45         71
    46          5
    47         49
    54         28
    55         60
    56        139
    57        104
    58         49
    59         27
    60         32
    61         33
    62         49
    67         49
    68         61
    69        999
    70         89
    76         28
    77         56
    81        149
    87         81
    88        176
    99        167
   117         49
   118         11
   130         11
   144         22
   145         38
   146         11
   162         61
   193        233