##TITLE=Library Entry 12817
##JCAMP-DX=Revision 4.10 
##DATA TYPE=MASS SPECTRUM
##SAMPLE DESCRIPTION=A.A.Kutin, Moscow, Russia
##NAMES=HP
##CAS NAME=1-(3,3-Bis-trifluoromethyl-2-aza-bicyclo[2.2.1]hept-5-en-2-yl)-et
hanone
##MOLFORM=C10H9F6NO
##CAS REGISTRY NO=81319-55-3
##MP= -300
##BP= -300
##MW= 273
##$RETENTION INDEX=0
##$CONDENSED SPECTRUM=NO
##NPOINTS= 164
##XYDATA=(XY..XY) 1 
    33         11
    34          7
    36          2
    37          7
    38         30
    39        149
    40        125
    41         34
    42         85
    43        999
    44         66
    45          9
    46          3
    47          2
    48          1
    50         19
    51         35
    52         13
    53         17
    54         11
    55         10
    56          7
    57         17
    58          5
    59          7
    60          3
    61          3
    62          6
    63         17
    64         14
    65         88
    66        358
    67         58
    69         83
    70          5
    71          3
    72          1
    73          1
    74          1
    75          9
    76          4
    77         18
    78         10
    79          9
    80          8
    81          6
    82          5
    83          8
    84          3
    85          2
    87          0
    88          4
    89          3
    90          2
    91         10
    92         17
    93         41
    94          5
    95         10
    96          9
    97          8
    98          1
    99          2
   100          2
   101          3
   102          1
   103          0
   104          0
   105          2
   106          2
   107          2
   108          3
   109          2
   110          7
   111          3
   112          2
   113          8
   114         10
   115         12
   116          8
   117          1
   118          0
   119          4
   120          3
   121          2
   122          5
   123          1
   124          0
   125          1
   127         10
   128          6
   129          0
   131          1
   132          1
   133          3
   134          2
   135          4
   136         15
   137          2
   138          0
   139          1
   140          5
   141         10
   142         59
   143          5
   145         11
   146          2
   147          4
   148          1
   149          0
   150          1
   151          0
   152          1
   153          0
   154          0
   155          1
   156          8
   157          1
   158          3
   160          8
   162        423
   163         33
   164          2
   165          1
   166          2
   168          0
   170          0
   171          0
   172          1
   173          1
   176          1
   177          0
   178          1
   181          0
   182          1
   183          1
   184          2
   186          0
   188          0
   190          1
   191          3
   192         11
   193          1
   195         11
   196          0
   204          6
   205          1
   206          0
   208          5
   209          0
   210          4
   212         27
   213          2
   214          5
   215          4
   225          0
   228          1
   230         17
   231         92
   232          7
   234          0
   245          1
   273         85
   274          8