##TITLE=Library Entry 77783
##JCAMP-DX=Revision 4.10 
##DATA TYPE=MASS SPECTRUM
##SAMPLE DESCRIPTION=Chemical Concepts
##NAMES=HP
##CAS NAME=Benzeneethanol, 4-bromo-.beta.-methyl-
##MOLFORM=C9H11BrO
##CAS REGISTRY NO=81310-74-9
##MP= -300
##BP= -300
##MW= 214
##$RETENTION INDEX=0
##$CONDENSED SPECTRUM=NO
##NPOINTS= 125
##XYDATA=(XY..XY) 1 
    25          0
    26         19
    27        123
    28          7
    29        127
    30         13
    31        307
    33          0
    36          1
    37         12
    38         39
    39        142
    40         12
    41         20
    42          2
    43         57
    44          4
    45          6
    46          1
    47          0
    49          9
    50        165
    51        229
    52         51
    53         27
    54          2
    55          7
    56          0
    57         14
    58          6
    59          3
    60          1
    61         13
    62         47
    63        117
    64         18
    65         46
    66          5
    67          2
    73          9
    74         70
    75         97
    76         87
    77        353
    78        239
    79         43
    80          6
    81          5
    82          4
    83          0
    84          0
    85          4
    86         10
    87         13
    88          7
    89         53
    90         31
    91         84
    92         11
    93          1
    94          0
    95          0
    97          1
    98          7
    99          3
   100          1
   101         21
   102        108
   103        303
   104        999
   105        203
   106         14
   107          5
   113          0
   114          0
   115         27
   116          8
   117         12
   118          4
   119          6
   120         13
   121          1
   128          1
   129          1
   130          1
   131          2
   132          0
   133          0
   135         80
   136          8
   137          0
   139          3
   140          0
   141          1
   143          2
   145          1
   155          4
   156          3
   157          6
   158          3
   159          0
   167          0
   169         17
   170          1
   171         16
   172          1
   179          0
   180          0
   181          5
   183        578
   184        105
   185        607
   186         82
   187          4
   196          0
   198          1
   199          0
   200          0
   211          1
   212          0
   214        109
   215         11
   216        110
   217         11
   218          0