##TITLE=Library Entry 84171
##JCAMP-DX=Revision 4.10 
##DATA TYPE=MASS SPECTRUM
##SAMPLE DESCRIPTION=Chemical Concepts
##NAMES=HP
##CAS NAME=Propanimidamide, N,N'-bis(2-methylphenyl)-2-[(2-methylphenyl)amin
o]-
##MOLFORM=C24H27N3
##CAS REGISTRY NO=81330-05-4
##MP= -300
##BP= -300
##MW= 357
##$RETENTION INDEX=0
##$CONDENSED SPECTRUM=NO
##NPOINTS= 175
##XYDATA=(XY..XY) 1 
    27          9
    28         12
    29          3
    30         21
    31          0
    37          0
    38          1
    39         33
    40          3
    41         21
    42         19
    43          2
    44         24
    45          3
    46          0
    47          0
    49          0
    50          2
    51         19
    52          9
    53          9
    54          3
    55          1
    56          1
    57          1
    59          0
    61          0
    62          1
    63         13
    64          6
    65        140
    66         11
    67          3
    68          0
    69          0
    70          0
    71          0
    74          0
    75          2
    76          2
    77         54
    78         24
    79         39
    80          6
    81          0
    86          0
    87          0
    88          0
    89         25
    90         22
    91        260
    92         30
    93         13
    94          2
   101          0
   102          2
   103          5
   104         21
   105         12
   106        196
   107        999
   108         79
   109          3
   110          0
   111          0
   113          0
   114          0
   115          9
   116         13
   117         63
   118        309
   119         72
   120         30
   121          3
   127          0
   128          2
   129          1
   130         20
   131         14
   132         34
   133         44
   134        946
   135        140
   136          9
   137          0
   141          1
   142          1
   143          3
   144         23
   145         10
   146          6
   147          0
   149          0
   151          0
   152          1
   153          0
   154          0
   155          0
   156          0
   157          0
   158          0
   159          2
   160          0
   161          0
   162          0
   164          0
   165          1
   166          0
   167          1
   168          0
   171          0
   177          0
   178          1
   179          5
   180          3
   181          1
   182          0
   190          0
   191          0
   192          0
   193          1
   194          2
   195          1
   196          1
   197          0
   203          0
   204          2
   205          2
   206          4
   207          7
   208          6
   209         31
   210          4
   211          0
   217          0
   218          0
   219          3
   220          2
   221          9
   222         13
   223        122
   224        102
   225         25
   226          2
   231          0
   232          0
   233          1
   234          1
   235         10
   236          2
   237          1
   239          2
   240          0
   248          0
   249          6
   250          5
   251          7
   252          2
   253          0
   254          0
   264          0
   268          0
   315          0
   326          0
   328          0
   340          0
   342         19
   343          5
   344          1
   354          0
   355          0
   357        306
   358         84
   359         11
   360          1