##TITLE=Library Entry 97631
##JCAMP-DX=Revision 4.10 
##DATA TYPE=MASS SPECTRUM
##SAMPLE DESCRIPTION=Chemical Concepts
##NAMES=HP
##CAS NAME=Tetralin, 1,4-diethyl-
##MOLFORM=C14H20
##CAS REGISTRY NO=81356-57-2
##MP= -300
##BP= -300
##MW= 188
##$RETENTION INDEX=0
##$CONDENSED SPECTRUM=NO
##NPOINTS= 133
##XYDATA=(XY..XY) 1 
    25          0
    26          7
    27         85
    28          6
    29         92
    30          1
    31          0
    34          0
    36          0
    37          1
    38          3
    39         62
    40          0
    41         64
    42          3
    43         72
    44          0
    46          0
    48          0
    49          0
    50         13
    51         44
    52         11
    53         24
    54          3
    55         22
    56          0
    57          3
    58          2
    59          0
    61          1
    62          7
    63         32
    64         11
    65         35
    66          3
    67          7
    68          0
    69          1
    70          2
    71          2
    73          0
    74          6
    75         13
    76         13
    77         53
    78         22
    79         12
    80          1
    81          7
    82          1
    83          0
    84          0
    85          1
    86          7
    87          6
    88          3
    89         19
    90          3
    91        150
    92         12
    93          1
    94          0
    95          0
    96          0
    97          0
    98          1
    99          1
   100          0
   101          6
   102         22
   103         25
   104          8
   105         24
   106          2
   107          0
   108          0
   109          0
   110          0
   111          1
   112          2
   113          7
   114          5
   115        170
   116         45
   117        999
   118         93
   119          7
   120          0
   122          0
   125          1
   126          8
   127         53
   128        140
   129        157
   130         82
   131         66
   132         52
   133          5
   134          2
   135          0
   137          0
   138          0
   139          6
   140          1
   141         25
   142         11
   143         10
   144          8
   145          9
   146          1
   149          0
   150          1
   151          1
   152          4
   153          4
   154          1
   155          3
   156          1
   157          9
   158          5
   159        576
   160         69
   161          4
   165          0
   166          0
   169          1
   184          0
   186          1
   187          0
   188        120
   189         18
   190          1