##TITLE=Library Entry 65250
##JCAMP-DX=Revision 4.10 
##DATA TYPE=MASS SPECTRUM
##SAMPLE DESCRIPTION=Chemical Concepts
##NAMES=HP
##CAS NAME=Bicyclo[3.3.1]nonan-3-ol, 7-methylene-
##MOLFORM=C10H16O
##CAS REGISTRY NO=81386-79-0
##MP= -300
##BP= -300
##MW= 152
##$RETENTION INDEX=0
##$CONDENSED SPECTRUM=NO
##NPOINTS= 72
##XYDATA=(XY..XY) 1 
    26          4
    27         90
    28          7
    29         75
    31         20
    38          9
    39        187
    40         40
    41        269
    42         28
    43         99
    44         15
    45          9
    50         11
    51         45
    52         26
    53         97
    54         29
    55         95
    56        134
    57         31
    58          7
    59          5
    62          6
    63         16
    64          7
    65         71
    66        101
    67        165
    68         34
    69         41
    70         21
    71          9
    75          6
    77        273
    78        181
    79        531
    80        169
    81         64
    82         13
    83         13
    84         32
    90         10
    91        515
    92        999
    93        814
    94        158
    95        156
    96         23
    97         23
   103         14
   104          9
   105        226
   106        152
   107         35
   108         11
   109         25
   110          5
   111          6
   115          6
   117         16
   118          5
   119        223
   120         24
   121          6
   133         28
   134        337
   135         44
   136          4
   137         10
   152         44
   153          7