##TITLE=Library Entry 31133
##JCAMP-DX=Revision 4.10 
##DATA TYPE=MASS SPECTRUM
##SAMPLE DESCRIPTION=Japan AIST/NIMC Database- Spectrum MS-NW-3794
##NAMES=HP
##CAS NAME=1,2-Propanedithiol
##MOLFORM=C3H8S2
##CAS REGISTRY NO=814-67-5
##MP= -300
##BP= -300
##MW= 108
##$RETENTION INDEX=895
##$CONDENSED SPECTRUM=NO
##NPOINTS= 70
##XYDATA=(XY..XY) 1 
    14          3
    15         15
    25          2
    26         17
    27        130
    28          7
    29         13
    32         32
    33         41
    34         72
    35        123
    36          5
    37         19
    38         26
    39        226
    40         33
    41        803
    42         74
    43         15
    44         19
    45        240
    46         85
    47        393
    48         19
    49         23
    50          1
    51          2
    55          3
    56          2
    57         17
    58         57
    59        204
    60        264
    61        999
    62         41
    63         47
    64          9
    65          5
    66          9
    67          1
    68          4
    69         13
    70          2
    71         19
    72          4
    73         45
    74        505
    75        214
    76         32
    77         19
    78          3
    79          9
    81          2
    88          1
    89          4
    90          2
    91          1
    92          2
    93          7
    94          1
   103          8
   104          2
   105          1
   106          4
   107          3
   108        456
   109         24
   110         43
   111          2
   112          1