##TITLE=Library Entry 97580
##JCAMP-DX=Revision 4.10 
##DATA TYPE=MASS SPECTRUM
##SAMPLE DESCRIPTION=Chemical Concepts
##NAMES=HP
##CAS NAME=Phosphorochloridic acid, diethyl ester
##MOLFORM=C4H10ClO3P
##CAS REGISTRY NO=814-49-3
##MP= -300
##BP= -300
##MW= 172
##$RETENTION INDEX=0
##$CONDENSED SPECTRUM=NO
##NPOINTS= 103
##XYDATA=(XY..XY) 1 
    26         83
    27        413
    28        154
    29        383
    30         28
    31        278
    33          1
    39          1
    40         20
    41          7
    42         25
    43        114
    44         36
    45        426
    46         10
    47        119
    48         12
    49         13
    50          1
    51          3
    55          1
    56          1
    57         11
    59          8
    60          1
    61          3
    62          3
    63         37
    64          9
    65         76
    66          3
    68          1
    69          1
    70          0
    72          0
    73          3
    74          0
    75          0
    76          1
    77         18
    78          0
    79          3
    80          1
    81         54
    83         23
    84          3
    85         10
    86          0
    87          3
    89          0
    91         69
    92          8
    93         13
    94          1
    96          0
    97          0
    98          5
    99         75
   100        331
   101        110
   102        111
   103         17
   105          1
   107          0
   108          1
   109        179
   110         19
   112          3
   113          5
   114          1
   115          5
   116          2
   117        999
   118         19
   119        324
   120         12
   121          6
   122          1
   127         48
   128        112
   129        338
   130         43
   131        118
   132          2
   133          5
   134          5
   137        109
   138          9
   141          2
   142          1
   143         80
   144         19
   145        692
   146         24
   147        263
   148          6
   149         28
   151          5
   157         23
   158          0
   159          8
   171          7
   175          0