##TITLE=Library Entry 5128
##JCAMP-DX=Revision 4.10 
##DATA TYPE=MASS SPECTRUM
##SAMPLE DESCRIPTION=K.COHN, MICHIGAN STATE UNIV., E. LANSING, MICHIGAN, USA
##NAMES=HP
##CAS NAME=Phosphoramidous difluoride, dimethyl-
##MOLFORM=C2H6F2NP
##CAS REGISTRY NO=814-97-1
##MP= -300
##BP= -300
##MW= 113
##$RETENTION INDEX=0
##$CONDENSED SPECTRUM=NO
##NPOINTS= 18
##XYDATA=(XY..XY) 1 
    15        324
    27         25
    28         11
    30         38
    31         20
    40         45
    41         56
    42        999
    43        102
    44         40
    50         64
    51         35
    65         20
    69        291
    78         32
    94        122
   112        541
   113        541