##TITLE=Library Entry 65107
##JCAMP-DX=Revision 4.10 
##DATA TYPE=MASS SPECTRUM
##SAMPLE DESCRIPTION=Japan AIST/NIMC Database- Spectrum MS-NW-6082
##NAMES=HP
##CAS NAME=Phosphine oxide, tributyl-
##MOLFORM=C12H27OP
##CAS REGISTRY NO=814-29-9
##MP= -300
##BP= -300
##MW= 218
##$RETENTION INDEX=0
##$CONDENSED SPECTRUM=NO
##NPOINTS= 114
##XYDATA=(XY..XY) 1 
    15          2
    16          1
    26          4
    27         67
    28          9
    29        213
    30          5
    31          1
    32          2
    38          1
    39         37
    40          4
    41        133
    42          8
    43         24
    44          3
    45          8
    46          2
    47         39
    48         14
    49         48
    50          2
    51          6
    52          1
    53         11
    54          4
    55        198
    56         15
    57         41
    58          2
    59         10
    60          2
    61         12
    62         11
    63        227
    64         58
    65          5
    67          2
    69          5
    71          3
    72          4
    73          7
    74          2
    75         22
    76         18
    77         39
    78        678
    79         19
    80          2
    81          1
    83          4
    84          1
    85          9
    86          4
    87         27
    88          2
    89         10
    90         17
    91         20
    92        999
    93         35
    94          3
    99          1
   101          4
   102          2
   103         10
   104         13
   105         73
   106         49
   107         23
   108          2
   109          1
   115          1
   116          1
   117          8
   118         10
   119         11
   120        341
   121         23
   122          2
   131          9
   132          7
   133         55
   134        200
   135         14
   136          1
   145          6
   146          1
   147        208
   148         21
   149          2
   159          6
   160          3
   161        168
   162        192
   163         20
   164          2
   173          2
   174          1
   175          6
   176         86
   177          9
   178          1
   187          7
   188          1
   189        331
   190         39
   191          3
   201          1
   203          9
   204          1
   217         17
   218         32
   219          8