##TITLE=Library Entry 29733
##JCAMP-DX=Revision 4.10 
##DATA TYPE=MASS SPECTRUM
##SAMPLE DESCRIPTION=V.G.Zaikin, TIPS, Russian Acad. Sci., Moscow
##NAMES=HP
##CAS NAME=CH3SiH2SiH(CH3)2
##MOLFORM=C3H12Si2
##CAS REGISTRY NO=814-74-4
##MP= -300
##BP= -300
##MW= 104
##$RETENTION INDEX=0
##$CONDENSED SPECTRUM=NO
##NPOINTS= 38
##XYDATA=(XY..XY) 1 
    30         15
    31        110
    41         10
    42         45
    43        571
    44         79
    45        147
    46          9
    53         12
    55         18
    57         29
    58        372
    59        999
    60         80
    61         32
    69         70
    70         29
    71         31
    72         12
    73        194
    74         13
    75         10
    83         12
    84          8
    85         55
    86         64
    87         91
    88         85
    89        126
    90         26
    91          9
   101         32
   102        100
   103        337
   104        218
   105         48
   106         14
   107          1