##TITLE=Library Entry 12535
##JCAMP-DX=Revision 4.10 
##DATA TYPE=MASS SPECTRUM
##SAMPLE DESCRIPTION=Japan AIST/NIMC Database- Spectrum MS-IW-3845
##NAMES=HP
##CAS NAME=2-Butanone, 3-bromo-
##MOLFORM=C4H7BrO
##CAS REGISTRY NO=814-75-5
##MP= -300
##BP= -300
##MW= 150
##$RETENTION INDEX=0
##$CONDENSED SPECTRUM=NO
##NPOINTS= 57
##XYDATA=(XY..XY) 1 
    13          1
    14          8
    15         25
    16          2
    17          1
    18          4
    25          4
    26         31
    27        123
    28         17
    29         14
    31          1
    36          1
    37          5
    38          7
    39         19
    40          4
    41         25
    42         66
    43        999
    44         40
    45          6
    49          3
    50          8
    51          5
    52          2
    53          8
    54          3
    55         17
    56         20
    57         12
    70          1
    71          4
    79         11
    80          9
    81         11
    82          9
    91          3
    92          3
    93          6
    94          3
    95          4
   104          1
   105          2
   106          4
   107         64
   108          5
   109         59
   110          1
   121          1
   123          1
   135          1
   137          1
   150        146
   151          7
   152        143
   153          7