##TITLE=Library Entry 21449
##JCAMP-DX=Revision 4.10 
##DATA TYPE=MASS SPECTRUM
##SAMPLE DESCRIPTION=NIST Mass Spectrometry Data Center
##NAMES=HP
##CAS NAME=Succinimidopropanenitrile
##MOLFORM=C7H8N2O2
##CAS REGISTRY NO=81416-12-8
##MP= -300
##BP= -300
##MW= 152
##$RETENTION INDEX=0
##$CONDENSED SPECTRUM=NO
##NPOINTS= 68
##XYDATA=(XY..XY) 1 
    15          2
    25          3
    26         61
    27        165
    28        278
    29         26
    30         93
    31          2
    37          4
    38         17
    39         32
    40         85
    41        233
    42        133
    43         27
    44         33
    45          2
    48          2
    50          2
    51         22
    52         63
    53         50
    54        213
    55        999
    56        960
    57        101
    58          5
    64          2
    65          4
    66         10
    67         18
    68         41
    69         58
    70         62
    71         16
    72          4
    79          3
    80          7
    81          6
    82         17
    83         12
    84        643
    85         31
    86          1
    94          1
    95         51
    96        143
    97        246
    98         31
    99         50
   100          5
   105          2
   107          7
   108          1
   110         14
   111          2
   112        463
   113         28
   114          2
   123         21
   124        995
   125        242
   126         17
   127          1
   135          1
   151          2
   152        116
   153         12