##TITLE=Library Entry 39874
##JCAMP-DX=Revision 4.10 
##DATA TYPE=MASS SPECTRUM
##SAMPLE DESCRIPTION=J.S. THRASHER, DEP. CHEM., ALABAMA UNIV., ALABAMA, USA
##NAMES=HP
##CAS NAME=[(Diethylamino)methoxymethylenimino]sulfur pentafluoride
##MOLFORM=C6H13F5N2OS
##CAS REGISTRY NO=81439-15-8
##MP= -300
##BP= -300
##MW= 256
##$RETENTION INDEX=0
##$CONDENSED SPECTRUM=NO
##NPOINTS= 51
##XYDATA=(XY..XY) 1 
    54         18
    55        143
    56        177
    57         48
    58        616
    59         30
    69         41
    70         38
    71         46
    72        999
    73         50
    74         16
    76         29
    81        206
    83         74
    84         11
    85         13
    86        220
    89         75
    90         43
    97         10
    98         28
    99         12
   101         15
   103          7
   104         29
   105          6
   112         11
   113         21
   118          9
   127        230
   128         19
   129        261
   130         18
   133         12
   146          7
   149         16
   150         16
   169         30
   177          8
   184         69
   185          6
   186          3
   197         11
   213         23
   225         45
   226          3
   227          3
   237         24
   241         12
   256          1