##TITLE=Library Entry 40070
##JCAMP-DX=Revision 4.10 
##DATA TYPE=MASS SPECTRUM
##SAMPLE DESCRIPTION=K. Kirk, LC, NIDDK, NIH, Bethesda, MD 20892
##NAMES=HP
##CAS NAME=Benzeneethanamine, 4,5-dibenzyloxy-2-fluoro-.beta.-hydroxy-N-isop
ropyl-
##MOLFORM=C25H28FNO3
##CAS REGISTRY NO=81441-22-7
##MP= -300
##BP= -300
##MW= 409
##$RETENTION INDEX=0
##$CONDENSED SPECTRUM=NO
##NPOINTS= 203
##XYDATA=(XY..XY) 1 
    41         19
    42          6
    43         28
    44          8
    45          1
    49          1
    50          1
    51          8
    52          2
    53          1
    54          1
    55          5
    56         15
    57         12
    58         12
    59          1
    60          1
    62          1
    63          7
    64          3
    65         52
    66          2
    67          1
    68          1
    69          4
    70          8
    72        999
    73         52
    74          5
    75          1
    76          0
    77          5
    78          1
    79          2
    80          1
    81          2
    82          1
    83          7
    84          2
    85          3
    86          5
    87          1
    89         11
    90          1
    91        516
    92         42
    93          2
    95          2
    96          2
    97          4
    98          1
    99          3
   100          1
   102          0
   104          1
   105          3
   106          1
   107          2
   108          1
   109          1
   110          1
   111          3
   112          1
   113          1
   115          1
   119          0
   120          1
   121          0
   122          1
   123          2
   124          1
   125          2
   126          1
   127          1
   128          1
   129          1
   133          1
   135          1
   136          0
   137          1
   138          1
   139          2
   140          3
   141          3
   142          0
   147          0
   149          4
   150          1
   151          4
   152          2
   153          2
   155          1
   156         12
   157          3
   158          1
   159          1
   163          1
   164          0
   165          3
   166          2
   167          2
   168          1
   169          2
   170          1
   171          1
   177          0
   178          1
   179          2
   180          1
   181         29
   182          5
   183          1
   184          0
   186          1
   193          0
   194          0
   195          0
   197          0
   198          1
   199          1
   208          1
   209          0
   210          1
   211          1
   212          1
   217          1
   218          1
   222          1
   224          1
   225          1
   226          3
   227          1
   228          1
   229          1
   230          3
   231          1
   238          1
   241          1
   242          1
   243          4
   244          1
   245         21
   246         10
   247         55
   248          9
   249          1
   275          5
   276          1
   279          1
   284          1
   298          3
   299          1
   300          2
   301          1
   302          1
   318         59
   319         14
   320          3
   321          1
   322          2
   323          0
   328          1
   329          0
   330          1
   334          1
   335          0
   336         45
   337         22
   338         65
   339         15
   340          2
   346          4
   347          1
   350          1
   351          1
   352          1
   364          0
   365          4
   366          2
   367          1
   368          0
   372          4
   373          1
   376         14
   377          3
   378          1
   380          1
   383          1
   384          5
   385          2
   386          0
   389          7
   390          7
   391          2
   392          8
   393          2
   394          1
   398          1
   408          2
   409         49
   410         19
   411         14
   412          2