##TITLE=Library Entry 64192
##JCAMP-DX=Revision 4.10 
##DATA TYPE=MASS SPECTRUM
##SAMPLE DESCRIPTION=K. Kirk, LC, NIDDK, NIH, Bethesda, MD 20892
##NAMES=HP
##CAS NAME=Benzeneethanamine, 3,4-dibenzyloxy-2-fluoro-.beta.-hydroxy-
##MOLFORM=C22H22FNO3
##CAS REGISTRY NO=81441-11-4
##MP= -300
##BP= -300
##MW= 367
##$RETENTION INDEX=0
##$CONDENSED SPECTRUM=NO
##NPOINTS= 223
##XYDATA=(XY..XY) 1 
    41          7
    42          2
    43          5
    44          5
    45          1
    49          0
    50          2
    51         11
    52          3
    53          1
    54          0
    55          1
    56          0
    57          4
    58          0
    59          0
    60          1
    61          0
    62          2
    63         12
    64          5
    65         83
    66          5
    67          1
    68          0
    69          2
    70          1
    71          2
    72          1
    73          1
    74          0
    75          1
    76          1
    77          6
    78          1
    79          3
    80          1
    81          1
    82          1
    83          9
    84          1
    85          1
    86          1
    87          0
    89         19
    91        999
    92        100
    93          4
    94          1
    95          1
    96          1
    97          1
    98          1
    99          4
   100          1
   103          1
   104          1
   105          7
   106          1
   107          4
   108          2
   109          1
   110          1
   111         11
   112          1
   113          0
   115          2
   116          0
   117          0
   118          0
   119          2
   120          4
   121          1
   122          2
   123          1
   124          1
   125          1
   126          0
   127          1
   128          2
   129          1
   133          1
   135          0
   136          1
   137          1
   138          1
   139          6
   140         12
   141          5
   142          1
   143          0
   146          0
   147          0
   149          1
   150          1
   151          2
   152          3
   153          5
   154          1
   155          2
   156         23
   157         79
   158          7
   159          1
   164          1
   165          7
   166         12
   167          6
   168          3
   169         20
   170          3
   171          2
   172          0
   173          0
   178          2
   179          7
   180          6
   181        422
   182         68
   183          6
   184          2
   185          1
   186          0
   187          0
   191          0
   195          0
   196          0
   197          4
   198          1
   199          2
   200          0
   201          1
   202          0
   203          0
   208          0
   209          1
   210          1
   211          1
   212          1
   213          1
   214          0
   215          1
   216          1
   217          2
   218          0
   219          0
   224          0
   225          1
   226          1
   227          3
   228         12
   229          7
   230          8
   231          2
   232          0
   238          2
   239         13
   240          3
   241          2
   242          2
   243          4
   244          2
   245        146
   246         32
   247        125
   248         19
   249          2
   254          0
   255          2
   256        484
   257        103
   258         18
   259          5
   260          5
   261          4
   262          1
   270          0
   271          1
   272          1
   273          0
   274          0
   275          0
   276         24
   277          4
   278          0
   286          0
   288          1
   289          2
   290          1
   291          0
   301          0
   302          0
   308          0
   312          0
   317          0
   318          2
   319         13
   320          6
   321          2
   322          0
   329          0
   330         32
   331          8
   332          1
   333          0
   334          5
   335          1
   336         26
   337        469
   338        127
   339         19
   340          1
   346          1
   347         34
   348         12
   349         28
   350         33
   351         12
   352          2
   366          0
   367         19
   368          8
   369          1