##TITLE=Library Entry 40061
##JCAMP-DX=Revision 4.10 
##DATA TYPE=MASS SPECTRUM
##SAMPLE DESCRIPTION=K. Kirk, LC, NIDDK, NIH, Bethesda, MD 20892
##NAMES=HP
##CAS NAME=Benzeneethanamine, 3,4-dibenzyloxy-2-fluoro-.beta.-hydroxy-N-isop
ropyl-
##MOLFORM=C25H28FNO3
##CAS REGISTRY NO=81441-13-6
##MP= -300
##BP= -300
##MW= 409
##$RETENTION INDEX=0
##$CONDENSED SPECTRUM=NO
##NPOINTS= 178
##XYDATA=(XY..XY) 1 
    41         14
    42          5
    43         23
    44          5
    45          0
    50          1
    51          5
    52          1
    53          0
    54          1
    55          2
    56         12
    57          7
    58         14
    59          1
    60          0
    62          1
    63          6
    64          2
    65         45
    66          2
    67          0
    68          0
    69          1
    70          6
    72        999
    73         55
    74          6
    75          1
    76          0
    77          3
    78          1
    79          1
    80          0
    81          1
    82          0
    83          4
    84          1
    85          2
    86          2
    89         10
    91        426
    92         34
    93          2
    95          1
    96          1
    97          1
    98          0
    99          1
   100          2
   102          0
   103          0
   104          0
   105          3
   106          1
   107          2
   108          1
   109          2
   110          1
   111          3
   112          2
   113          0
   115          1
   118          0
   119          1
   120          1
   121          0
   122          0
   123          1
   124          1
   125          1
   126          0
   127          1
   128          1
   130          0
   133          1
   135          1
   136          1
   137          0
   138          1
   139          2
   140          5
   141          2
   142          0
   146          1
   149          1
   150          0
   151          1
   152          1
   153          2
   155          1
   156          7
   157          4
   158          1
   159          0
   160          0
   162          1
   163          0
   164          1
   165          2
   166          2
   167          2
   168          1
   169          2
   170          1
   171          1
   178          1
   179          1
   180          1
   181         30
   182          4
   183          1
   193          0
   195          0
   196          1
   197          2
   198          1
   199          0
   208          2
   209          1
   210          1
   211          1
   212          0
   224          0
   225          1
   226          2
   227          1
   229          1
   230          1
   241          0
   242          0
   243          3
   244          1
   245         10
   246          4
   247         19
   248          2
   257          1
   258          0
   259          0
   284          0
   289          0
   298         15
   299          3
   300          2
   301          0
   302          1
   318          9
   319          2
   320          0
   328          0
   336          2
   337          6
   338          5
   339          0
   346          1
   348          1
   349          2
   350          1
   370          0
   372          2
   373          0
   376          6
   377          1
   383          1
   384          3
   385          1
   389          0
   390          3
   391          1
   392          4
   393          1
   394          1
   408          1
   409         38
   410         22
   411          9
   412          1