##TITLE=Library Entry 47744
##JCAMP-DX=Revision 4.10 
##DATA TYPE=MASS SPECTRUM
##SAMPLE DESCRIPTION=Chemical Concepts
##NAMES=HP
##CAS NAME=1-(1-Benzenesulfonyl-1H-pyrrol-3-yl)-ethanone
##MOLFORM=C12H11NO3S
##CAS REGISTRY NO=81453-98-7
##MP= -300
##BP= -300
##MW= 249
##$RETENTION INDEX=0
##$CONDENSED SPECTRUM=NO
##NPOINTS= 64
##XYDATA=(XY..XY) 1 
    26          3
    27         31
    28          6
    37          6
    38         66
    39         44
    40          2
    41          2
    42          4
    43         53
    45          2
    50         49
    51        201
    52         19
    53         44
    54          2
    57          2
    62          2
    63          7
    64          4
    65         24
    66         15
    67          2
    69          3
    73          2
    74         10
    75          9
    76         14
    77        999
    78         66
    79          2
    80          7
    89          3
    91          3
    92          2
    93         34
    94         38
    95          2
    97          9
   109          3
   114          2
   115         20
   116          3
   125         17
   126          3
   127          2
   128          2
   140          3
   141        228
   142         17
   143         11
   149          3
   153          2
   168          2
   169          3
   170          6
   183          3
   234        408
   235         48
   236         22
   237          2
   249        228
   250         30
   251         12