##TITLE=Library Entry 109886
##JCAMP-DX=Revision 4.10 
##DATA TYPE=MASS SPECTRUM
##SAMPLE DESCRIPTION=TNO Volatile Compounds in Food - Chemical Concepts
##NAMES=HP
##CAS NAME=2-Thiophenecarboxylic acid, 3-methyl-, methyl ester
##MOLFORM=C7H8O2S
##CAS REGISTRY NO=81452-54-2
##MP= -300
##BP= -300
##MW= 156
##$RETENTION INDEX=0
##$CONDENSED SPECTRUM=NO
##NPOINTS= 44
##XYDATA=(XY..XY) 1 
    27         34
    28         15
    29         11
    31          2
    32          2
    34          7
    37          4
    38          9
    39         31
    41          2
    44          4
    45        121
    47          7
    50         10
    51         18
    52          6
    53        145
    54          3
    57          5
    58          8
    59          7
    63          4
    69         38
    70         31
    71          9
    81          3
    82          3
    85         29
    95          7
    96         42
    97         93
    98         14
    99          3
   111          2
   124         98
   125        999
   126         64
   127         34
   139          2
   141         81
   142          3
   156        673
   157         23
   158         13