##TITLE=Library Entry 47646
##JCAMP-DX=Revision 4.10 
##DATA TYPE=MASS SPECTRUM
##SAMPLE DESCRIPTION=A.A.Kutin, Moscow, Russia
##NAMES=HP
##CAS NAME=N-Cyclohexyl-N'-(2-hydroxyethyl)thiourea
##MOLFORM=C9H18N2OS
##CAS REGISTRY NO=81467-07-4
##MP= -300
##BP= -300
##MW= 202
##$RETENTION INDEX=0
##$CONDENSED SPECTRUM=NO
##NPOINTS= 141
##XYDATA=(XY..XY) 1 
    33         12
    34         15
    35          1
    36          2
    37          1
    38          9
    39        168
    40         85
    41        469
    42        159
    43        543
    44        453
    45        246
    46         16
    47         11
    48          7
    49          1
    50          7
    51         19
    52         16
    53        101
    54        131
    55        495
    56        287
    57         65
    58         46
    59         70
    60        419
    61         54
    62        440
    63         15
    64         12
    65         18
    66         15
    67        148
    68         29
    69         92
    70         49
    71         24
    72         41
    73         28
    74         24
    75         17
    76         79
    77        999
    78         43
    79        110
    80         24
    81        170
    82         87
    83        175
    84         25
    85         23
    86        130
    87        153
    88         19
    89         54
    90         49
    91         16
    92         14
    93          4
    94          5
    95          8
    96         19
    97         39
    98        406
    99         35
   100         17
   101        109
   102         39
   103         68
   104         34
   105          8
   106          3
   108         20
   109          5
   110         33
   111          7
   112          7
   113         10
   114          9
   115         25
   116         10
   117          6
   118          7
   119        113
   120          9
   121         65
   122          4
   123          6
   124          4
   125         44
   126          6
   127         18
   128         15
   129         18
   130          5
   131          1
   133          2
   135          1
   137         19
   138          3
   139          6
   141         51
   142         36
   143         10
   144          3
   145         17
   146          3
   147          3
   149          1
   151         10
   152          2
   153          2
   155         29
   156         14
   157        148
   158         22
   159         65
   160          7
   161          4
   167          2
   168         10
   169         66
   170         10
   171         14
   172          5
   173          9
   174          0
   183         33
   184        186
   185         25
   186         10
   187          3
   199          0
   200          7
   201        130
   202        631
   203         78
   204         36
   205          3