##TITLE=Library Entry 62327
##JCAMP-DX=Revision 4.10 
##DATA TYPE=MASS SPECTRUM
##SAMPLE DESCRIPTION=A.A.Kutin, Moscow, Russia
##NAMES=HP
##CAS NAME=Piperazine, 1-benzyl-4-cyclohexanoyl-
##MOLFORM=C18H26N2O
##CAS REGISTRY NO=81486-90-0
##MP= -300
##BP= -300
##MW= 286
##$RETENTION INDEX=0
##$CONDENSED SPECTRUM=NO
##NPOINTS= 144
##XYDATA=(XY..XY) 1 
    39         39
    41        130
    42         92
    43          2
    44          8
    53         23
    54         40
    55        294
    56         70
    57         27
    58         23
    63          1
    65         86
    66          7
    67         20
    68         13
    69          9
    70         13
    71         15
    72         35
    73          0
    79         20
    80          4
    81         44
    83        286
    84         31
    85         84
    86          5
    87          5
    89         20
    91        999
    92         99
    93          4
    95          1
    96          2
    97          3
    98          7
    99         23
   100          3
   101          0
   103          2
   105         25
   106          8
   108          1
   109          7
   110         17
   111         38
   112         25
   113         33
   114          2
   115          2
   116          5
   117         58
   118         35
   119          7
   120         34
   121          2
   123          1
   124         19
   125          7
   126          7
   128          1
   129          4
   130         21
   131         78
   132        397
   133        107
   134        615
   135         64
   136          2
   138         29
   139         12
   140          5
   141          2
   142          2
   144         31
   146        943
   147        114
   148          7
   150          1
   152         15
   154        214
   155         24
   156          7
   158         44
   159        229
   160         41
   161         15
   164          2
   166         20
   167          7
   168         26
   169         15
   170          3
   171          1
   172          1
   173         13
   175        389
   176         52
   177         16
   178          3
   180          4
   181          5
   183          1
   184          1
   186          1
   187          1
   188          2
   189          5
   190          1
   195         49
   196          6
   200          2
   201          2
   203         31
   204          6
   209         10
   210          1
   212          2
   213          7
   214         39
   215         10
   216          2
   217          2
   218          4
   228          1
   229          2
   230          2
   231          4
   242          4
   243          4
   244          1
   257          2
   267          1
   269          1
   271         19
   272          3
   283          1
   284         16
   285         67
   286        439
   287        139
   288         21
   289          2