##TITLE=Library Entry 61267
##JCAMP-DX=Revision 4.10 
##DATA TYPE=MASS SPECTRUM
##SAMPLE DESCRIPTION=LAC, NIDDK, NIH, Bethesda, MD 20892
##NAMES=HP
##CAS NAME=N-[3-(Benzyloxy)phenyl]acetamide  #
##MOLFORM=C15H15NO2
##CAS REGISTRY NO=81499-32-3
##MP= -300
##BP= -300
##MW= 241
##$RETENTION INDEX=0
##$CONDENSED SPECTRUM=NO
##NPOINTS= 60
##XYDATA=(XY..XY) 1 
    41          5
    43        178
    44          4
    47         12
    48          2
    50          3
    51         52
    52         39
    53         23
    54          3
    55          2
    57          0
    62          4
    63         22
    64          2
    65         98
    66          5
    69          2
    74          0
    75          1
    76          2
    77          7
    78          8
    79         15
    80        102
    81          6
    88          6
    89         17
    91        999
    92         63
    93          4
   104          1
   105          1
   106          1
   108        184
   109          9
   115          1
   120          6
   121          1
   128          1
   133          1
   134          1
   135          3
   150          9
   152          2
   153          2
   167          1
   168          0
   170          2
   180          0
   181          3
   182          4
   183          0
   196          2
   198          7
   199         80
   200          9
   241        132
   242         22
   243          1