##TITLE=Library Entry 9140
##JCAMP-DX=Revision 4.10 
##DATA TYPE=MASS SPECTRUM
##SAMPLE DESCRIPTION=Chemical Concepts
##NAMES=HP
##CAS NAME=2,4-Pentanedione, 3-methyl-
##MOLFORM=C6H10O2
##CAS REGISTRY NO=815-57-6
##MP= -300
##BP= -300
##MW= 114
##$RETENTION INDEX=897
##$CONDENSED SPECTRUM=NO
##NPOINTS= 46
##XYDATA=(XY..XY) 1 
    25          1
    26         23
    27         65
    28         31
    29         26
    30          0
    31          3
    36          0
    37          5
    38         11
    39         50
    40          5
    41         37
    42         57
    43        999
    44         26
    45         10
    49          2
    50         14
    51         13
    52          5
    53         25
    54         10
    55         56
    56         12
    57        141
    58          6
    65          0
    66          0
    67          2
    68          0
    69          5
    70          3
    71         58
    72        245
    73          9
    81          2
    82          0
    83          6
    86          0
    98          7
    99         98
   100          5
   113          0
   114         61
   115          4