##TITLE=Library Entry 9926
##JCAMP-DX=Revision 4.10 
##DATA TYPE=MASS SPECTRUM
##SAMPLE DESCRIPTION=Japan AIST/NIMC Database- Spectrum MS-NW-5571
##NAMES=HP
##CAS NAME=2,4-Pentanedione, 3-acetyl-
##MOLFORM=C7H10O3
##CAS REGISTRY NO=815-68-9
##MP= -300
##BP= -300
##MW= 142
##$RETENTION INDEX=0
##$CONDENSED SPECTRUM=NO
##NPOINTS= 71
##XYDATA=(XY..XY) 1 
    12          1
    13          4
    14         18
    15         98
    16          5
    25          2
    26         10
    27         33
    28         27
    29         26
    30          1
    31         15
    32          1
    37          5
    38          9
    39         26
    40          4
    41         22
    42         48
    43        999
    44         24
    45         83
    46          1
    49          1
    50          3
    51          3
    52          1
    53          6
    54          1
    55          9
    56          1
    57          4
    58         19
    59          1
    60         63
    61          2
    62          1
    63          2
    65          1
    66          3
    67         43
    68          2
    69         11
    70          1
    71          2
    72         21
    73          1
    74          3
    81          1
    82         17
    83          6
    84          4
    85        395
    86         18
    87          2
    95          1
    96          2
    99          4
   100        161
   101         10
   102          1
   109          6
   114          1
   123          1
   124         12
   125          2
   127         84
   128          6
   141          3
   142         69
   143          6