##TITLE=Library Entry 400
##JCAMP-DX=Revision 4.10 
##DATA TYPE=MASS SPECTRUM
##SAMPLE DESCRIPTION=D.LIGHT,GENENTECH INC,SAN BRUNO BLVD.,SAN FRANCISCO,CAL
IF.,USA
##NAMES=HP
##CAS NAME=Ethyl 4-(hydroxymethyl)phenyl sulfide
##MOLFORM=C9H12OS
##CAS REGISTRY NO=81518-54-9
##MP= -300
##BP= -300
##MW= 168
##$RETENTION INDEX=0
##$CONDENSED SPECTRUM=NO
##NPOINTS= 91
##XYDATA=(XY..XY) 1 
    16         37
    17         79
    18         81
    26        179
    27        959
    28        188
    29        999
    30         42
    31        319
    32         32
    35         35
    37         20
    38         62
    39        325
    40         33
    41         97
    42         10
    43         15
    44         12
    45        555
    46         39
    47         43
    50        154
    51        344
    52         85
    53         88
    55         40
    57         39
    58         93
    59        106
    60         21
    61         57
    62         75
    63        164
    64         21
    65        211
    66        131
    67         93
    68         15
    69        216
    70         28
    71         71
    73         12
    74         38
    75         29
    76         37
    77        701
    78        224
    79        690
    80         46
    81         32
    82         60
    83         19
    84         35
    85         26
    89         47
    90         12
    91         72
    92         14
    93         18
    95         44
    97         19
   103         13
   104         14
   105         44
   106         18
   107        443
   108         72
   109        157
   110         96
   111        303
   112         33
   113         13
   121         74
   122         33
   123        229
   124         19
   125         15
   135         51
   137         39
   138         25
   139        159
   140         28
   151         87
   152         12
   153         27
   166         20
   167        112
   168        705
   169         86
   170         35