##TITLE=Library Entry 8158
##JCAMP-DX=Revision 4.10 
##DATA TYPE=MASS SPECTRUM
##SAMPLE DESCRIPTION=K. Jacobson, LBC, NIDDK, NIH, Bethesda, MD 20892
##NAMES=HP
##CAS NAME=1,3-dioxane-4,6-dione-5-oxime, 2,2-dimethyl-
##MOLFORM=C6H7NO5
##CAS REGISTRY NO=81539-54-0
##MP= -300
##BP= -300
##MW= 173
##$RETENTION INDEX=0
##$CONDENSED SPECTRUM=NO
##NPOINTS= 94
##XYDATA=(XY..XY) 1 
    41        224
    42         49
    43        999
    44        204
    45         44
    46          2
    48          0
    50          1
    51          2
    52          1
    54        216
    55         12
    56          4
    57         10
    58         57
    59        752
    60         26
    61          2
    63          0
    65          0
    67          2
    68         11
    69          8
    70         36
    71         52
    72          3
    73          2
    74          1
    76          1
    77          2
    78          2
    79          0
    81          2
    82          1
    83          2
    84          5
    85          2
    86          1
    87         57
    88         11
    89          1
    90          4
    91          1
    93          0
    95          1
    96          0
    97          1
    98          4
    99          3
   100          0
   101          2
   102          0
   103          0
   104          0
   105          0
   106          1
   107          0
   109          1
   111          2
   112         57
   113          5
   115        167
   116         11
   117          6
   118          0
   119          0
   121          3
   122          1
   123          0
   124          2
   125          1
   127          2
   128          0
   129          1
   130          1
   131          1
   133          0
   135          0
   139          1
   142          2
   143          1
   145          1
   148          0
   149          3
   150          1
   155          4
   156          0
   157          0
   158         34
   159          2
   160          1
   172          2
   173          4
   174          0