##TITLE=Library Entry 65490
##JCAMP-DX=Revision 4.10 
##DATA TYPE=MASS SPECTRUM
##SAMPLE DESCRIPTION=Chemical Concepts
##NAMES=HP
##CAS NAME=1H-Cyclobuta[c]pentalen-5-one,2,2a,4a,5,6,7-hexahydro-2,2,4a-trim
ethyl
##MOLFORM=C13H18O
##CAS REGISTRY NO=81532-22-1
##MP= -300
##BP= -300
##MW= 190
##$RETENTION INDEX=0
##$CONDENSED SPECTRUM=NO
##NPOINTS= 93
##XYDATA=(XY..XY) 1 
    26          2
    27         52
    28         10
    29         24
    38          4
    39         76
    40         12
    41         85
    42          5
    43         14
    44          3
    50         10
    51         41
    52         18
    53         36
    54          3
    55         31
    56          6
    57          8
    58          5
    59          2
    62          3
    63         20
    64          9
    65         62
    66         11
    67         10
    68          1
    69          9
    70          2
    71          4
    73          1
    74          3
    75          5
    76          4
    77         82
    78         32
    79         47
    80          6
    81          6
    82          2
    83          3
    85          3
    89          9
    90          7
    91        369
    92        999
    93        149
    94          9
    95          3
    96          1
    97          2
   101          2
   102          5
   103         25
   104         13
   105        118
   106         61
   107         17
   108          2
   109          2
   111          1
   115         22
   116          8
   117         24
   118          7
   119        160
   120         20
   121          3
   123          1
   127          2
   128          5
   129          6
   130          3
   131         13
   132          5
   133         43
   134        392
   135         43
   136          3
   145          3
   146          7
   147         41
   148         24
   149          3
   157          4
   161          2
   162          5
   175         16
   176          2
   190         88
   191         12
   192          2