##TITLE=Library Entry 80701
##JCAMP-DX=Revision 4.10 
##DATA TYPE=MASS SPECTRUM
##SAMPLE DESCRIPTION=Chemical Concepts
##NAMES=HP
##CAS NAME=Spiro[3.6]deca-5,7-dien-1-one,5,9,9-trimethyl
##MOLFORM=C13H18O
##CAS REGISTRY NO=81532-19-6
##MP= -300
##BP= -300
##MW= 190
##$RETENTION INDEX=0
##$CONDENSED SPECTRUM=NO
##NPOINTS= 145
##XYDATA=(XY..XY) 1 
    26          3
    27         61
    28          6
    29         30
    30          0
    31          0
    38          4
    39         89
    40         13
    41        136
    42         11
    43         44
    44          1
    45          1
    50         10
    51         47
    52         18
    53         49
    54          4
    55         54
    56          5
    57          5
    58          6
    59          2
    60          0
    61          0
    62          4
    63         22
    64         14
    65         65
    66         14
    67         21
    68          4
    69         12
    70          3
    71          5
    72          1
    73          1
    74          3
    75          5
    76          5
    77        111
    78         32
    79         72
    80          9
    81         10
    82          5
    83          4
    84          1
    85          1
    86          1
    87          1
    88          1
    89         10
    90          3
    91        279
    92         65
    93         56
    94          8
    95          7
    96          5
    97          2
    98          0
   101          3
   102          7
   103         36
   104         23
   105        999
   106        432
   107         67
   108         12
   109          8
   110          2
   111          1
   112          0
   113          1
   114          1
   115         45
   116         18
   117         60
   118         23
   119        328
   120         67
   121         11
   122          2
   123          2
   124          3
   125          0
   126          0
   127          4
   128         10
   129         11
   130          5
   131         33
   132         11
   133        310
   134         47
   135          6
   136          0
   137          2
   138          0
   139          1
   140          0
   141          4
   142          2
   143          2
   144          0
   145          5
   146         11
   147         67
   148        269
   149         31
   150          3
   151          2
   152          1
   153          1
   154          0
   155          0
   156          0
   157          6
   158          1
   159          0
   160          1
   161          4
   162         12
   163          2
   164          0
   165          1
   166          1
   167          1
   168          1
   169          1
   170          0
   171          0
   172          6
   173          1
   174          0
   175         17
   176          2
   177          0
   189          0
   190        110
   191         16
   192          1
   193          0