##TITLE=Library Entry 27259
##JCAMP-DX=Revision 4.10 
##DATA TYPE=MASS SPECTRUM
##SAMPLE DESCRIPTION=Japan AIST/NIMC Database- Spectrum MS-NW-9735
##NAMES=HP
##CAS NAME=4-Butoxyphthalonitrile
##MOLFORM=C12H12N2O
##CAS REGISTRY NO=81560-32-9
##MP= -300
##BP= -300
##MW= 200
##$RETENTION INDEX=0
##$CONDENSED SPECTRUM=NO
##NPOINTS= 88
##XYDATA=(XY..XY) 1 
    15          4
    26          9
    27        120
    28         49
    29        517
    30         12
    31          1
    37         16
    38         17
    39        117
    40         15
    41        699
    42         29
    43          7
    44          1
    45          1
    49          2
    50         18
    51         16
    52         15
    53         16
    54          5
    55         65
    56        687
    57        999
    58         48
    59          1
    61          6
    62         21
    63         24
    64         41
    65          9
    66          2
    73          2
    74          4
    75         18
    76         24
    77          4
    78          2
    86          1
    87          6
    88         22
    89         26
    90          7
    91          2
    99          6
   100         55
   101         14
   102         10
   103          2
   114          2
   115         36
   116         61
   117          9
   118          6
   119          1
   126          1
   127         94
   128         14
   129         19
   130          3
   141          4
   142          4
   143         13
   144        607
   145        785
   146         74
   147          5
   153          2
   155          1
   157         73
   158         11
   159          1
   164          1
   169          1
   170          2
   171          7
   172          2
   173          9
   174          1
   183          1
   185          5
   186          1
   199          3
   200        873
   201        250
   202         27
   203          2