##TITLE=Library Entry 54001
##JCAMP-DX=Revision 4.10 
##DATA TYPE=MASS SPECTRUM
##SAMPLE DESCRIPTION=A.A.Kutin, Moscow, Russia
##NAMES=HP
##CAS NAME=1-(5-Bromo-thiophene-2-sulfonyl)-piperidine
##MOLFORM=C9H12BrNO2S2
##CAS REGISTRY NO=81597-71-9
##MP= -300
##BP= -300
##MW= 309
##$RETENTION INDEX=0
##$CONDENSED SPECTRUM=NO
##NPOINTS= 169
##XYDATA=(XY..XY) 1 
    34          1
    37         10
    38         68
    39        100
    40         53
    41        245
    42        657
    43         49
    44         35
    45         38
    48          7
    49          6
    50          6
    51          6
    52          5
    53         36
    54         85
    55        570
    56        199
    57        129
    58          9
    59          3
    60          2
    62          0
    63          1
    64          7
    65          8
    66          5
    67         19
    68         25
    69         75
    70         45
    71         19
    72          2
    76         15
    77         10
    78          9
    79          7
    80         22
    81        117
    82        550
    83        964
    84        999
    85         69
    86          7
    89          5
    90          2
    91         19
    92          3
    93          3
    94          1
    95          2
    96         22
    97         12
    98         32
    99          3
   100          2
   101          0
   102          8
   103          3
   104          9
   105         14
   106         27
   107          6
   109          5
   110         13
   111          3
   112          5
   113          1
   114         10
   116          7
   117         84
   118         12
   119         79
   120          8
   121          4
   122         11
   123         14
   124          5
   125         10
   129          0
   130          1
   131          5
   132         20
   133          3
   134          3
   135          8
   136          4
   137          6
   138          3
   139          3
   146          6
   147          6
   148          4
   149         49
   150          2
   151         46
   152          2
   153          4
   155          0
   160         10
   161         79
   162        416
   163         98
   164        403
   165         31
   166        127
   167         11
   168          3
   169          2
   171          2
   175          5
   176          3
   177         59
   178          6
   179         48
   180          5
   181          2
   182          0
   189          6
   190          2
   191          7
   192          1
   202          1
   204          1
   205          1
   206          1
   209         13
   211         14
   212          0
   214          0
   216          1
   223          1
   225        245
   226         23
   227        273
   228         19
   229         29
   230         30
   231          4
   232          6
   240          2
   242          3
   244         59
   245         70
   246         58
   247         65
   248          8
   249          1
   254          7
   256          3
   257          1
   268         19
   270         21
   283          0
   285          1
   287          0
   300          4
   301          2
   303          0
   305          2
   307          7
   308        200
   309        372
   310        237
   311        415
   312         66
   313         32
   314          1