##TITLE=Library Entry 76047
##JCAMP-DX=Revision 4.10 
##DATA TYPE=MASS SPECTRUM
##SAMPLE DESCRIPTION=Japan AIST/NIMC Database- Spectrum MS-IW-3566
##NAMES=HP
##CAS NAME=Hexanoic acid, 2-ethyl-, methyl ester
##MOLFORM=C9H18O2
##CAS REGISTRY NO=816-19-3
##MP= -300
##BP= -300
##MW= 158
##$RETENTION INDEX=1043
##$CONDENSED SPECTRUM=NO
##NPOINTS= 84
##XYDATA=(XY..XY) 1 
    15         43
    18          3
    26          5
    27        102
    28         22
    29        137
    30          4
    31          6
    32          2
    33          3
    37          1
    38          3
    39         81
    40         13
    41        268
    42         50
    43        211
    44          8
    45         25
    50          2
    51          6
    52          3
    53         23
    54          9
    55        221
    56         64
    57        607
    58         27
    59        130
    60          4
    61          4
    63          1
    65          3
    66          1
    67          9
    68          8
    69         95
    70         55
    71         14
    72          2
    73         33
    74         31
    75          1
    77          2
    78          2
    79          2
    80          1
    81          5
    82          2
    83         35
    84          4
    85          3
    87        972
    88         64
    89          6
    95          2
    96          1
    97         21
    98         20
    99         70
   100          7
   101        201
   102        999
   103         61
   104          6
   111          3
   113          2
   114          1
   115        172
   116         14
   117          1
   125          1
   126          1
   127         94
   128          9
   129        117
   130        182
   131         12
   132          1
   143         11
   144          1
   157          1
   158          6
   159          2