##TITLE=Library Entry 57436
##JCAMP-DX=Revision 4.10 
##DATA TYPE=MASS SPECTRUM
##SAMPLE DESCRIPTION=F.M.TRENT RES. DIV., U.S. IND. CHEM. CO., CINCINNATI, U
SA
##NAMES=HP
##CAS NAME=Heptanoic acid, 2-ethyl-, methyl ester
##MOLFORM=C10H20O2
##CAS REGISTRY NO=816-63-7
##MP= -300
##BP= -300
##MW= 172
##$RETENTION INDEX=1072
##$CONDENSED SPECTRUM=NO
##NPOINTS= 44
##XYDATA=(XY..XY) 1 
    15         59
    27        195
    28         52
    29        261
    31         12
    39        134
    40         44
    41        465
    42         87
    43        426
    44         16
    45         14
    53         44
    54         17
    55        349
    56         89
    57        376
    58         18
    59        197
    68         15
    69         16
    70        130
    71         61
    72        234
    73         15
    74         39
    75         55
    84         54
    85         29
    87        999
    88         58
    97         20
    98         15
   101        163
   102        989
   103         54
   113         41
   115        241
   116         23
   128         23
   141         33
   143         59
   144         79
   172          4