##TITLE=Library Entry 23919
##JCAMP-DX=Revision 4.10 
##DATA TYPE=MASS SPECTRUM
##SAMPLE DESCRIPTION=J.E. WILKINSON S-CUBED, SAN DIEGO, CA.
##NAMES=HP
##CAS NAME=2-Butanone, 1-bromo-
##MOLFORM=C4H7BrO
##CAS REGISTRY NO=816-40-0
##MP= -300
##BP= -300
##MW= 150
##$RETENTION INDEX=0
##$CONDENSED SPECTRUM=NO
##NPOINTS= 35
##XYDATA=(XY..XY) 1 
    41         58
    42        239
    43         42
    44          0
    49          2
    50          7
    51          4
    52          0
    53         12
    54          0
    55          7
    56         39
    57        999
    58         28
    59          0
    71          0
    79          8
    80          1
    81          8
    82          1
    91          2
    92          6
    93         62
    94         10
    95         58
    96          2
   107          0
   120          4
   121         48
   122          4
   123         47
   150         55
   151          2
   152         52
   153          1