##TITLE=Library Entry 3379
##JCAMP-DX=Revision 4.10 
##DATA TYPE=MASS SPECTRUM
##SAMPLE DESCRIPTION=Exported from NIST MS Search
##NAMES=HP
##CAS NAME=2-Pentene, 3-ethyl-
##MOLFORM=C7H14
##CAS REGISTRY NO=816-79-5
##MP= -300
##BP= -300
##MW= 98
##$RETENTION INDEX=698
##$CONDENSED SPECTRUM=NO
##NPOINTS= 69
##XYDATA=(XY..XY) 1 
    12          1
    13          3
    14         12
    15        102
    16          4
    24          1
    25          3
    26         49
    27        383
    28         59
    29        185
    30          4
    31          2
    32          1
    36          1
    37         11
    38         34
    39        382
    40         67
    41        999
    42        104
    43         94
    44          3
    45          1
    46          1
    49          3
    50         33
    51         62
    52         27
    53        140
    54         42
    55        861
    56        265
    57         27
    60          1
    61          5
    62         11
    63         19
    64          3
    65         28
    66         13
    67        101
    68         45
    69        933
    70        172
    71          8
    73          1
    74          2
    75          1
    76          1
    77         11
    78          3
    79         12
    80          2
    81         17
    82          4
    83        170
    84         12
    85          1
    86          1
    89          1
    91          1
    93          1
    95          1
    96          1
    97          2
    98        383
    99         30
   100          1