##TITLE=Library Entry 35714
##JCAMP-DX=Revision 4.10 
##DATA TYPE=MASS SPECTRUM
##SAMPLE DESCRIPTION=NIST Mass Spectrometry Data Center
##NAMES=HP
##CAS NAME=Geranyl oleate
##MOLFORM=C28H50O2
##CAS REGISTRY NO=81601-03-8
##MP= -300
##BP= -300
##MW= 418
##$RETENTION INDEX=2926
##$CONDENSED SPECTRUM=NO
##NPOINTS= 194
##XYDATA=(XY..XY) 1 
    26          1
    27          9
    28          2
    29         15
    38          1
    39         32
    40          9
    41        239
    42         22
    43         86
    44          4
    45          2
    50          3
    51          8
    52          6
    53         44
    54         38
    55        207
    56         35
    57         72
    58          4
    59          3
    60          4
    61          1
    62          1
    63          4
    64          1
    65         21
    66         10
    67        200
    68        290
    69        999
    70         77
    71         38
    72          4
    73          8
    74          1
    76          1
    77         48
    78          9
    79         82
    80        443
    81        272
    82         53
    83        130
    84         37
    85         25
    86          2
    87          3
    88          1
    89          1
    91         72
    92        241
    93        812
    94        180
    95        134
    96         35
    97        104
    98         29
    99          9
   100          3
   101          6
   102          1
   103          4
   104          2
   105         32
   106         11
   107        143
   108         53
   109         66
   110         23
   111         67
   112         15
   113          7
   114          5
   115          8
   116          2
   117          3
   118          1
   119         21
   120          6
   121        540
   122         61
   123         99
   124         18
   125         28
   126          7
   127         10
   128          2
   129          6
   130          1
   131          2
   133         10
   134          7
   135         39
   136        442
   137        155
   138         28
   139         23
   140          5
   141          5
   142          1
   143          3
   147          8
   148          3
   149         12
   150          4
   151         16
   152          7
   153         12
   154         45
   155          9
   156          1
   157          2
   161          6
   162          1
   163          7
   164          2
   165         14
   166          5
   167          6
   168          2
   169          3
   170          1
   171          2
   175          4
   176          1
   177          3
   178          1
   179         11
   180          4
   181          5
   182          2
   183          2
   185          2
   189          3
   190          1
   191          1
   192          1
   193          7
   194          2
   195          3
   196          3
   197          2
   199          2
   203          1
   205          2
   206          1
   207          6
   208          2
   209          2
   210          2
   211          1
   217          1
   219          1
   220          3
   221          6
   222          4
   223          3
   224          1
   225          1
   235          2
   236          1
   237          3
   238          1
   239          1
   245         10
   246          3
   247          4
   248          1
   249          1
   251          1
   262          1
   263         17
   264         12
   265         30
   266          6
   267          1
   275          1
   277          1
   280          8
   281          3
   282          1
   294          2
   295          1
   305          1
   307          1
   333          1
   335          1
   349          3
   350          1
   375          4
   376          1
   418          2