##TITLE=Library Entry 6997
##JCAMP-DX=Revision 4.10 
##DATA TYPE=MASS SPECTRUM
##SAMPLE DESCRIPTION=NIST Mass Spectrometry Data Center, 1998.
##NAMES=HP
##CAS NAME=3-Decen-1-ol, acetate, (Z)-
##MOLFORM=C12H22O2
##CAS REGISTRY NO=81634-99-3
##MP= -300
##BP= -300
##MW= 198
##$RETENTION INDEX=1360
##$CONDENSED SPECTRUM=NO
##NPOINTS= 71
##XYDATA=(XY..XY) 1 
    14          1
    15         12
    26          3
    27         61
    28         13
    29         88
    30          3
    31          4
    38          3
    39        108
    40         21
    41        271
    42         67
    43        999
    44         25
    45          4
    50          3
    51         12
    52          9
    53         79
    54        669
    55        317
    56         62
    57         23
    58          3
    60          1
    61          8
    63          2
    65         31
    66         46
    67        458
    68        401
    69         99
    70         16
    71         12
    72          1
    73         36
    74          2
    77         19
    78          4
    79         67
    80         30
    81        353
    82        218
    83         68
    84         16
    85          2
    86          1
    91          7
    92          1
    93          8
    94          5
    95        156
    96        235
    97         36
    98          3
    99          1
   105          1
   107          2
   108          2
   109        110
   110        191
   111         17
   112          1
   123          7
   124          1
   125          1
   137          1
   138        182
   139         20
   140          1