##TITLE=Library Entry 19075
##JCAMP-DX=Revision 4.10 
##DATA TYPE=MASS SPECTRUM
##SAMPLE DESCRIPTION=LAC, NIDDK, NIH, Bethesda, MD 20892
##NAMES=HP
##CAS NAME=3.alpha.-Hydroxy-11-cholenic acid methyl ester
##MOLFORM=C25H40O3
##CAS REGISTRY NO=81644-42-0
##MP= -300
##BP= -300
##MW= 388
##$RETENTION INDEX=0
##$CONDENSED SPECTRUM=NO
##NPOINTS= 230
##XYDATA=(XY..XY) 1 
    41        763
    43        753
    44         87
    45         83
    47         15
    48          5
    49          6
    51          4
    52          4
    53        213
    55        999
    56         15
    57        264
    59        395
    60         16
    61          9
    65         52
    66          9
    67        406
    68        110
    69        297
    70         55
    71         51
    73        197
    74        151
    75          6
    77        193
    78         57
    79        545
    81        741
    82         35
    83        186
    84         32
    85         57
    86         18
    87        113
    88         20
    89          2
    91        479
    92         75
    93        309
    94        124
    95        377
    96         78
    97         82
    98         14
    99         45
   101          7
   103         43
   104         24
   105        752
   106        255
   107        450
   108        108
   109        177
   110         19
   111         25
   112          3
   113         19
   115        223
   116         60
   117        222
   118        150
   119        244
   120        105
   121        160
   122         62
   123         81
   124         30
   125         32
   127         22
   128         39
   129         78
   130         51
   131        353
   132        135
   133        251
   134         71
   135         90
   136         10
   137         15
   139          2
   141        118
   142         52
   143        155
   144         67
   145        207
   146         54
   147        170
   148         30
   149         84
   150         11
   151         10
   152          6
   153         11
   154         16
   155         35
   156         18
   157        152
   158         81
   159        205
   160         61
   161        138
   162         23
   163         22
   165         10
   167         12
   168          4
   169         55
   170         20
   171        103
   172         23
   173         58
   174         21
   175         36
   176          2
   177         39
   178          4
   179          7
   180          3
   181         28
   182          3
   183         19
   184          5
   185         70
   186         24
   187         60
   188         36
   189         30
   190          3
   193          4
   194          4
   195         24
   196          4
   197         46
   198         10
   199         49
   200         31
   201         70
   202         27
   203         11
   205          3
   206          3
   207         10
   208         17
   209         20
   210          3
   211         20
   212         20
   213        226
   214        149
   215         81
   216         25
   217          5
   221         15
   222          7
   223          7
   225         10
   227         27
   228        191
   229         77
   230         21
   231         18
   232          4
   233          7
   235          2
   239         15
   240          6
   241         20
   242          8
   243          5
   247          8
   248          3
   249         13
   251          3
   253         11
   254          4
   255        257
   256         76
   257         14
   259          3
   260          6
   261         14
   262         30
   263          5
   264          3
   265          6
   267          3
   269          4
   271          4
   273         47
   274         25
   275         21
   276          4
   277          3
   281          3
   283          6
   287          3
   288          9
   289          3
   295          2
   301          4
   305          5
   313         24
   314         17
   315         28
   316         15
   321         16
   322          2
   323         27
   324          2
   327          3
   328         19
   329         13
   330          2
   339         33
   340          4
   341          7
   355        103
   356         38
   357         19
   369         13
   370        146
   371         76
   372         25
   373         18
   374          3
   387          6
   388         17
   389          3