##TITLE=Library Entry 40067
##JCAMP-DX=Revision 4.10 
##DATA TYPE=MASS SPECTRUM
##SAMPLE DESCRIPTION=Dr. Jiri Zamecnik, DCIEM, North York, Canada, GP Librar
y
##NAMES=HP
##CAS NAME=2-Benzyloxy-.beta.-dimethylamino-6-nitrostyrene
##MOLFORM=C17H18N2O3
##CAS REGISTRY NO=81695-23-0
##MP= -300
##BP= -300
##MW= 298
##$RETENTION INDEX=0
##$CONDENSED SPECTRUM=NO
##NPOINTS= 34
##XYDATA=(XY..XY) 1 
    42        293
    44        214
    58         74
    65        148
    72        999
    77         54
    81         20
    89         33
    91        779
    92         64
   105         30
   106         37
   107         20
   117         54
   118         95
   131         21
   132         84
   133         22
   146          9
   147         27
   148         66
   160        205
   161         52
   162         17
   175          9
   177         18
   178          2
   190        298
   191         25
   207        365
   208         25
   281         20
   298         77
   299          3