##TITLE=Library Entry 27668
##JCAMP-DX=Revision 4.10 
##DATA TYPE=MASS SPECTRUM
##SAMPLE DESCRIPTION=M. LOZYNSKI, POZNAN TECH. UNIV., POZNAN, POLAND
##NAMES=HP
##CAS NAME=Methylcarbamothioic acid, O-ethyl ester
##MOLFORM=C4H9NOS
##CAS REGISTRY NO=817-73-2
##MP= -300
##BP= -300
##MW= 119
##$RETENTION INDEX=0
##$CONDENSED SPECTRUM=NO
##NPOINTS= 19
##XYDATA=(XY..XY) 1 
    27        440
    28        210
    29        400
    30        450
    33         28
    42        150
    45        100
    47         88
    58        999
    59        130
    60        220
    61         72
    62        160
    74        370
    75         80
    91         60
   119        320
   120         60
   121         32