##TITLE=Library Entry 11463
##JCAMP-DX=Revision 4.10 
##DATA TYPE=MASS SPECTRUM
##SAMPLE DESCRIPTION=Institute of Organic Chemistry, Novosibirsk, USSR 1988
##NAMES=HP
##CAS NAME=1,3,5-Tri-O-acetyl-2,4-di-O-methyl-6-deoxy-D-galactitol
##MOLFORM=C14H24O8
##CAS REGISTRY NO=81703-39-1
##MP= -300
##BP= -300
##MW= 320
##$RETENTION INDEX=0
##$CONDENSED SPECTRUM=NO
##NPOINTS= 58
##XYDATA=(XY..XY) 1 
    41         40
    42         19
    43        999
    44         32
    45         83
    53          9
    55         25
    57         45
    58         91
    59         43
    60          4
    61          9
    70          9
    71         60
    72         94
    73         37
    74         63
    75         30
    83         19
    85        109
    87         45
    89        319
    90         14
    95          9
    97          9
    99        109
   101        409
   102         27
   109          5
   111          8
   113         78
   114         19
   115         12
   116          7
   117        999
   118         78
   127        114
   129         25
   131         54
   132         32
   141         25
   143          9
   145         17
   147          3
   159         96
   161         27
   173        109
   174          9
   187         19
   189          4
   201         22
   203         14
   205          4
   215         17
   233        114
   234         12
   247         25
   261          8