##TITLE=Library Entry 1046
##JCAMP-DX=Revision 4.10 
##DATA TYPE=MASS SPECTRUM
##SAMPLE DESCRIPTION=Japan AIST/NIMC Database- Spectrum MS-IW-6146
##NAMES=HP
##CAS NAME=2-Isopropoxyethylamine
##MOLFORM=C5H13NO
##CAS REGISTRY NO=81731-43-3
##MP= -300
##BP= -300
##MW= 103
##$RETENTION INDEX=0
##$CONDENSED SPECTRUM=NO
##NPOINTS= 40
##XYDATA=(XY..XY) 1 
    14          3
    15         30
    16          1
    17          4
    18         14
    26          7
    27        105
    28         78
    29         20
    30        999
    31         59
    32          7
    33          3
    37          3
    38          6
    39         53
    40         16
    41        213
    42        146
    43        614
    44        474
    45        765
    46         20
    55         11
    56          3
    57          1
    58          6
    59         19
    60         57
    61          2
    62          5
    72          4
    73         31
    74          3
    86          2
    88          1
    89          1
   103          3
   104         20
   105          1