##TITLE=Library Entry 56232
##JCAMP-DX=Revision 4.10 
##DATA TYPE=MASS SPECTRUM
##SAMPLE DESCRIPTION=Drug Lab
##NAMES=HP
##CAS NAME=Bambuterol
##MOLFORM=C18H29N3O5
##CAS REGISTRY NO=81732-46-9
##MP= -300
##BP= -300
##MW= 367
##$RETENTION INDEX=0
##$CONDENSED SPECTRUM=NO
##NPOINTS= 84
##XYDATA=(XY..XY) 1 
    42         37
    43         11
    44         10
    45          2
    46          4
    51          2
    53          2
    54          1
    55          9
    56         29
    57        113
    58         18
    59          1
    60          3
    63          2
    64          1
    65          3
    67          2
    68          3
    69          3
    70         46
    72        953
    73         38
    74          4
    77          3
    78          1
    79          2
    81          1
    82          3
    83          1
    84          7
    86        999
    87         63
    88          2
    89          1
    90          4
    91          1
    92          1
    93          1
    94          1
    95          1
    96          1
    98          1
   104          1
   105          1
   107          1
   116          1
   117          1
   120          1
   122          2
   123          1
   132          2
   133          1
   134          1
   148          1
   150          5
   193          3
   194          2
   195          1
   206          2
   207          1
   210         14
   211          4
   235          1
   237         17
   238          2
   239          2
   263          1
   272          1
   280          1
   281         17
   282         46
   283          7
   284          1
   294          1
   310          2
   334         23
   335          4
   352         31
   353          6
   354          1
   367         63
   368         16
   369          2