##TITLE=Library Entry 15049
##JCAMP-DX=Revision 4.10 
##DATA TYPE=MASS SPECTRUM
##SAMPLE DESCRIPTION=R. GREGSON,BIOTECHNOL. AUST. PTY LTD.,EAST ROSEVILLE,NS
W,AUST.
##NAMES=HP
##CAS NAME=2,3',4,5',6-Pentaacetoxy-4'-(3,5-diacetoxyphenoxy)diphenyl ether
##MOLFORM=C32H28O16
##CAS REGISTRY NO=81757-70-2
##MP= -300
##BP= -300
##MW= 668
##$RETENTION INDEX=0
##$CONDENSED SPECTRUM=NO
##NPOINTS= 78
##XYDATA=(XY..XY) 1 
    41         30
    42        140
    43        999
    44         30
    45         20
    55         10
    57         10
    60         20
    67         70
    68         70
    79         10
   109         20
   110         20
   111         20
   123         10
   126         50
   127         40
   137         20
   141         30
   142         20
   153         20
   163         10
   165         10
   177         20
   179         20
   193         20
   203         10
   205         10
   217         20
   219         20
   231         20
   232         30
   233         20
   234         20
   235         10
   247         90
   248         70
   249         20
   250         40
   261         10
   289         20
   290         10
   292         30
   334         70
   335         10
   336         10
   344         10
   345         20
   355         20
   356         20
   357         10
   372         20
   373        140
   374        280
   375         60
   376         40
   378         20
   414         20
   415         90
   416        170
   417         40
   420         20
   457         80
   458        560
   459        160
   462         40
   500        420
   501        120
   502         30
   542        390
   543        130
   544         40
   584        460
   585        160
   586         40
   626        160
   627         60
   668         30