##TITLE=Library Entry 5357
##JCAMP-DX=Revision 4.10 
##DATA TYPE=MASS SPECTRUM
##SAMPLE DESCRIPTION=L. Cohen, LC, NIDDK, NIH, Bethesda, MD 20892
##NAMES=HP
##CAS NAME=Imidazole, 2-methyl-4-trifluoromethyl-5-nitro-
##MOLFORM=C5H4F3N3O2
##CAS REGISTRY NO=81769-67-7
##MP= -300
##BP= -300
##MW= 195
##$RETENTION INDEX=0
##$CONDENSED SPECTRUM=NO
##NPOINTS= 77
##XYDATA=(XY..XY) 1 
    41         83
    42        999
    43        610
    44         47
    45         17
    46         56
    47         14
    48          6
    49          2
    50         28
    51         76
    52        104
    53         94
    54         21
    55         11
    57         17
    58         39
    60          8
    67         33
    68          5
    69        295
    70         61
    71         13
    72         58
    73         10
    75          1
    76         25
    77         36
    78         11
    79         22
    80         22
    81         26
    82          2
    83         22
    84          2
    85          1
    86          1
    88         37
    89         48
    90          4
    93          1
    95         24
    96        117
    97          9
    98          6
   100          1
   101          7
   102         35
   103          6
   107         12
   108         40
   109          6
   110         67
   111          2
   115          9
   120         16
   121         38
   122        369
   123         19
   128          7
   129        246
   130         19
   131          7
   138         26
   146         42
   147          9
   148         22
   149        522
   150         46
   165         25
   176         26
   179         34
   181         11
   193          1
   195        854
   196         71
   197          7