##TITLE=Library Entry 97424
##JCAMP-DX=Revision 4.10 
##DATA TYPE=MASS SPECTRUM
##SAMPLE DESCRIPTION=L. Cohen, LC, NIDDK, NIH, Bethesda, MD 20892
##NAMES=HP
##CAS NAME=Imidazole, 2-heptadecanluorooctyl-
##MOLFORM=C11H3F17N2
##CAS REGISTRY NO=81769-50-8
##MP= -300
##BP= -300
##MW= 486
##$RETENTION INDEX=0
##$CONDENSED SPECTRUM=NO
##NPOINTS= 151
##XYDATA=(XY..XY) 1 
    41         23
    42          3
    43          7
    44         11
    45          4
    46          5
    47          0
    50          5
    51          7
    52          7
    53          3
    54          0
    55          5
    56          3
    57          5
    58          2
    59          1
    60          1
    61          0
    62          1
    63          4
    64          1
    65          2
    66          5
    67          3
    68          1
    69        133
    70         41
    71          6
    72          0
    73          0
    74          2
    75          4
    76          4
    77          7
    78         15
    79          2
    81          3
    82          2
    83          3
    84          1
    85          2
    86          1
    88          1
    89         20
    90         91
    91          9
    93         15
    94          4
    95          3
    96          1
    97          6
    98          2
    99          1
   100         23
   101          2
   102          1
   105          1
   106          9
   107          2
   108          4
   109          1
   110          0
   111          1
   112          5
   113          1
   114          0
   115          2
   116         14
   117        999
   118        140
   119         35
   120          3
   121         11
   122          1
   123          0
   124         10
   125          3
   126          0
   128          0
   129          0
   131         34
   132          2
   135          1
   138          1
   139          2
   140          1
   143          3
   147          7
   148         80
   149         11
   150          1
   151          1
   152          1
   155          1
   158          0
   159          0
   160          0
   162          3
   166          2
   167          6
   168          0
   169         10
   170          1
   171          0
   178          4
   179          8
   180          1
   181          4
   182          0
   185          0
   189          2
   190          0
   191          1
   193          0
   197          3
   198         17
   199          2
   209          0
   212          0
   216          3
   217          4
   219          1
   220          0
   228          4
   229          3
   231          0
   236          1
   239          2
   243          0
   247          0
   248          4
   249          0
   266          1
   267          2
   279          0
   298          0
   317          2
   367          2
   417          4
   418          0
   436          0
   447          0
   458          2
   467        102
   468         20
   469          2
   485          3
   486        117
   487         24
   488          2