##TITLE=Library Entry 97707
##JCAMP-DX=Revision 4.10 
##DATA TYPE=MASS SPECTRUM
##SAMPLE DESCRIPTION=L. Cohen, LC, NIDDK, NIH, Bethesda, MD 20892
##NAMES=HP
##CAS NAME=Imidazole, 2-pentafluoroethyl-
##MOLFORM=C5H3F5N2
##CAS REGISTRY NO=81769-46-2
##MP= -300
##BP= -300
##MW= 186
##$RETENTION INDEX=0
##$CONDENSED SPECTRUM=NO
##NPOINTS= 80
##XYDATA=(XY..XY) 1 
    41         76
    42          4
    43         11
    44         14
    45         10
    46         21
    47          1
    49          3
    50         36
    51         22
    52         23
    53          9
    55          9
    56          4
    57          7
    58         10
    59          3
    62          7
    63         16
    64          3
    65          3
    66         21
    67          5
    69        230
    70        176
    71         15
    72          1
    74          8
    75          6
    76         12
    77          4
    79          2
    81          5
    82          4
    83          4
    84          3
    85          2
    86          3
    88          6
    89         53
    90        460
    91         22
    93         43
    94          5
    95          3
    96          2
    97         23
    98          5
   100         19
   101          3
   107          3
   108         19
   109          2
   111          1
   112          7
   113          4
   115          3
   116         12
   117        999
   118         64
   119         42
   120          6
   121          4
   131         13
   135          4
   136          1
   138          5
   139         11
   140          3
   146          3
   147         35
   148          6
   158         19
   159          1
   167        109
   168          8
   185          1
   186        645
   187         74
   188          4