##TITLE=Library Entry 97229
##JCAMP-DX=Revision 4.10 
##DATA TYPE=MASS SPECTRUM
##SAMPLE DESCRIPTION=L. Cohen, LC, NIDDK, NIH, Bethesda, MD 20892
##NAMES=HP
##CAS NAME=Imidazole, 4-pentafluoroethyl-
##MOLFORM=C5H3F5N2
##CAS REGISTRY NO=81769-52-0
##MP= -300
##BP= -300
##MW= 186
##$RETENTION INDEX=0
##$CONDENSED SPECTRUM=NO
##NPOINTS= 60
##XYDATA=(XY..XY) 1 
    41         16
    42          6
    43         14
    44         15
    45          6
    46         17
    50         23
    51         18
    52         19
    53          5
    55         12
    56         11
    57          9
    58          7
    59          1
    62          1
    63         17
    65          1
    66         17
    67         16
    68          5
    69        163
    70        171
    71         21
    74          7
    75         23
    76          3
    78          3
    81          5
    82          7
    83          7
    88          7
    89         44
    90        441
    91         19
    93         23
    94          3
    95          7
    97          6
   100         11
   108         12
   112          1
   113          8
   115          7
   116          6
   117        999
   118         68
   119         13
   120          8
   131          9
   135          9
   138          6
   139          6
   140          3
   148          3
   158         17
   167        107
   168          8
   186        403
   187         39