##TITLE=Library Entry 60416
##JCAMP-DX=Revision 4.10 
##DATA TYPE=MASS SPECTRUM
##SAMPLE DESCRIPTION=R.A. CORRAL, FAC. CIENC. EXACT., UNIV. NAC. LA PLATA, A
RGENT.
##NAMES=HP
##CAS NAME=5-Benzyldihydro-1,3,5-dioxazine
##MOLFORM=C10H13NO2
##CAS REGISTRY NO=81763-19-1
##MP= -300
##BP= -300
##MW= 179
##$RETENTION INDEX=0
##$CONDENSED SPECTRUM=NO
##NPOINTS= 22
##XYDATA=(XY..XY) 1 
    28         40
    30        120
    31         20
    39         70
    41         40
    42        150
    51         40
    58         40
    63         40
    65        150
    83         30
    85         20
    88        250
    89         40
    90         20
    91        999
    92        220
   118         20
   119         40
   148         50
   178         50
   179         70