##TITLE=Library Entry 97206
##JCAMP-DX=Revision 4.10 
##DATA TYPE=MASS SPECTRUM
##SAMPLE DESCRIPTION=L. Cohen, LC, NIDDK, NIH, Bethesda, MD 20892
##NAMES=HP
##CAS NAME=Imidazole, 4-heptadecafluorooctyl-
##MOLFORM=C11H3F17N2
##CAS REGISTRY NO=81769-56-4
##MP= -300
##BP= -300
##MW= 486
##$RETENTION INDEX=0
##$CONDENSED SPECTRUM=NO
##NPOINTS= 135
##XYDATA=(XY..XY) 1 
    41          9
    42          3
    43         10
    44         12
    45          3
    46          6
    50          4
    51          4
    52          7
    53          1
    55          5
    56          3
    57          4
    58          1
    59          2
    60          1
    62          0
    63          4
    65          1
    66         10
    67          6
    68          0
    69        117
    70         46
    71          8
    72          1
    73          0
    74          1
    75         11
    76          1
    77          1
    78          2
    79          0
    81          3
    82          3
    83          3
    84          1
    85          1
    86          0
    88          1
    89         22
    90        121
    91          6
    93         11
    94          5
    95          2
    96          1
    97          3
    98          2
    99          1
   100         22
   101          2
   102          0
   105          0
   106          3
   107          0
   108          2
   109          1
   111          1
   112          4
   113          2
   115          3
   116         11
   117        999
   118         89
   119         30
   120          4
   121         10
   122          0
   124          3
   125          4
   129          1
   131         30
   132          1
   135          1
   137          0
   138          0
   139          2
   140          0
   143          3
   144          0
   146          0
   147          1
   148         69
   149          6
   150          0
   151          0
   152          2
   155          0
   159          0
   160          0
   162          3
   166          2
   167          9
   168          0
   169          8
   170          1
   171          1
   178          0
   179          7
   180          0
   181          3
   189          2
   190          0
   193          0
   197          1
   198         34
   199          2
   216          2
   217          3
   219          0
   228          0
   229          1
   231          0
   239          1
   243          0
   248          2
   267          2
   278          0
   279          0
   298          0
   317          1
   367          1
   417          7
   418          1
   435          0
   447          0
   458          2
   467         79
   468         12
   469          0
   485          1
   486         57
   487         11
   488          0