##TITLE=Library Entry 97808
##JCAMP-DX=Revision 4.10 
##DATA TYPE=MASS SPECTRUM
##SAMPLE DESCRIPTION=L. Cohen, LC, NIDDK, NIH, Bethesda, MD 20892
##NAMES=HP
##CAS NAME=Imidazole, 4-pentadecafluoroheptyl-
##MOLFORM=C10H3F15N2
##CAS REGISTRY NO=81769-55-3
##MP= -300
##BP= -300
##MW= 436
##$RETENTION INDEX=0
##$CONDENSED SPECTRUM=NO
##NPOINTS= 129
##XYDATA=(XY..XY) 1 
    41          8
    42          2
    43          6
    44          5
    45          2
    46          6
    50          3
    51          4
    52          7
    53          1
    55          5
    56          3
    57          4
    58          1
    59          1
    62          0
    63          3
    65          0
    66          9
    67          5
    68          0
    69        103
    70         46
    71          8
    74          1
    75         12
    76          1
    77          0
    79          0
    81          3
    82          3
    83          3
    84          1
    85          1
    88          1
    89         22
    90        128
    91          7
    93         11
    94          5
    95          1
    96          1
    97          3
    98          2
    99          1
   100         20
   101          2
   102          1
   106          2
   108          2
   109          0
   111          1
   112          4
   113          2
   115          2
   116         10
   117        999
   118         84
   119         26
   120          4
   121         10
   122          0
   124          2
   125          4
   128          0
   129          2
   131         25
   132          1
   135          1
   137          0
   138          0
   139          3
   140          0
   141          0
   143          2
   144          0
   147          1
   148         70
   149          7
   150          0
   151          0
   152          2
   155          0
   159          0
   160          0
   162          2
   166          2
   167          8
   168          0
   169          7
   170          1
   171          1
   179          7
   180          0
   181          2
   189          3
   193          0
   197          0
   198         39
   199          4
   216          3
   217          3
   228          0
   229          0
   231          0
   239          1
   248          4
   266          0
   267          2
   278          0
   279          0
   308          0
   317          1
   339          0
   358          0
   367         13
   368          1
   385          0
   389          0
   397          1
   399          1
   408          4
   417        132
   418         19
   419          1
   435          2
   436        117
   437         23
   438          2