##TITLE=Library Entry 97805
##JCAMP-DX=Revision 4.10 
##DATA TYPE=MASS SPECTRUM
##SAMPLE DESCRIPTION=L. Cohen, LC, NIDDK, NIH, Bethesda, MD 20892
##NAMES=HP
##CAS NAME=Imidazole, 4-tridecafluorohexyl-
##MOLFORM=C9H3F13N2
##CAS REGISTRY NO=81769-54-2
##MP= -300
##BP= -300
##MW= 386
##$RETENTION INDEX=0
##$CONDENSED SPECTRUM=NO
##NPOINTS= 126
##XYDATA=(XY..XY) 1 
    41         15
    42          7
    43         14
    44         14
    45         37
    46         12
    47        173
    48          6
    49         14
    50          6
    51         19
    52         12
    53          3
    54          0
    55          9
    56          7
    57          9
    58          2
    59          1
    60          1
    61          1
    62          1
    63         20
    64          2
    65         21
    66         14
    67          9
    68          4
    69        117
    70         63
    71         12
    72          0
    74          3
    75         16
    76          2
    77          6
    78         15
    79          2
    81          5
    82          5
    83          5
    84          1
    85          2
    86          0
    88          1
    89         26
    90        160
    91         10
    93         14
    94          8
    95          5
    96          2
    97          5
    98          3
    99          2
   100         21
   101          2
   102          1
   105          0
   106         10
   107          5
   108          2
   109          0
   111          2
   112          5
   113          2
   115          2
   116          9
   117        999
   118         86
   119         24
   120          4
   121         12
   122          0
   124          9
   125          5
   127          0
   129          6
   131         21
   132          1
   135          2
   137          0
   139          3
   143          1
   147          1
   148         68
   149          8
   150          0
   151          0
   152          2
   155          0
   159          0
   162          2
   166          3
   167          6
   169          3
   170          1
   171          0
   179          6
   181          3
   186          0
   189          3
   198         44
   199          4
   216          3
   217          2
   229          1
   239          2
   248          4
   267          3
   308          1
   317         23
   318          2
   327          0
   335          2
   339          0
   340          0
   347          2
   358          7
   367        167
   368         23
   369          1
   385          1
   386        191
   387         43
   388          6