##TITLE=Library Entry 60527
##JCAMP-DX=Revision 4.10 
##DATA TYPE=MASS SPECTRUM
##SAMPLE DESCRIPTION=R.A. CORRAL, FAC. CIENC. EXACT., UNIV. NAC. LA PLATA, A
RGENT.
##NAMES=HP
##CAS NAME=5-(Benzylsulfonyl)dihydro-1,3,5-dioxazine
##MOLFORM=C10H13NO4S
##CAS REGISTRY NO=81763-18-0
##MP= -300
##BP= -300
##MW= 243
##$RETENTION INDEX=0
##$CONDENSED SPECTRUM=NO
##NPOINTS= 16
##XYDATA=(XY..XY) 1 
    28         41
    29         50
    30         40
    31         20
    39         40
    42         20
    43         40
    63         20
    65        120
    88         60
    89         40
    90         20
    91        999
    92        140
   178         20
   243         20