##TITLE=Library Entry 97806
##JCAMP-DX=Revision 4.10 
##DATA TYPE=MASS SPECTRUM
##SAMPLE DESCRIPTION=L. Cohen, LC, NIDDK, NIH, Bethesda, MD 20892
##NAMES=HP
##CAS NAME=Imidazole, 2-tridecafluorohexyl-
##MOLFORM=C9H3F13N2
##CAS REGISTRY NO=81769-48-4
##MP= -300
##BP= -300
##MW= 386
##$RETENTION INDEX=0
##$CONDENSED SPECTRUM=NO
##NPOINTS= 123
##XYDATA=(XY..XY) 1 
    41         23
    42          2
    43          3
    44          4
    45          4
    46          6
    50          5
    51          6
    52          7
    53          2
    55          3
    56          1
    57          2
    58          2
    59          1
    62          1
    63          4
    64          1
    65          1
    66          7
    67          3
    69        127
    70         51
    71          5
    74          3
    75          5
    76          4
    77          2
    78          1
    79          1
    81          2
    82          2
    83          2
    85          1
    86          1
    88          2
    89         23
    90        127
    91          8
    93         19
    94          6
    95          1
    96          1
    97          6
    98          2
   100         23
   101          3
   102          1
   105          1
   106          1
   107          1
   108          4
   109          1
   112          6
   113          1
   115          1
   116         17
   117        999
   118         81
   119         27
   120          3
   121         13
   122          1
   124          3
   125          1
   129          1
   131         26
   132          1
   138          1
   139          2
   140          1
   141          1
   143          3
   147          5
   148         89
   149          7
   150          1
   151          1
   152          1
   155          1
   158          1
   162          3
   165          0
   166          4
   167          4
   169          5
   170          1
   178          4
   179          6
   180          0
   181          3
   189          3
   191          0
   193          1
   197          3
   198         21
   199          2
   216          3
   217          2
   228          3
   229          2
   231          1
   239          2
   243          0
   247          1
   248          3
   258          1
   266          1
   267          2
   297          0
   308          2
   317          8
   318          1
   340          0
   347          1
   358          4
   367        145
   368         18
   369          1
   385          3
   386        244
   387         50
   388          5