##TITLE=Library Entry 52822
##JCAMP-DX=Revision 4.10 
##DATA TYPE=MASS SPECTRUM
##SAMPLE DESCRIPTION=C.CATALAN,INST. QUIM. ORG.,UNIV. NAC. TUCUMAN,AYACUCHO,
ARGENT.
##NAMES=HP
##CAS NAME=1,3,3-Trimethyl-2-oxabicyclo[2.2.2]octane-5,8-dione
##MOLFORM=C10H14O3
##CAS REGISTRY NO=81781-21-7
##MP= -300
##BP= -300
##MW= 182
##$RETENTION INDEX=0
##$CONDENSED SPECTRUM=NO
##NPOINTS= 15
##XYDATA=(XY..XY) 1 
    39        160
    43        560
    55        410
    59        170
    69        340
    82        670
    83        999
    85        280
    98        140
   125        630
   136         55
   140        150
   164        200
   167        250
   182        150