##TITLE=Library Entry 93221
##JCAMP-DX=Revision 4.10 
##DATA TYPE=MASS SPECTRUM
##SAMPLE DESCRIPTION=F. TURECEK,HEYROVSKY INST PHYS CHEM & ELECTROCHEM,PRAGU
E,CZECH
##NAMES=HP
##CAS NAME=Tetracyclo[2.2.1.0(2,6).0(3,5)]heptane-7-spiro-2'-cyclopropene
##MOLFORM=C9H8
##CAS REGISTRY NO=81787-74-8
##MP= -300
##BP= -300
##MW= 116
##$RETENTION INDEX=0
##$CONDENSED SPECTRUM=NO
##NPOINTS= 38
##XYDATA=(XY..XY) 1 
    26          6
    27          8
    37          9
    38         26
    39         76
    40          8
    41          7
    50         35
    51         50
    52         11
    56          6
    57         13
    58          4
    61         13
    62         41
    63        113
    64         30
    65         35
    66          4
    74         11
    75         13
    76          5
    77         11
    78         29
    79          2
    84          3
    85          4
    86          8
    87         10
    88          8
    89        160
    90         86
    91         13
   113         10
   114         18
   115        999
   116        116
   117         19