##TITLE=Library Entry 97663
##JCAMP-DX=Revision 4.10 
##DATA TYPE=MASS SPECTRUM
##SAMPLE DESCRIPTION=L. Cohen, LC, NIDDK, NIH, Bethesda, MD 20892
##NAMES=HP
##CAS NAME=Imidazole, 4-heptafluoroisopropyl-
##MOLFORM=C6H3F7N2
##CAS REGISTRY NO=81790-01-4
##MP= -300
##BP= -300
##MW= 236
##$RETENTION INDEX=0
##$CONDENSED SPECTRUM=NO
##NPOINTS= 165
##XYDATA=(XY..XY) 1 
    41         40
    42         18
    43         25
    44         25
    45         34
    46         23
    47         74
    48          5
    49         32
    50         28
    51         83
    52         86
    53         15
    54          3
    55         23
    56         35
    57         15
    58         18
    59         11
    60          5
    61          4
    62          4
    63         17
    64          3
    65         17
    66         41
    67         22
    68          1
    69        520
    70        192
    71         50
    72          6
    73          4
    74         26
    75        110
    76         11
    77         17
    78         47
    79          6
    80          1
    81          9
    82         12
    83          6
    84          2
    85         10
    86          3
    87          4
    88          3
    89         10
    90        142
    91          9
    93        106
    94         21
    95         22
    96         10
    97          7
    98          7
    99          4
   100         33
   101         13
   102         11
   103          1
   104          1
   105          3
   106         28
   107         19
   108          4
   109          6
   110          2
   111          3
   112          6
   113         37
   114          2
   115          5
   116          0
   117        999
   118         84
   119          5
   120         77
   121         25
   122          3
   123          1
   124         23
   125          8
   126          1
   127          2
   128          2
   129         19
   130          2
   131         16
   132          1
   135          4
   136          0
   137          0
   138         12
   139         15
   140         44
   141          2
   143         15
   144          1
   145          1
   146          0
   147         19
   148         31
   149          7
   150          2
   151         10
   152          2
   155          0
   157          0
   158         20
   159          2
   160          0
   162          2
   163         12
   164          1
   165         10
   166          3
   167        936
   168         79
   169          3
   170         18
   171          7
   172          0
   175          1
   177          0
   178          2
   179         25
   180          2
   181          5
   182          4
   183          0
   185         15
   186          1
   188          1
   189          2
   190         34
   191          2
   194          1
   195          0
   196          0
   197         18
   198         17
   199          5
   200          0
   202          0
   208          7
   209          1
   211          0
   213          0
   215          2
   217        321
   218         39
   219          6
   220          0
   224          0
   229          0
   231          0
   233          0
   234          0
   235          1
   236        667
   237        502
   238         46
   239          1