##TITLE=Library Entry 66048
##JCAMP-DX=Revision 4.10 
##DATA TYPE=MASS SPECTRUM
##SAMPLE DESCRIPTION=MPI,A2411-G1856,28-DEC-68 (ID=4, PURITY=4)
##NAMES=HP
##CAS NAME=1,3,6-Heptatriene, 5-methyl-, (E)-
##MOLFORM=C8H12
##CAS REGISTRY NO=818-48-4
##MP= -300
##BP= -300
##MW= 108
##$RETENTION INDEX=0
##$CONDENSED SPECTRUM=NO
##NPOINTS= 75
##XYDATA=(XY..XY) 1 
    25          1
    26         18
    27        212
    28         19
    29         67
    30          1
    32          0
    33          0
    34          0
    36          0
    37         10
    38         24
    39        326
    40         48
    41        260
    42         14
    43          6
    44          0
    45          5
    46          3
    47          0
    48          1
    49          6
    50         57
    51        131
    52         65
    53        198
    54         47
    55         57
    56          7
    57          0
    58          0
    59          0
    60          1
    61          6
    62         15
    63         43
    64         15
    65        181
    66        161
    67         94
    68         14
    69          2
    70          0
    71          0
    73          2
    74          8
    75         19
    76          6
    77        959
    78        167
    79        540
    80        315
    81         78
    82          4
    85          1
    86          2
    87          3
    88          1
    89         28
    90          8
    91        772
    92         87
    93        999
    94         76
    95          3
   102          1
   103          8
   104          2
   105         36
   106          9
   107         66
   108        230
   109         20
   110          0