##TITLE=Library Entry 20609
##JCAMP-DX=Revision 4.10 
##DATA TYPE=MASS SPECTRUM
##SAMPLE DESCRIPTION=Chemical Concepts
##NAMES=HP
##CAS NAME=2-Pentenoic acid, methyl ester
##MOLFORM=C6H10O2
##CAS REGISTRY NO=818-59-7
##MP= -300
##BP= -300
##MW= 114
##$RETENTION INDEX=0
##$CONDENSED SPECTRUM=NO
##NPOINTS= 55
##XYDATA=(XY..XY) 1 
    25          2
    26        132
    27        643
    28         37
    29        641
    30         22
    31         32
    33          2
    36          2
    37         28
    38         65
    39        474
    40         58
    41        120
    42         44
    43        126
    44          5
    45         21
    48          1
    49         14
    50         63
    51         73
    52         28
    53        224
    54        181
    55        999
    56         48
    57         23
    58          4
    59        287
    60          7
    61          2
    66          3
    67          4
    68         23
    69         11
    70          1
    71         57
    72         53
    73          3
    74         10
    79          2
    81         48
    82        168
    83        727
    84         34
    85         49
    86          3
    87         11
    97          2
    99         27
   113         13
   114        291
   115         15
   116          1