##TITLE=Library Entry 7094
##JCAMP-DX=Revision 4.10 
##DATA TYPE=MASS SPECTRUM
##SAMPLE DESCRIPTION=Japan AIST/NIMC Database- Spectrum MS-NW-6624
##NAMES=HP
##CAS NAME=1-Octyn-3-ol
##MOLFORM=C8H14O
##CAS REGISTRY NO=818-72-4
##MP= -300
##BP= -300
##MW= 126
##$RETENTION INDEX=0
##$CONDENSED SPECTRUM=NO
##NPOINTS= 90
##XYDATA=(XY..XY) 1 
    14          2
    15         15
    16          1
    18          2
    24          2
    25          8
    26         50
    27        253
    28         31
    29        273
    30          7
    31         15
    32          4
    37          7
    38         20
    39        181
    40         40
    41        408
    42        116
    43        999
    44         57
    45         17
    46          1
    49          2
    50         19
    51         38
    52         32
    53         74
    54         26
    55        670
    56        188
    57         89
    58         12
    59          8
    60          5
    61          3
    62          5
    63          9
    64          3
    65         28
    66         33
    67         98
    68         92
    69         80
    70        378
    71        211
    72         27
    73          5
    74          3
    75          2
    76          1
    77         53
    78         16
    79        181
    80         43
    81         33
    82         37
    83        214
    84         57
    85          7
    86          1
    87          1
    89          2
    90          1
    91         32
    92          5
    93        154
    94         12
    95         21
    96          9
    97         72
    98         10
    99          4
   100          2
   102          1
   103          2
   104          1
   105          4
   106          2
   107         14
   108          6
   109          9
   110          2
   111          9
   112          1
   121          1
   123          5
   124          1
   125          8
   126          1