##TITLE=Library Entry 26647
##JCAMP-DX=Revision 4.10 
##DATA TYPE=MASS SPECTRUM
##SAMPLE DESCRIPTION=Japan AIST/NIMC Database- Spectrum MS-NW-3869
##NAMES=HP
##CAS NAME=Vinyl caprylate
##MOLFORM=C10H18O2
##CAS REGISTRY NO=818-44-0
##MP= -300
##BP= -300
##MW= 170
##$RETENTION INDEX=0
##$CONDENSED SPECTRUM=NO
##NPOINTS= 65
##XYDATA=(XY..XY) 1 
    14          3
    15         18
    17          2
    18          7
    26          8
    27        116
    28         19
    29        136
    30          3
    31          3
    38          2
    39         50
    40         10
    41        229
    42         70
    43        363
    44         17
    45          6
    50          1
    51          3
    52          1
    53         10
    54          7
    55        119
    56         18
    57        999
    58         50
    59         11
    60          9
    65          1
    67         39
    68          5
    69         29
    70          9
    71         15
    72          1
    73          5
    77          1
    79          3
    80          1
    81          9
    82          5
    83         23
    84          9
    85          9
    86         65
    87          5
    91          2
    93          1
    95          1
    97          6
    98          7
    99          4
   100          1
   101          1
   107          1
   109         56
   110          8
   111          1
   113          3
   125          2
   126          2
   127        492
   128         43
   129          3