##TITLE=Library Entry 109337
##JCAMP-DX=Revision 4.10 
##DATA TYPE=MASS SPECTRUM
##SAMPLE DESCRIPTION=Japan AIST/NIMC Database- Spectrum MS-IW- 817
##NAMES=HP
##CAS NAME=Sebacic acid monomethyl ester
##MOLFORM=C11H20O4
##CAS REGISTRY NO=818-88-2
##MP= -300
##BP= -300
##MW= 216
##$RETENTION INDEX=1683
##$CONDENSED SPECTRUM=NO
##NPOINTS= 137
##XYDATA=(XY..XY) 1 
    15         44
    17          2
    18          2
    26          2
    27         33
    28          9
    29         58
    30          2
    31         11
    32          3
    33          2
    39         37
    40          9
    41        182
    42         44
    43        266
    44         14
    45         30
    51          2
    53         18
    54         21
    55        516
    56         53
    57         51
    58          6
    59        194
    60         10
    61          3
    65          5
    66          4
    67         93
    68         42
    69        250
    70         49
    71         23
    72          6
    73         66
    74        687
    75         46
    76          4
    77          5
    78          4
    79         60
    80         45
    81        110
    82         51
    83        334
    84        502
    85         44
    86          3
    87        247
    88         31
    89          2
    91         12
    92          5
    93         37
    94         41
    95         75
    96        106
    97        492
    98        742
    99         56
   100          9
   101         95
   102          9
   104          9
   105          8
   106         14
   107         80
   108          9
   109         31
   110         81
   111         98
   112         78
   113         21
   114         32
   115         86
   116         10
   117          2
   119         17
   120         42
   121        146
   122         26
   123         28
   124        139
   125        999
   126         90
   127         21
   128          8
   129         14
   130         14
   131          9
   133          3
   135          4
   136          2
   137         31
   138        472
   139        219
   140         22
   141          8
   142         34
   143         11
   144         63
   145          6
   147          7
   148         85
   149         58
   150          8
   151         12
   152          8
   153          8
   154         12
   155          9
   156         31
   157        488
   158         49
   159          4
   165         14
   166        474
   167         80
   168          9
   169          5
   170         83
   171         27
   172          7
   174          2
   180         14
   181          5
   183          2
   185         17
   186          2
   187          2
   197          7
   198         53
   199        582
   200         73
   201          7