##TITLE=Library Entry 74350
##JCAMP-DX=Revision 4.10 
##DATA TYPE=MASS SPECTRUM
##SAMPLE DESCRIPTION=A. VAN LANGENHOVE, HARVARD SCH. PUBLIC HEALTH, BOSTON,
 USA
##NAMES=HP
##CAS NAME=2,5-Anhydro-1,3,4,6-tetra-O-methyl-D-glucitol
##MOLFORM=C10H20O5
##CAS REGISTRY NO=81847-59-8
##MP= -300
##BP= -300
##MW= 220
##$RETENTION INDEX=0
##$CONDENSED SPECTRUM=NO
##NPOINTS= 35
##XYDATA=(XY..XY) 1 
    67         10
    68         22
    69         58
    70         14
    71        482
    72         95
    73         88
    74        160
    75        171
    81         33
    83        111
    84         73
    85        101
    86         30
    87        345
    88         33
    89        333
    90         14
    99        233
   100         15
   101        999
   102         86
   103         18
   111        306
   112         35
   113         13
   114         28
   115        148
   117         18
   125         37
   126         14
   143        282
   144         23
   156         15
   175         75