##TITLE=Library Entry 92666
##JCAMP-DX=Revision 4.10 
##DATA TYPE=MASS SPECTRUM
##SAMPLE DESCRIPTION=Dennis Rohrbaugh, CBDCOM/ERDEC, Edgewood, MD
##NAMES=HP
##CAS NAME=Methane, bis(trifluoromethylthio)-
##MOLFORM=C3H2F6S2
##CAS REGISTRY NO=819-67-0
##MP= -300
##BP= -300
##MW= 216
##$RETENTION INDEX=0
##$CONDENSED SPECTRUM=NO
##NPOINTS= 27
##XYDATA=(XY..XY) 1 
    45        170
    46        137
    47          9
    48          7
    50          9
    63        107
    64          9
    65          9
    69        560
    76         16
    77         12
    78        104
    80          9
    82         24
   101         16
   113          4
   114          9
   115        999
   116         37
   117         57
   146          4
   147         19
   148          1
   149          2
   216        230
   217          9
   218         18