##TITLE=Library Entry 72116
##JCAMP-DX=Revision 4.10 
##DATA TYPE=MASS SPECTRUM
##SAMPLE DESCRIPTION=ASES Database, Dalian Institute, P.R. China
##NAMES=HP
##CAS NAME=Butanoic acid, 3,4-dichloro-, methyl ester
##MOLFORM=C5H8Cl2O2
##CAS REGISTRY NO=819-93-2
##MP= -300
##BP= -300
##MW= 170
##$RETENTION INDEX=1054
##$CONDENSED SPECTRUM=NO
##NPOINTS= 44
##XYDATA=(XY..XY) 1 
    39        421
    41        516
    42        152
    43        305
    44         60
    49        240
    51         96
    55        131
    56         59
    57         61
    59        744
    61        122
    62        120
    63         55
    69         79
    71        350
    74        103
    75        606
    76        121
    77        213
    78         54
    79         73
    83         61
    85         60
    93        150
    95         71
    97         36
    99        999
   100        608
   103        156
   105         61
   106         85
   110         60
   111        242
   112         35
   113        145
   135        423
   136         41
   137        259
   139        319
   141        211
   143         42
   169         18
   171         12