##TITLE=Library Entry 66700
##JCAMP-DX=Revision 4.10 
##DATA TYPE=MASS SPECTRUM
##SAMPLE DESCRIPTION=Chemical Concepts
##NAMES=HP
##CAS NAME=5-Hydroxy-4-methyl-5-phenyl-pent-2-enoic acid, anilide
##MOLFORM=C18H19NO2
##CAS REGISTRY NO=81912-11-0
##MP= -300
##BP= -300
##MW= 281
##$RETENTION INDEX=0
##$CONDENSED SPECTRUM=NO
##NPOINTS= 164
##XYDATA=(XY..XY) 1 
    26         10
    27         80
    28         24
    29        113
    30          4
    31          7
    36          1
    37         13
    38         25
    39        137
    40         15
    41         57
    42         11
    43         38
    44          7
    45          9
    46          0
    48          1
    49          8
    50         80
    51        168
    52         47
    53         54
    54         45
    55        229
    56         32
    57         50
    58          5
    59          7
    60          5
    61          5
    62         10
    63         26
    64         23
    65         90
    66         53
    67         11
    68          4
    69         15
    70          7
    71         14
    72          4
    73         10
    74         28
    75         16
    76         30
    77        508
    78         69
    79        139
    80         12
    81         28
    82         65
    83        128
    84         19
    85          8
    86          1
    87          3
    88          1
    89          5
    90          3
    91         39
    92         94
    93        999
    94        109
    95         13
    96          3
    97          7
    98          4
    99          5
   100          0
   101          1
   102          2
   103          5
   104         20
   105        344
   106        301
   107        214
   108         17
   109          5
   110          2
   111          6
   112          2
   113          3
   114          1
   115         12
   116          4
   117         15
   118          9
   119        113
   120        115
   121         17
   122          4
   123          6
   124          2
   125          3
   126          1
   127          5
   128         18
   129         13
   130         14
   131         28
   132         18
   133          8
   134          3
   135          5
   136          1
   137          2
   138          1
   139          2
   140          1
   141          5
   142          2
   143         10
   144          7
   145          4
   146         20
   147          4
   148          2
   157          2
   158          4
   159          4
   160         11
   161          4
   162          1
   163          1
   165          1
   166          1
   171         11
   172          3
   173          5
   174         18
   175        755
   176         89
   177          9
   178          1
   179          1
   180          1
   181          1
   182          0
   183          1
   184          0
   185          1
   186          2
   187          1
   188          1
   189          2
   190          1
   191          1
   192          0
   193          1
   194          0
   195          0
   196          0
   197          0
   198          0
   199          0
   200          0
   203          0
   263          5
   264          1
   265          1
   279          2
   280          1
   281          9