##TITLE=Library Entry 25781
##JCAMP-DX=Revision 4.10 
##DATA TYPE=MASS SPECTRUM
##SAMPLE DESCRIPTION=Chemical Concepts
##NAMES=HP
##CAS NAME=6,6-Dimethyl-1,3-heptadien-5-ol
##MOLFORM=C9H16O
##CAS REGISTRY NO=81912-03-0
##MP= -300
##BP= -300
##MW= 140
##$RETENTION INDEX=0
##$CONDENSED SPECTRUM=NO
##NPOINTS= 98
##XYDATA=(XY..XY) 1 
    26          7
    27         78
    28         23
    29        205
    30          7
    31         17
    36          1
    37          2
    38          8
    39        129
    40         20
    41        322
    42         24
    43        223
    44         10
    45         13
    46          0
    47          0
    49          1
    50         11
    51         27
    52         12
    53         71
    54         24
    55        237
    56         51
    57        999
    58         51
    59         11
    60          0
    61          1
    62          3
    63          9
    64          3
    65         25
    66         14
    67         21
    68          4
    69         27
    70         12
    71         30
    72          1
    74          1
    75          2
    76          1
    77         24
    78          6
    79         25
    80          4
    81         35
    82         23
    83        889
    84        441
    85        169
    86         22
    87         15
    88          0
    89          1
    90          0
    91         22
    92          4
    93         12
    94          3
    95         16
    96          2
    97          5
    98          1
    99          1
   100          0
   101          0
   102          0
   103          1
   104          1
   105          6
   106          1
   107         14
   108          2
   109          6
   110          2
   111          1
   112          1
   113          1
   114          0
   115          0
   117          0
   119          1
   120          0
   121          2
   122          1
   123          7
   124          2
   125         11
   126          1
   128          0
   139          1
   140         27
   141          4
   142          0