##TITLE=Library Entry 62104
##JCAMP-DX=Revision 4.10 
##DATA TYPE=MASS SPECTRUM
##SAMPLE DESCRIPTION=NIST Mass Spectrometry Data Center
##NAMES=HP
##CAS NAME=Benzyl 2,2,2-trichloroacetimidate
##MOLFORM=C9H8Cl3NO
##CAS REGISTRY NO=81927-55-1
##MP= -300
##BP= -300
##MW= 251
##$RETENTION INDEX=0
##$CONDENSED SPECTRUM=NO
##NPOINTS= 118
##XYDATA=(XY..XY) 1 
    12          3
    14          1
    15          2
    16          1
    18          2
    25          1
    26          8
    27         31
    28         14
    29         15
    30          2
    31          2
    35         13
    36         11
    37         11
    38         30
    39        145
    40         11
    41         31
    42          3
    43         18
    44         15
    45          3
    47         48
    48          4
    49         19
    50         56
    51        122
    52         30
    53          9
    54          2
    58          1
    61          8
    62         35
    63         81
    64         28
    65        231
    66         14
    67          2
    73          7
    74         14
    75         16
    76         12
    77         98
    78         21
    79         93
    80          6
    82         60
    83         10
    84         39
    85          7
    86         10
    87          3
    89         92
    90        124
    91        999
    92         77
    93          3
    99          1
   100          1
   101          1
   102          1
   103          1
   104          5
   105         18
   106         93
   107        135
   108         21
   109         17
   110         22
   111         12
   112         14
   113          3
   114          2
   117         39
   119         32
   121         10
   123          2
   125         76
   126          9
   127         27
   128          3
   132          8
   134        406
   135         36
   136          2
   137          1
   145         69
   147         62
   149         20
   150          1
   151          8
   152          4
   153          2
   154          1
   159          2
   161          1
   162          3
   164          1
   173          3
   175          2
   179          1
   180          8
   181          1
   182          3
   186         12
   187          2
   188          9
   189          1
   190          1
   216          3
   217          1
   218          2
   251         12
   252          1
   253         11
   254          1
   255          4