##TITLE=Library Entry 51050
##JCAMP-DX=Revision 4.10 
##DATA TYPE=MASS SPECTRUM
##SAMPLE DESCRIPTION=T. Jones, LC, NHLBI, NIH, Bethesda, MD 20892
##NAMES=HP
##CAS NAME=2-(1-Hex-5-enyl)-5-(1-non-8-enyl)-.delta.1-pyrroline
##MOLFORM=C19H33N
##CAS REGISTRY NO=81943-74-0
##MP= -300
##BP= -300
##MW= 275
##$RETENTION INDEX=0
##$CONDENSED SPECTRUM=NO
##NPOINTS= 128
##XYDATA=(XY..XY) 1 
    41        786
    42        140
    48         12
    52         15
    53         52
    54        164
    55        548
    61         17
    62         20
    63          7
    64          8
    67        126
    68        145
    69         57
    71          7
    72          7
    76         28
    79        118
    80        171
    81         87
    82        999
    83        284
    84         30
    87          8
    91         34
    92         23
    94        216
    95        166
    96        395
    97        140
    99         39
   101         17
   103         23
   106         22
   107         37
   108        196
   109         41
   110        145
   111         31
   116          9
   118         15
   119         18
   120         27
   121         30
   122        227
   123        123
   124         79
   125         27
   127         10
   128         30
   130          8
   132         11
   134         17
   135         17
   136         94
   138         73
   140          9
   142          8
   143          8
   144          7
   145          9
   146         17
   148         40
   150        555
   151        125
   152        105
   153         41
   156          8
   157         21
   159         14
   160         11
   161         19
   164        257
   166        202
   167         12
   170          9
   173          8
   174          7
   175         10
   177         14
   178        176
   179         36
   186          8
   189         16
   190          9
   191         11
   192         91
   193         21
   196          9
   201          7
   203          9
   204         45
   205         11
   206        151
   207        295
   208         34
   211         15
   213          9
   218         22
   219         12
   220        395
   221         48
   222         20
   223         15
   225          8
   227          7
   229          8
   232         31
   233         11
   234        215
   235         71
   237          9
   238          8
   239          8
   242          8
   245         18
   246         23
   247         10
   248         12
   249          7
   252          9
   257          7
   260         39
   261          7
   273          8
   274         36
   275         42
   276          8