##TITLE=Library Entry 67756
##JCAMP-DX=Revision 4.10 
##DATA TYPE=MASS SPECTRUM
##SAMPLE DESCRIPTION=NIST Mass Spectrometry Data Center, 1994
##NAMES=HP
##CAS NAME=4,7-Methanobenzofuran, 2,2'-oxybis[octahydro-7,8,8-trimethyl-, [2
.alpha.(2'R*,3'aS*,4'R*,7'R*,7'aS*),3a.alpha.,4.alpha.,7.alpha.,7a.alpha.]-
##MOLFORM=C24H38O3
##CAS REGISTRY NO=81955-10-4
##MP= -300
##BP= -300
##MW= 374
##$RETENTION INDEX=0
##$CONDENSED SPECTRUM=NO
##NPOINTS= 92
##XYDATA=(XY..XY) 1 
     7          2
    15         18
    18          1
    26          5
    27        141
    28          8
    29        127
    30          3
    37          4
    39        290
    40         62
    41        422
    42         31
    43         65
    44          4
    50         19
    51         68
    52         28
    53        139
    54         18
    55        128
    56          9
    57         22
    58          3
    62          5
    63         24
    64          6
    65         85
    66         38
    67        200
    68         55
    69        178
    70         10
    71          7
    75          4
    77        136
    78         35
    79        159
    80         40
    81        185
    82         25
    83         27
    84          7
    89          6
    91        149
    92         27
    93        139
    94         66
    95        999
    96        329
    97         30
    98         14
    99          6
   102          4
   103         19
   104          6
   105         51
   106         15
   107        114
   108        229
   109        119
   110         41
   111          4
   112          7
   115         20
   116          8
   117         38
   118         13
   119         58
   120         15
   121         81
   122         46
   123          9
   128          4
   129          4
   130          5
   131          7
   133          8
   134         34
   135         64
   136         12
   137          3
   145         43
   146          5
   147          6
   149         11
   150          6
   160          4
   163         62
   164          6
   178        184
   179         21