##TITLE=Library Entry 34793
##JCAMP-DX=Revision 4.10 
##DATA TYPE=MASS SPECTRUM
##SAMPLE DESCRIPTION=Chemical Concepts
##NAMES=HP
##CAS NAME=2-Acetyl-4,4-dimethyl-cyclopent-2-enone
##MOLFORM=C9H12O2
##CAS REGISTRY NO=81979-96-6
##MP= -300
##BP= -300
##MW= 152
##$RETENTION INDEX=0
##$CONDENSED SPECTRUM=NO
##NPOINTS= 101
##XYDATA=(XY..XY) 1 
    25          1
    26         10
    27         80
    28         30
    29         36
    30          0
    31          2
    37          7
    38         25
    39        214
    40         61
    41        337
    42         30
    43        907
    44         21
    45          9
    49          3
    50         34
    51         62
    52         25
    53        110
    54         13
    55         48
    56         55
    57          9
    58          1
    59          1
    60          1
    61          6
    62         12
    63         27
    64          8
    65         69
    66         59
    67        151
    68         24
    69        999
    70         53
    71          9
    72          1
    73          1
    74          4
    75          3
    76          1
    77         35
    78         11
    79         60
    80         40
    81        229
    82         29
    83         53
    84          6
    85          5
    86          1
    87          1
    89          1
    90          0
    91         36
    92         11
    93         10
    94         12
    95        220
    96         18
    97          8
    98          2
    99          3
   100          1
   101          4
   105          5
   106         18
   107         10
   108          4
   109        287
   110         73
   111         16
   112          2
   113          1
   119         23
   120          2
   121          4
   122          3
   123         18
   124         14
   125          3
   126          1
   127          1
   128          1
   133          3
   134         17
   135          3
   136          0
   137        586
   138         51
   139          7
   140          1
   141          3
   142          1
   151          4
   152        720
   153         69
   154          8