##TITLE=Library Entry 37526
##JCAMP-DX=Revision 4.10 
##DATA TYPE=MASS SPECTRUM
##SAMPLE DESCRIPTION=NIST Mass Spectrometry Data Center
##NAMES=HP
##CAS NAME=3-Methylbutyl hexadecanoate
##MOLFORM=C21H42O2
##CAS REGISTRY NO=81974-61-0
##MP= -300
##BP= -300
##MW= 326
##$RETENTION INDEX=2253
##$CONDENSED SPECTRUM=NO
##NPOINTS= 64
##XYDATA=(XY..XY) 1 
    27         10
    29         27
    30          1
    39         12
    40          4
    41        108
    42         40
    43        315
    44         12
    45          5
    53          8
    54         12
    55        155
    56         26
    57         99
    58          8
    60         23
    61         16
    67         18
    68         11
    69         71
    70        999
    71        426
    72         23
    73         46
    74          4
    81         12
    82          6
    83         34
    84         18
    85         28
    86          3
    87         10
    93          4
    95         10
    96          6
    97         20
    98         17
    99         10
   101          9
   109          7
   111         11
   113          3
   115         27
   125          9
   127          5
   129         26
   130         17
   131         27
   132          2
   139          3
   143         18
   157          7
   185          8
   199          7
   213         12
   239         49
   240          9
   256         24
   258          6
   283          9
   284          3
   326         22
   327          5