##TITLE=Library Entry 80323
##JCAMP-DX=Revision 4.10 
##DATA TYPE=MASS SPECTRUM
##SAMPLE DESCRIPTION=MASS SPECTRA OF ORGANIC COMPOUNDS, CSIRO, B.H. KENNETT
 ET AL
##NAMES=HP
##CAS NAME=Megastigma-7(E),9,13-triene
##MOLFORM=C13H20
##CAS REGISTRY NO=81983-67-7
##MP= -300
##BP= -300
##MW= 176
##$RETENTION INDEX=0
##$CONDENSED SPECTRUM=NO
##NPOINTS= 67
##XYDATA=(XY..XY) 1 
    27        320
    29        370
    38         20
    39        400
    41        770
    42         40
    43        150
    50         30
    51        130
    52         60
    53        210
    54         30
    55        240
    56         70
    57         40
    58         20
    63         70
    64         50
    65        190
    66         50
    67        200
    68         10
    69        190
    70         20
    71         30
    77        300
    78        110
    79        180
    80         50
    81        200
    82         40
    83         50
    89         30
    91        990
    92        250
    93        210
    94         80
    95         70
   103         60
   104        270
   105        999
   106        460
   107        250
   108         40
   109         30
   115         70
   116         40
   117        100
   118         30
   119        360
   120        160
   121         30
   122         20
   128         20
   129         40
   130         40
   131         20
   132         30
   133        190
   134         30
   145         20
   146         10
   147         30
   161        290
   162         40
   176        290
   177         40