##TITLE=Library Entry 1425
##JCAMP-DX=Revision 4.10 
##DATA TYPE=MASS SPECTRUM
##SAMPLE DESCRIPTION=Japan AIST/NIMC Database- Spectrum MS-NW-1617
##NAMES=HP
##CAS NAME=2,4,6-Trinitroresorcinol
##MOLFORM=C6H3N3O8
##CAS REGISTRY NO=82-71-3
##MP= -300
##BP= -300
##MW= 245
##$RETENTION INDEX=0
##$CONDENSED SPECTRUM=NO
##NPOINTS= 120
##XYDATA=(XY..XY) 1 
    12          8
    13          1
    14          2
    15          1
    16         20
    24          2
    25          8
    26         12
    27         36
    28        114
    29         55
    30        999
    31          6
    32          4
    36          6
    37        102
    38         88
    39         74
    40         28
    41         26
    42         15
    43         20
    44        309
    45         50
    46         57
    47          2
    48          9
    49         92
    50        110
    51         84
    52         47
    53        477
    54         63
    55         33
    56         12
    57          2
    60          5
    61         21
    62         15
    63         38
    64         39
    65         95
    66         89
    67        234
    68         50
    69         86
    70        123
    71          7
    72          6
    73          1
    74          3
    75          5
    76          9
    77        404
    78         80
    79         96
    80         30
    81         35
    82          9
    83         20
    84         15
    85          1
    88          1
    89          2
    90          3
    91         41
    92         83
    93         36
    94         34
    95        198
    96         46
    97        432
    98         23
    99          3
   102          1
   104          1
   105         16
   106         13
   107         51
   108         11
   109         34
   110          5
   111          1
   112          1
   119          3
   120          1
   121          6
   122         21
   123          3
   124          6
   125          8
   126          1
   135         17
   136          3
   137          5
   138          1
   139          6
   141         89
   142          5
   152          2
   153         11
   154          1
   165          3
   167          3
   169          4
   170          1
   182          9
   183          1
   198          4
   200          4
   211          1
   212          6
   215         27
   216          2
   225          1
   227          9
   229          9
   245        570
   246         45
   247         10