##TITLE=Library Entry 72032
##JCAMP-DX=Revision 4.10 
##DATA TYPE=MASS SPECTRUM
##SAMPLE DESCRIPTION=Patti Price, Georgia Bureau of Investigation, Decatur,
 Georgia
##NAMES=HP
##CAS NAME=Chlorcyclizine
##MOLFORM=C18H21ClN2
##CAS REGISTRY NO=82-93-9
##MP= -300
##BP= -300
##MW= 300
##$RETENTION INDEX=2230
##$CONDENSED SPECTRUM=NO
##NPOINTS= 160
##XYDATA=(XY..XY) 1 
    41         54
    42        511
    43        230
    44        209
    45          5
    50         29
    51         62
    52         11
    53          3
    54         45
    55         51
    56        762
    57        107
    58        138
    59          5
    62          7
    63         44
    64          6
    65         26
    66          1
    67          1
    68          8
    70        247
    71         57
    72        115
    73         13
    74          8
    75         28
    76         12
    77         35
    78          6
    79          4
    80          1
    81          6
    82         22
    83         16
    84         34
    85         38
    86          5
    87         11
    88          6
    89         40
    90         10
    91         49
    92          4
    93          1
    94          4
    95          4
    96          2
    97         34
    98         18
    99        999
   100         61
   101         10
   102          8
   103         13
   104         16
   105          6
   111          8
   112          2
   113         13
   114          8
   115         36
   116          7
   117          7
   118          4
   123          2
   124          1
   125         32
   126         10
   127         19
   128          4
   129          1
   130          4
   131          2
   132          3
   136          1
   137          5
   138         15
   139         44
   140          8
   141          2
   144          3
   145          1
   146          3
   147          1
   149          6
   150          4
   151         11
   152         11
   153          2
   154          1
   161          4
   162          6
   163         57
   164         72
   165        501
   166        252
   167         43
   168          3
   173          1
   175          1
   176          1
   177          1
   178          5
   179         19
   180          5
   181          1
   186          1
   188          1
   189         13
   190          3
   191          1
   192          1
   193          3
   194         10
   195          4
   197          1
   199         16
   200          3
   201        162
   202         26
   203         54
   204          7
   205          2
   206         44
   207          7
   208          1
   214          1
   216          7
   217          1
   218          2
   223         16
   224          1
   225          4
   226          1
   228        345
   229        171
   230        137
   231         59
   232          6
   240         74
   241        185
   242        227
   243        102
   244         70
   245         12
   246          2
   254          1
   256         15
   257          2
   258          5
   285         10
   286          2
   287          3
   299          3
   300        136
   301         28
   302         48
   303          8