##TITLE=Library Entry 88356
##JCAMP-DX=Revision 4.10 
##DATA TYPE=MASS SPECTRUM
##SAMPLE DESCRIPTION=AAFS Toxicology Section MS DB Committee, U. Alberta, Ca
nada
##NAMES=HP
##CAS NAME=Piperidolate
##MOLFORM=C21H25NO2
##CAS REGISTRY NO=82-98-4
##MP= -300
##BP= -300
##MW= 323
##$RETENTION INDEX=2343
##$CONDENSED SPECTRUM=NO
##NPOINTS= 101
##XYDATA=(XY..XY) 1 
    41         25
    42         64
    43         74
    44         23
    45         13
    50          6
    51         11
    52          4
    53          8
    54         14
    55         40
    56         50
    57         40
    58         56
    59          3
    60          8
    63          7
    65          8
    66          4
    67         19
    68         30
    69         38
    70         36
    71        101
    72         45
    73          8
    74          5
    75          3
    76          5
    77         24
    78          4
    79          5
    80          7
    81         10
    82         64
    83         21
    84         51
    85         12
    86         15
    87          6
    88          2
    89          9
    90          3
    91          7
    93          4
    94          8
    95         29
    96        488
    97         51
    98         18
    99          7
   100         31
   101          4
   102          4
   104          2
   105         30
   106          4
   107          3
   108          6
   109          5
   110         67
   111        999
   112        115
   113         11
   114         38
   115         20
   116          2
   121          3
   123          4
   124          3
   125         30
   126         12
   127          5
   128         25
   129          8
   135          2
   137          2
   138         20
   139          4
   141          7
   143         10
   147          2
   149          5
   150          2
   151         10
   152         78
   153         11
   155          2
   163         10
   164         14
   165        147
   167        152
   168         22
   169          2
   181          3
   182          9
   183          2
   197          2
   308         14
   322          6
   323          3