##TITLE=Library Entry 8090
##JCAMP-DX=Revision 4.10 
##DATA TYPE=MASS SPECTRUM
##SAMPLE DESCRIPTION=NIST Mass Spectrometry Data Center, 1990.
##NAMES=HP
##CAS NAME=5-Decanone
##MOLFORM=C10H20O
##CAS REGISTRY NO=820-29-1
##MP= -300
##BP= -300
##MW= 156
##$RETENTION INDEX=1155
##$CONDENSED SPECTRUM=NO
##NPOINTS= 52
##XYDATA=(XY..XY) 1 
    14          6
    15         21
    16          8
    18         11
    26         29
    27        336
    28        154
    29        581
    30         12
    31         15
    32          1
    39        199
    41        655
    42        225
    43        999
    44         36
    45          8
    50          6
    51         15
    52          8
    53         47
    54         20
    55        230
    56         77
    57        873
    58        975
    59        129
    65          5
    67         25
    68          7
    69         21
    70          5
    71        630
    72        127
    73          6
    81         21
    83         14
    85        624
    86         44
    95          7
    96          9
    97          6
    98          6
    99        501
   100        110
   101         24
   113         53
   114         52
   115          6
   127         34
   156         62
   157          7