##TITLE=Library Entry 21929
##JCAMP-DX=Revision 4.10 
##DATA TYPE=MASS SPECTRUM
##SAMPLE DESCRIPTION=Japan AIST/NIMC Database- Spectrum MS-NW-1967
##NAMES=HP
##CAS NAME=L-Methionine sulfone
##MOLFORM=C5H11NO4S
##CAS REGISTRY NO=820-10-0
##MP= -300
##BP= -300
##MW= 181
##$RETENTION INDEX=0
##$CONDENSED SPECTRUM=NO
##NPOINTS= 86
##XYDATA=(XY..XY) 1 
    12          2
    13          1
    14          8
    15         67
    16          3
    17          5
    18         18
    25          2
    26         23
    27         51
    28        236
    29         41
    30         67
    31          9
    32          4
    33          3
    34          4
    35          1
    36          2
    37          2
    38          3
    39         15
    40          4
    41         12
    42         22
    43         25
    44         56
    45         20
    46         27
    47          9
    48         22
    49          2
    50          2
    51          5
    52         12
    53         11
    54         77
    55         68
    56        999
    57         72
    58          2
    59          1
    61          2
    62          8
    63         42
    64         30
    65         73
    66          3
    67          3
    68          5
    69          1
    70          2
    72         18
    73         18
    74        146
    75          6
    76          1
    77          2
    79         13
    80         52
    81         16
    82          3
    83         13
    84          4
    85          1
    88          3
    91          6
    93          1
    94          6
    95          1
   100          4
   101          4
   102          4
   103          3
   107          2
   109          3
   118          2
   120         43
   121          2
   122          2
   134          3
   135          2
   136         49
   137          3
   138          4
   163          7