##TITLE=Library Entry 9121
##JCAMP-DX=Revision 4.10 
##DATA TYPE=MASS SPECTRUM
##SAMPLE DESCRIPTION=Exported from NIST MS Search
##NAMES=HP
##CAS NAME=2-Propen-1-ol, 2-methyl-, acetate
##MOLFORM=C6H10O2
##CAS REGISTRY NO=820-71-3
##MP= -300
##BP= -300
##MW= 114
##$RETENTION INDEX=0
##$CONDENSED SPECTRUM=NO
##NPOINTS= 31
##XYDATA=(XY..XY) 1 
    15        132
    26         16
    27        109
    28         41
    29        107
    31         16
    37          6
    38         16
    39        193
    40         21
    41         50
    42         32
    43        999
    44         30
    45          8
    50          7
    51          9
    52          5
    53         45
    54         73
    55         72
    56          7
    57         87
    58          5
    61         26
    69          6
    71         44
    72        384
    73         20
   114          3
   115          1