##TITLE=Library Entry 90987
##JCAMP-DX=Revision 4.10 
##DATA TYPE=MASS SPECTRUM
##SAMPLE DESCRIPTION=Chemical Concepts
##NAMES=HP
##CAS NAME=2-(2-Diethylcarbamoylmethoxyphenoxy)-N,N-diethylacetamide
##MOLFORM=C18H28N2O4
##CAS REGISTRY NO=82002-65-1
##MP= -300
##BP= -300
##MW= 336
##$RETENTION INDEX=0
##$CONDENSED SPECTRUM=NO
##NPOINTS= 108
##XYDATA=(XY..XY) 1 
    26          5
    27         72
    28         60
    29        321
    30        136
    31          4
    38          4
    39         19
    40          6
    41         43
    42        191
    43        190
    44        202
    45          5
    50          9
    51         17
    52         44
    53          7
    54         10
    55         15
    56        141
    57         38
    58        141
    59          5
    63         16
    64         23
    65         31
    66         10
    68          2
    69          6
    70         59
    71        165
    72        979
    73         49
    74         22
    75          3
    76         11
    77         39
    78         12
    79          6
    80         41
    81         12
    82          2
    83          2
    84         14
    85        242
    86        426
    87         28
    91          4
    92         14
    93          8
    94          3
    95          6
    98         15
   100        421
   101         23
   102         13
   105          7
   107         10
   108          4
   109          4
   110          5
   112          5
   113        255
   114        999
   115        159
   116         15
   119          2
   120          6
   121        103
   122         55
   123         41
   124          2
   133          2
   134          2
   135         61
   136          6
   137         38
   138          2
   148          2
   149          9
   150          7
   151          1
   163          3
   164          4
   168          5
   178          3
   190          2
   194          5
   205          5
   206         22
   207          4
   208         14
   222         26
   223         37
   224         69
   225         10
   234          7
   235         10
   236        473
   237         81
   238         10
   269          2
   277          7
   307          5
   336        110
   337         21
   338          2