##TITLE=Library Entry 71004
##JCAMP-DX=Revision 4.10 
##DATA TYPE=MASS SPECTRUM
##SAMPLE DESCRIPTION=Chemical Concepts
##NAMES=HP
##CAS NAME=Dodecanoic acid, 12-mercapto-
##MOLFORM=C12H24O2S
##CAS REGISTRY NO=82001-53-4
##MP= -300
##BP= -300
##MW= 232
##$RETENTION INDEX=0
##$CONDENSED SPECTRUM=NO
##NPOINTS= 131
##XYDATA=(XY..XY) 1 
    27        156
    28         42
    29        255
    30          8
    31         26
    35         21
    39        115
    40         21
    41        702
    42        129
    43        266
    44         12
    45         67
    46         18
    47        191
    48          7
    49         11
    51          7
    53         47
    54        103
    55        985
    56        180
    57        138
    58         11
    59         58
    60        274
    61        129
    62          9
    65          8
    66         10
    67        167
    68        225
    69        607
    70        110
    71         63
    72         10
    73        290
    74         34
    75         12
    76          9
    77          8
    79         31
    80         31
    81        170
    82        163
    83        383
    84        881
    85         89
    86         20
    87        292
    88         47
    89         87
    91         17
    92          7
    93         26
    94         54
    95        111
    96        152
    97        273
    98        999
    99         83
   100         97
   101        186
   102         31
   103         17
   105          9
   107         32
   108         47
   109         51
   110        104
   111        150
   112        352
   113         57
   114        109
   115         69
   116         25
   117          9
   119         15
   120          8
   121         64
   122         11
   123         63
   124         34
   125         46
   126         64
   127         37
   128         28
   129         74
   130         55
   131         17
   133         19
   134         19
   135         21
   136         56
   137         51
   138         60
   139         36
   140          7
   141         14
   143         31
   144         13
   149         10
   151         28
   152         39
   153         37
   154         50
   155         23
   157         15
   162         36
   163         46
   164          7
   167         19
   168         11
   170         45
   171         25
   173         42
   174          7
   180         44
   181        123
   182         15
   186         19
   196         69
   197         13
   198          7
   199         13
   213         17
   214        370
   215         70
   216         23
   232         68
   233         10