##TITLE=Library Entry 40614
##JCAMP-DX=Revision 4.10 
##DATA TYPE=MASS SPECTRUM
##SAMPLE DESCRIPTION=ASES Database, Dalian Institute, P.R. China
##NAMES=HP
##CAS NAME=Methyl 3-methyl-3-(methoxy-isopropoxy)amino-butanoate
##MOLFORM=C10H21NO4
##CAS REGISTRY NO=82004-48-6
##MP= -300
##BP= -300
##MW= 219
##$RETENTION INDEX=0
##$CONDENSED SPECTRUM=NO
##NPOINTS= 30
##XYDATA=(XY..XY) 1 
    29        306
    30        188
    31        306
    41        257
    42        272
    43        921
    44        211
    45        163
    54        107
    55        137
    56        817
    57        155
    58        452
    59        127
    72         89
    73        999
    74        364
    87        290
    88         81
    98         82
    99         35
   100        109
   101         45
   114         55
   115        397
   116         54
   146         26
   166         18
   177         17
   189         17