##TITLE=Library Entry 75970
##JCAMP-DX=Revision 4.10 
##DATA TYPE=MASS SPECTRUM
##SAMPLE DESCRIPTION=ASES Database, Dalian Institute, P.R. China
##NAMES=HP
##CAS NAME=Methyl 3-methyl-3-(methoxymethyl)amino-butanoate
##MOLFORM=C8H17NO3
##CAS REGISTRY NO=82004-58-8
##MP= -300
##BP= -300
##MW= 175
##$RETENTION INDEX=0
##$CONDENSED SPECTRUM=NO
##NPOINTS= 29
##XYDATA=(XY..XY) 1 
    55         99
    56        157
    57         74
    59         58
    60         41
    61        585
    62         48
    70         41
    71         82
    72         33
    73         41
    74         73
    83        109
    84         50
    85         42
    86         24
    88         32
   102        999
   103        107
   104         42
   115        100
   116         32
   129         83
   130         41
   144         41
   160        217
   161         42
   175        283
   176         83