##TITLE=Library Entry 25979
##JCAMP-DX=Revision 4.10 
##DATA TYPE=MASS SPECTRUM
##SAMPLE DESCRIPTION=Chemical Concepts
##NAMES=HP
##CAS NAME=1-Pentanol, 2-(1,1-dimethylethoxycarbonylamino)-4-methyl-
##MOLFORM=C11H23NO3
##CAS REGISTRY NO=82010-31-9
##MP= -300
##BP= -300
##MW= 217
##$RETENTION INDEX=0
##$CONDENSED SPECTRUM=NO
##NPOINTS= 106
##XYDATA=(XY..XY) 1 
    26          9
    27         80
    28         80
    29         94
    30        212
    31         93
    34          0
    36          1
    37          6
    38         14
    39        143
    40         28
    41        468
    42        104
    43        158
    44        272
    45         20
    49          4
    50         14
    51         14
    52          6
    53         19
    54          6
    55        117
    56        160
    57        999
    58         76
    59        287
    60        123
    61          3
    62         11
    63          0
    65          3
    67          8
    68          4
    69         22
    70         20
    71          6
    72          5
    73          6
    74         48
    75          0
    78          0
    80          3
    81         16
    82          5
    83         44
    84         15
    85         25
    86        806
    87         46
    88         27
    91          5
    92          1
    95          0
    96          1
    97          2
    98          1
    99          4
   100         13
   101          7
   102          6
   103          1
   104         21
   105          3
   109          0
   112         12
   113          2
   114          3
   115          1
   118          4
   119          0
   121          1
   122          4
   123          3
   124          0
   125          3
   126          4
   128          1
   129          2
   130        353
   131         30
   132          2
   133          2
   134          2
   135          1
   136          0
   137          2
   139          2
   141          4
   142          8
   143         14
   144         82
   145          5
   146          5
   147          0
   149          1
   151          1
   155          0
   157          1
   160          4
   161          2
   167          2
   179          0
   186        100
   187         13