##TITLE=Library Entry 76575
##JCAMP-DX=Revision 4.10 
##DATA TYPE=MASS SPECTRUM
##SAMPLE DESCRIPTION=Chemical Concepts
##NAMES=HP
##CAS NAME=Butanedioic acid, 2,3-dimethoxy-, bis(1-butylpentyl) ester, [R-(R
*,R*)]-
##MOLFORM=C24H46O6
##CAS REGISTRY NO=82052-75-3
##MP= -300
##BP= -300
##MW= 430
##$RETENTION INDEX=0
##$CONDENSED SPECTRUM=NO
##NPOINTS= 189
##XYDATA=(XY..XY) 1 
    26          4
    27         80
    28          4
    29        258
    30          6
    31         13
    33         33
    39         38
    40          8
    41        362
    42         83
    43        865
    44         54
    45        195
    46          5
    47          6
    53         19
    54         21
    55        295
    56        124
    57        706
    58         52
    59         26
    61         20
    65          4
    66          3
    67         39
    68         21
    69        235
    70        102
    71        734
    72        106
    73        154
    74         79
    75         17
    76          2
    77         19
    79          8
    80          4
    81         42
    82         29
    83        131
    84         76
    85        458
    86         39
    87         52
    88        274
    89        940
    90        275
    91         21
    92          3
    93          5
    94          3
    95         36
    96         19
    97         93
    99         17
   100          9
   101         24
   102         91
   103        999
   104        231
   105         41
   106          3
   107          8
   108          2
   109         19
   110          9
   111         32
   112          9
   113         15
   114          3
   115         16
   116          8
   117         11
   118          2
   119         47
   120          3
   121          5
   122          2
   123         15
   124         10
   125         32
   126        227
   127        187
   128         20
   129         52
   130         29
   131          7
   132         19
   133        602
   134         42
   135         34
   136          4
   137         28
   138          5
   139         10
   140          5
   141         12
   142          5
   143         47
   144          6
   145          2
   146         40
   147         90
   148         52
   149         22
   150          3
   151         26
   152          4
   153          5
   154          5
   155          7
   156          2
   157         10
   160          8
   161         22
   162          3
   163          3
   165          7
   166          2
   167          5
   168          4
   169         12
   170          2
   171         32
   172          5
   175          3
   177          3
   178        922
   179        174
   180         24
   181          4
   182          2
   183         30
   184          4
   185          2
   186          2
   187         14
   191          2
   192          6
   193          3
   195         27
   196          9
   197          4
   199         11
   200          3
   202          2
   203          2
   209          2
   210          3
   211          2
   213         10
   214          2
   215         13
   216          3
   217          4
   219          2
   220          2
   227         27
   228         22
   229         46
   230          7
   231          7
   234          2
   245          3
   247          4
   255          7
   256          2
   258          3
   259        300
   260         53
   261          7
   272          6
   273         11
   274          5
   275          2
   281          1
   287         10
   288          1
   289          2
   295          1
   304         41
   305         10
   306          2
   355          2
   400          1
   430          2
   431          1