##TITLE=Library Entry 109020
##JCAMP-DX=Revision 4.10 
##DATA TYPE=MASS SPECTRUM
##SAMPLE DESCRIPTION=Chemical Concepts
##NAMES=HP
##CAS NAME=2,3,4,5-Tetramethylcyclopent-2-en-1-ol
##MOLFORM=C9H16O
##CAS REGISTRY NO=82061-20-9
##MP= -300
##BP= -300
##MW= 140
##$RETENTION INDEX=0
##$CONDENSED SPECTRUM=NO
##NPOINTS= 91
##XYDATA=(XY..XY) 1 
    26          6
    27        101
    28          4
    29         90
    30          2
    31         15
    37          0
    38          3
    39         89
    40         11
    41        142
    42         10
    43        284
    44          9
    45         18
    46          0
    50          6
    51         22
    52          8
    53         45
    54         11
    55        155
    56         35
    57         37
    58          7
    59          6
    60          1
    61          0
    62          2
    63          7
    64          1
    65         27
    66          7
    67         65
    68          6
    69         95
    70         12
    71         13
    72          1
    73          0
    74          0
    75          0
    77         39
    78          7
    79         71
    80          7
    81         66
    82          9
    83         85
    84        103
    85        113
    86         10
    87          0
    89          3
    90          0
    91         65
    92          8
    93         26
    94          4
    95         28
    96          5
    97         55
    98         31
    99         10
   103          3
   104          0
   105         26
   106          3
   107        127
   108         18
   109         23
   110         13
   111         75
   112          7
   113          1
   114         17
   115          1
   119          2
   121         17
   122         14
   123         26
   124          6
   125        999
   126         84
   127          5
   133          1
   138          2
   139         78
   140        264
   141         25
   142          2