##TITLE=Library Entry 76240
##JCAMP-DX=Revision 4.10 
##DATA TYPE=MASS SPECTRUM
##SAMPLE DESCRIPTION=S. FOTI, DIP. SCI. CHIM., UNIV. CATANIA, CATANIA, ITALY
##NAMES=HP
##CAS NAME=5-Phenyl-2-(trifluoromethyl)-7H-1,3,4-thiadiazolo[3,2-a]pyrimidin
-7-one
##MOLFORM=C12H6F3N3OS
##CAS REGISTRY NO=82077-81-4
##MP= -300
##BP= -300
##MW= 297
##$RETENTION INDEX=0
##$CONDENSED SPECTRUM=NO
##NPOINTS= 31
##XYDATA=(XY..XY) 1 
    27         30
    39         40
    44         50
    50         50
    51         90
    52         30
    62         20
    63         80
    69         70
    74         30
    75         40
    76         90
    77        170
    86         20
    89         70
   102        999
   103        120
   104         20
   116        100
   129         20
   144         40
   147         30
   149         20
   174         30
   269        220
   270         30
   278         40
   296        130
   297        850
   298        130
   299         50