##TITLE=Library Entry 88528
##JCAMP-DX=Revision 4.10 
##DATA TYPE=MASS SPECTRUM
##SAMPLE DESCRIPTION=H. SASAKI,RES. LAB.,CHUGAI PHARM. CO., LTD.,TAKADA,TOKY
O,JAP
##NAMES=HP
##CAS NAME=Thiolactomycin
##MOLFORM=C11H14O2S
##CAS REGISTRY NO=82079-32-1
##MP= -300
##BP= -300
##MW= 210
##$RETENTION INDEX=0
##$CONDENSED SPECTRUM=NO
##NPOINTS= 57
##XYDATA=(XY..XY) 1 
    43         36
    55         31
    59         49
    67         67
    69         23
    77         67
    78         23
    79        107
    83        110
    84         22
    85         27
    91         78
    92         24
    93         77
    94         52
    95         54
    96         22
    97         24
    98         23
    99         63
   105         26
   107         59
   111        999
   112        192
   113         77
   121         52
   122         28
   123         42
   124         21
   125        499
   126        951
   127        219
   128         79
   129         24
   135        102
   136        101
   137         34
   139         31
   149         60
   150         34
   151         26
   154         21
   157         24
   163         28
   164         50
   167         80
   168         20
   177        134
   178         29
   181         22
   182        228
   183         55
   195         76
   196         23
   210        112
   211         37
   212         12