##TITLE=Library Entry 80608
##JCAMP-DX=Revision 4.10 
##DATA TYPE=MASS SPECTRUM
##SAMPLE DESCRIPTION=P. Vainiotalo, Dep. Chem., Univ. Joensuu, Joensuu, Finl
and
##NAMES=HP
##CAS NAME=1,2-Dihydro-4H-2-(p-chlorophenyl)-3,1-benzoxazine
##MOLFORM=C14H12ClNO
##CAS REGISTRY NO=82085-90-3
##MP= -300
##BP= -300
##MW= 245
##$RETENTION INDEX=0
##$CONDENSED SPECTRUM=NO
##NPOINTS= 68
##XYDATA=(XY..XY) 1 
    27         13
    39         31
    50         29
    51         81
    52         34
    53          9
    63         29
    65         23
    74          9
    75         40
    76         39
    77        186
    78        257
    79         29
    89         56
    90         30
    91         45
    92         18
   102         12
   103         11
   104        608
   105        999
   106        113
   107          8
   111         55
   112          4
   113         27
   120        176
   121         15
   125        181
   126         17
   127         62
   132         66
   133         29
   134         77
   138         18
   139         59
   140         84
   141         26
   142         25
   151         12
   152         24
   153          7
   165         31
   166          4
   178          9
   179         10
   180         36
   181         15
   182         10
   209          6
   210         16
   214         22
   215          7
   216         59
   217         37
   218         21
   219         12
   227         12
   228         15
   229          8
   230          3
   243          6
   244         64
   245        504
   246        101
   247        172
   248         25