##TITLE=Library Entry 78656
##JCAMP-DX=Revision 4.10 
##DATA TYPE=MASS SPECTRUM
##SAMPLE DESCRIPTION=V.A.Korolev, Moscow, Russia
##NAMES=HP
##CAS NAME=2-Benzoylcyclohexane-1-carboxylic acid
##MOLFORM=C14H16O3
##CAS REGISTRY NO=820991-06-8
##MP= -300
##BP= -300
##MW= 232
##$RETENTION INDEX=0
##$CONDENSED SPECTRUM=NO
##NPOINTS= 78
##XYDATA=(XY..XY) 1 
    37          4
    38         22
    39        174
    40         23
    41        121
    42         16
    43         32
    45        124
    50         80
    51        208
    52         27
    53         64
    54         56
    55         79
    57          8
    63          9
    65         12
    66         11
    67         70
    68          9
    69          2
    71          2
    73          9
    74         19
    75         13
    77        537
    78         56
    79         62
    80         11
    81         70
    82         65
    83          6
    86          3
    91         12
    94         15
    95          2
   103          4
   105        999
   106         74
   107         11
   108          4
   109          5
   115         10
   116          3
   117          2
   120         12
   121          3
   123        197
   124         12
   126          2
   128          4
   131          6
   133         27
   134          2
   141          3
   142          2
   145         13
   146          4
   158          4
   159          4
   160          3
   167          2
   169          4
   170          1
   173          3
   178          3
   184          2
   186          7
   187          2
   188          1
   190          2
   203          2
   214        128
   215         14
   216          3
   232        143
   233         18
   234          4