##TITLE=Library Entry 48112
##JCAMP-DX=Revision 4.10 
##DATA TYPE=MASS SPECTRUM
##SAMPLE DESCRIPTION=Exported from NIST MS Search
##NAMES=HP
##CAS NAME=1,5-Hexadien-3-yne
##MOLFORM=C6H6
##CAS REGISTRY NO=821-08-9
##MP= -300
##BP= -300
##MW= 78
##$RETENTION INDEX=679
##$CONDENSED SPECTRUM=NO
##NPOINTS= 49
##XYDATA=(XY..XY) 1 
    12          3
    13          2
    14          4
    15          4
    24          1
    25          6
    26         37
    27         48
    28         16
    29          2
    31          3
    34          3
    36         10
    37         72
    38         78
    39        214
    40          7
    41          2
    42          1
    43          2
    44          4
    45          1
    47          1
    48          8
    49         43
    50        321
    51        444
    52        589
    53         27
    54          1
    55          1
    60          9
    61         29
    62         30
    63        101
    64          6
    65          1
    67          1
    69          1
    70          2
    72          4
    73         41
    74        137
    75         58
    76         72
    77        262
    78        999
    79         64
    80          2