##TITLE=Library Entry 2719
##JCAMP-DX=Revision 4.10 
##DATA TYPE=MASS SPECTRUM
##SAMPLE DESCRIPTION=S.A. Rang et al., IR & MS of Unsatd. Hydrocarbons, 1977
##NAMES=HP
##CAS NAME=3-Undecene, (Z)-
##MOLFORM=C11H22
##CAS REGISTRY NO=821-97-6
##MP= -300
##BP= -300
##MW= 154
##$RETENTION INDEX=1086
##$CONDENSED SPECTRUM=NO
##NPOINTS= 72
##XYDATA=(XY..XY) 1 
    14          0
    15          7
    24          0
    25          1
    26         11
    27        244
    28         29
    29        328
    30          8
    37          1
    38          4
    39        200
    40         39
    41        999
    42        274
    43        548
    44         14
    45          0
    50          3
    51         13
    52         10
    53         97
    54        112
    55        698
    56        548
    57        264
    58         11
    59          0
    63          2
    64          0
    65         18
    66         14
    67        161
    68         83
    69        506
    70        383
    71         70
    72          3
    77         12
    78          2
    79         20
    80          3
    81         38
    82         47
    83        190
    84        146
    85         36
    86          2
    91          3
    92          0
    93          2
    94          0
    95         11
    96         15
    97         97
    98         48
   105          0
   107          0
   109          9
   110          9
   111         45
   112         18
   113          2
   123          4
   124          2
   125         13
   126         14
   127          1
   139          0
   154        112
   155         13
   156          0