##TITLE=Library Entry 49457
##JCAMP-DX=Revision 4.10 
##DATA TYPE=MASS SPECTRUM
##SAMPLE DESCRIPTION=D.HENNEBERG, MAX-PLANCK INSTITUTE, MULHEIM, WEST GERMAN
Y
##NAMES=HP
##CAS NAME=1,3,5-Hexatriene, (E)-
##MOLFORM=C6H8
##CAS REGISTRY NO=821-07-8
##MP= -300
##BP= -300
##MW= 80
##$RETENTION INDEX=0
##$CONDENSED SPECTRUM=NO
##NPOINTS= 51
##XYDATA=(XY..XY) 1 
    25          3
    26         52
    27        310
    28        120
    29         16
    30          0
    31         27
    32         14
    36          3
    37         40
    38         78
    39        429
    40        129
    41        118
    42          6
    43          3
    44          5
    45          8
    48          2
    49         20
    50        159
    51        251
    52        233
    53        139
    54         53
    55          3
    56          1
    57          1
    59          9
    60          2
    61          9
    62         16
    63         37
    64          7
    65        142
    66         11
    67          1
    69          0
    70          0
    71          0
    72          1
    73         12
    74         39
    75         44
    76         12
    77        739
    78        152
    79        681
    80        999
    81         63
    82          2