##TITLE=Library Entry 7195
##JCAMP-DX=Revision 4.10 
##DATA TYPE=MASS SPECTRUM
##SAMPLE DESCRIPTION=Japan AIST/NIMC Database- Spectrum MS-NW-5157
##NAMES=HP
##CAS NAME=1-Undecene
##MOLFORM=C11H22
##CAS REGISTRY NO=821-95-4
##MP= -300
##BP= -300
##MW= 154
##$RETENTION INDEX=1091
##$CONDENSED SPECTRUM=NO
##NPOINTS= 66
##XYDATA=(XY..XY) 1 
    15          9
    26          9
    27        232
    28         22
    29        398
    30          9
    36          1
    37          1
    38          7
    39        232
    40         37
    41        848
    42        314
    43        999
    44         33
    45          1
    50          4
    51         13
    52          7
    53         71
    54        119
    55        932
    56        894
    57        633
    58         29
    59          1
    62          1
    63          3
    65         10
    66          9
    67         96
    68        122
    69        709
    70        822
    71        242
    72         11
    75          1
    77          8
    78          1
    79          8
    80          2
    81         27
    82        120
    83        514
    84        400
    85         70
    86          5
    91          1
    93          1
    95          6
    96         37
    97        281
    98        140
    99         14
   109          1
   110         14
   111        110
   112         82
   113          8
   124          4
   125         46
   126         57
   127          6
   139          2
   154         87
   155         10