##TITLE=Library Entry 59290
##JCAMP-DX=Revision 4.10 
##DATA TYPE=MASS SPECTRUM
##SAMPLE DESCRIPTION=Japan AIST/NIMC Database- Spectrum MS-NW-5661
##NAMES=HP
##CAS NAME=1,9-Dichlorononane
##MOLFORM=C9H18Cl2
##CAS REGISTRY NO=821-99-8
##MP= -300
##BP= -300
##MW= 196
##$RETENTION INDEX=1435
##$CONDENSED SPECTRUM=NO
##NPOINTS= 90
##XYDATA=(XY..XY) 1 
    14          1
    15          7
    26         11
    27        228
    28         16
    29        215
    30          5
    35          3
    36         15
    38          8
    39        167
    40         25
    41        715
    42        147
    43        341
    44         14
    45          1
    46          1
    49         50
    50          5
    51         17
    52          6
    53         57
    54         69
    55        932
    56        167
    57        118
    58          6
    61          4
    62          9
    63         65
    64          4
    65         24
    66          7
    67         82
    68         96
    69        531
    70        115
    71         16
    72          1
    75         12
    76          9
    77         38
    78          5
    79         12
    80          2
    81         54
    82        108
    83        225
    84         38
    85          3
    88          1
    89          6
    90         21
    91        999
    92         59
    93        344
    94         18
    95         44
    96         22
    97         48
    98         12
    99          1
   103          4
   104        117
   105        118
   106         44
   107         38
   108          2
   109          4
   111          9
   116          2
   117          9
   118         58
   119         11
   120         19
   121          5
   123          2
   124          3
   125          3
   130          2
   131          9
   132         28
   133          6
   134          8
   135          3
   137          3
   151          2
   160          5
   162          2