##TITLE=Library Entry 57236
##JCAMP-DX=Revision 4.10 
##DATA TYPE=MASS SPECTRUM
##SAMPLE DESCRIPTION=Japan AIST/NIMC Database- Spectrum MS-NW-2790
##NAMES=HP
##CAS NAME=2-Butyne, 1,4-dichloro-
##MOLFORM=C4H4Cl2
##CAS REGISTRY NO=821-10-3
##MP= -300
##BP= -300
##MW= 122
##$RETENTION INDEX=0
##$CONDENSED SPECTRUM=NO
##NPOINTS= 55
##XYDATA=(XY..XY) 1 
    12          2
    13          1
    14          1
    24          1
    25          7
    26         44
    27         21
    28          6
    35         21
    36         17
    37         19
    38          9
    39          7
    40          1
    41          2
    42          1
    43         10
    44          5
    47          5
    48          5
    49         47
    50        152
    51        322
    52        286
    53         15
    60          8
    61         40
    62         15
    63         13
    64          4
    69          1
    72          1
    73         23
    74          1
    75          9
    83          2
    84          5
    85         37
    86         73
    87        999
    88         65
    89        319
    90         14
    96          8
    98          5
   107          1
   109          7
   111          4
   121          3
   122        236
   123         21
   124        150
   125         12
   126         23
   127          2