##TITLE=Library Entry 2716
##JCAMP-DX=Revision 4.10 
##DATA TYPE=MASS SPECTRUM
##SAMPLE DESCRIPTION=D.HENNEBERG, MAX-PLANCK INSTITUTE, MULHEIM, WEST GERMAN
Y
##NAMES=HP
##CAS NAME=2-Undecene, (Z)-
##MOLFORM=C11H22
##CAS REGISTRY NO=821-96-5
##MP= -300
##BP= -300
##MW= 154
##$RETENTION INDEX=1102
##$CONDENSED SPECTRUM=NO
##NPOINTS= 69
##XYDATA=(XY..XY) 1 
    25          6
    26         30
    27        460
    28        111
    29        583
    30         18
    32          7
    35          5
    36          7
    37         14
    38         31
    39        497
    40         92
    41        999
    42        327
    43        702
    44         30
    49          6
    50         20
    51         42
    52         28
    53        154
    54        149
    55        936
    56        624
    57        504
    58         28
    62          8
    63         12
    64          7
    65         25
    66         23
    67        116
    68        116
    69        496
    70        481
    71         93
    72          9
    73          6
    75          6
    77         18
    78          9
    79         19
    80          9
    81         32
    82         50
    83        225
    84        199
    85         46
    86          7
    91          8
    93          6
    95         11
    96         24
    97        147
    98         90
    99         12
   109          6
   110         12
   111         66
   112         38
   113          8
   124          7
   125         25
   126         29
   127          7
   154        198
   155         24
   156          1