##TITLE=Library Entry 18707
##JCAMP-DX=Revision 4.10 
##DATA TYPE=MASS SPECTRUM
##SAMPLE DESCRIPTION=NIST Mass Spectrometry Data Center
##NAMES=HP
##CAS NAME=5-Hexen-1-ol
##MOLFORM=C6H12O
##CAS REGISTRY NO=821-41-0
##MP= -300
##BP= -300
##MW= 100
##$RETENTION INDEX=868
##$CONDENSED SPECTRUM=NO
##NPOINTS= 58
##XYDATA=(XY..XY) 1 
    14          1
    15          8
    19          4
    25          1
    26         21
    27        157
    28         53
    29        165
    30         14
    31        410
    32          5
    33          1
    37         10
    38         31
    39        432
    40         77
    41        638
    42        314
    43        126
    44        131
    45         41
    46          1
    49          3
    50         24
    51         39
    52         17
    53        131
    54        999
    55        222
    56        100
    57        481
    58         46
    59         13
    60          1
    61          2
    62          5
    63          8
    64          1
    65         45
    66         17
    67        969
    68         60
    69         26
    70          9
    71         60
    72         49
    73          1
    74          1
    77          9
    78          1
    79         30
    80          5
    81         93
    82        255
    83         17
    84          1
    85          4
    99          1