##TITLE=Library Entry 19140
##JCAMP-DX=Revision 4.10 
##DATA TYPE=MASS SPECTRUM
##SAMPLE DESCRIPTION=S.A. Rang et al., IR & MS of Unsatd. Hydrocarbons, 1977
##NAMES=HP
##CAS NAME=4-Undecene, (Z)-
##MOLFORM=C11H22
##CAS REGISTRY NO=821-98-7
##MP= -300
##BP= -300
##MW= 154
##$RETENTION INDEX=1081
##$CONDENSED SPECTRUM=NO
##NPOINTS= 71
##XYDATA=(XY..XY) 1 
    15          5
    25          2
    26         17
    27        252
    28         94
    29        336
    30          7
    36          0
    37          1
    38          4
    39        210
    40         33
    41        880
    42        268
    43        520
    44         10
    50          4
    51         14
    52         12
    53         89
    54        163
    55        999
    56        579
    57        205
    58          8
    63          2
    64          1
    65         21
    66         14
    67        179
    68         63
    69        560
    70        389
    71         73
    72          3
    73          0
    75          0
    77         16
    78          4
    79         24
    80          6
    81         52
    82         45
    83        189
    84        152
    85         36
    86          1
    91          4
    92          0
    93          2
    94          0
    95         12
    96         17
    97        105
    98         47
    99          4
   109         10
   110          7
   111         40
   112         17
   113         15
   123          7
   124          2
   125         10
   126         12
   127          1
   139          0
   152          0
   154        121
   155         14
   156          1