##TITLE=Library Entry 19084
##JCAMP-DX=Revision 4.10 
##DATA TYPE=MASS SPECTRUM
##SAMPLE DESCRIPTION=R.T.HOLMAN,UNIVERSITY OF MINNESOTA
##NAMES=HP
##CAS NAME=Oleic acid, 3-hydroxypropyl ester
##MOLFORM=C21H40O3
##CAS REGISTRY NO=821-17-0
##MP= -300
##BP= -300
##MW= 340
##$RETENTION INDEX=2154
##$CONDENSED SPECTRUM=NO
##NPOINTS= 142
##XYDATA=(XY..XY) 1 
    27        170
    28        120
    29        380
    30         30
    31        430
    39        130
    40         40
    41        950
    42        170
    43        640
    44         30
    45         50
    52         20
    53         90
    54        330
    55        999
    56        220
    57        390
    58        130
    59        180
    60         60
    61         40
    65         20
    66         30
    67        470
    68        240
    69        570
    70        150
    71        100
    72         30
    73         70
    74         10
    75         60
    77         70
    78         20
    79        100
    80         90
    81        390
    82        280
    83        390
    84        240
    85         70
    86         10
    87         30
    88         10
    91         40
    92         20
    93         70
    94         70
    95        290
    96        260
    97        250
    98        530
    99         70
   100         40
   101         30
   105         20
   106         10
   107         40
   108         50
   109        180
   110        160
   111        130
   112        180
   113         80
   114         20
   115         20
   118         40
   119         40
   120         20
   121         60
   122         40
   123        140
   124        100
   125         60
   126         40
   127         20
   129         10
   131         20
   133         40
   134         20
   135         40
   136         20
   137        160
   138         80
   139         30
   140         10
   141         20
   147         30
   148         20
   149         20
   150         10
   151        110
   152         90
   153         20
   154         10
   155         20
   161         20
   162         20
   163         20
   164         20
   165         60
   166         60
   167         20
   168         10
   169         30
   175         10
   177         10
   178         10
   179         30
   180         60
   181         20
   182         10
   183         20
   193         20
   194         20
   195         10
   207         50
   208         30
   209         20
   220         30
   221         80
   222         40
   223         20
   235         30
   236         30
   237         10
   246         20
   247         20
   249         10
   263         20
   264        600
   265        270
   266         60
   267         10
   282         10
   283         10
   309         10
   322         30
   323         10
   340         30
   341         10