##TITLE=Library Entry 84343
##JCAMP-DX=Revision 4.10 
##DATA TYPE=MASS SPECTRUM
##SAMPLE DESCRIPTION=T. BROOKSOM,DEP. QUIM.,UNIV. FED. SAO CARLOS,SAO CARLOS
,BRAZIL
##NAMES=HP
##CAS NAME=(1.alpha.,2.alpha.,3.beta.)-Dimethyl 1,3-dimethyl-4-cyclohexene-1
,2-dicarboxylate
##MOLFORM=C12H18O4
##CAS REGISTRY NO=82112-19-4
##MP= -300
##BP= -300
##MW= 226
##$RETENTION INDEX=0
##$CONDENSED SPECTRUM=NO
##NPOINTS= 70
##XYDATA=(XY..XY) 1 
    15        300
    16         10
    17         50
    18        180
    20         10
    25         10
    26         25
    27         70
    28        170
    29         40
    30         10
    31         20
    32          5
    33         10
    38         10
    39        110
    40         20
    41         95
    42          5
    43         30
    44         25
    45         20
    50         10
    51         40
    52         10
    53         40
    55         20
    59         90
    60          5
    63         10
    65         50
    66         10
    67         30
    68         15
    69         15
    75         10
    77         60
    78         20
    79         50
    80          5
    81          5
    91        180
    92         25
    93         55
    94          5
    95          5
    99         10
   103         10
   105         50
   106        130
   107        999
   108         90
   109         10
   111          5
   119         10
   123          5
   125         10
   127         10
   134         15
   135         30
   138          5
   151         40
   152          5
   161        320
   162         60
   163         10
   194         60
   195         70
   196          5
   226         10