##TITLE=Library Entry 58448
##JCAMP-DX=Revision 4.10 
##DATA TYPE=MASS SPECTRUM
##SAMPLE DESCRIPTION=J.M. Halket, Trace Anal. Unit (TAU), London, UK
##NAMES=HP
##CAS NAME=Glycerol, 3TBDMS derivative
##MOLFORM=C21H50O3Si3
##CAS REGISTRY NO=82112-23-0
##MP= -300
##BP= -300
##MW= 434
##$RETENTION INDEX=1883
##$CONDENSED SPECTRUM=NO
##NPOINTS= 69
##XYDATA=(XY..XY) 1 
    39         12
    41        103
    43         11
    45         36
    47          9
    55         15
    56         17
    57         61
    58         27
    59         99
    60          8
    61         10
    69          6
    73        914
    74         71
    75         93
    85         23
    86          5
    87          8
    89        999
    90         76
    91         33
    99         18
   100          6
   101         23
   103         16
   115        190
   116         24
   117         28
   119         18
   129          7
   131         30
   133        228
   134         32
   135         22
   145         53
   147        476
   148         77
   149         58
   163         32
   171        272
   172         39
   173         29
   174          5
   175         61
   176          9
   177          9
   189        266
   190         48
   191         39
   192          6
   193          7
   205         15
   207         60
   208         12
   209          8
   219         40
   220          8
   221         64
   222         15
   223          8
   231          9
   245         47
   246         11
   247         13
   289          8
   377        141
   378         50
   379         24