##TITLE=Library Entry 43663
##JCAMP-DX=Revision 4.10 
##DATA TYPE=MASS SPECTRUM
##SAMPLE DESCRIPTION=J.M. Halket, Trace Anal. Unit (TAU), London, UK
##NAMES=HP
##CAS NAME=Hydracrylic acid, 2TBDMS derivative
##MOLFORM=C15H34O3Si2
##CAS REGISTRY NO=82112-30-9
##MP= -300
##BP= -300
##MW= 318
##$RETENTION INDEX=1579
##$CONDENSED SPECTRUM=NO
##NPOINTS= 57
##XYDATA=(XY..XY) 1 
    39         23
    41         88
    43         38
    44         15
    45        100
    47         50
    55         93
    56         25
    57         67
    58         46
    59        126
    60         18
    61         28
    66         54
    67          5
    73        999
    74         90
    75        272
    76         20
    77         14
    81         22
    85         17
    87         37
    88         13
    89         51
    99         13
   101         20
   102         26
   103         18
   105         22
   115         63
   117         21
   119         19
   129         25
   131         16
   133        212
   134         29
   135         18
   147        360
   148         58
   149         37
   163         84
   164         10
   187          7
   189        329
   190         65
   191         33
   205          6
   219        103
   220         16
   221          7
   231         14
   261        516
   262        113
   263         51
   303         23
   304          6