##TITLE=Library Entry 81498
##JCAMP-DX=Revision 4.10 
##DATA TYPE=MASS SPECTRUM
##SAMPLE DESCRIPTION=Japan AIST/NIMC Database- Spectrum MS-IW-4882
##NAMES=HP
##CAS NAME=N,N'-Ethylenebis(N-ethylbenzamide)
##MOLFORM=C20H24N2O2
##CAS REGISTRY NO=82126-36-1
##MP= -300
##BP= -300
##MW= 324
##$RETENTION INDEX=0
##$CONDENSED SPECTRUM=NO
##NPOINTS= 60
##XYDATA=(XY..XY) 1 
    27          2
    28          5
    29          3
    30          2
    39          1
    41          1
    42          9
    43          1
    44          1
    50          3
    51         21
    52          1
    54          1
    56         62
    57          4
    58          3
    69          1
    70          3
    71          4
    72          1
    75          1
    76          6
    77        205
    78         14
    91          8
    92         10
   103          1
   104          6
   105        999
   106         86
   107          5
   114          1
   118          1
   119          1
   132          3
   133          1
   134          1
   146         20
   147         90
   148         17
   149          2
   150          5
   160          1
   161          2
   162        145
   163         16
   164          1
   174         11
   175        366
   176         87
   177          9
   201          2
   219         47
   220          7
   295          4
   309          1
   323          8
   324         14
   325          7
   326          1