##TITLE=Library Entry 70030
##JCAMP-DX=Revision 4.10 
##DATA TYPE=MASS SPECTRUM
##SAMPLE DESCRIPTION=J.A. ENZELL, RES. DEP., SWED. TOB. CO., STOCKHOLM, SWED
EN
##NAMES=HP
##CAS NAME=4-Propyl-2-hydroxycyclopent-2-en-1-one
##MOLFORM=C8H12O2
##CAS REGISTRY NO=82147-26-0
##MP= -300
##BP= -300
##MW= 140
##$RETENTION INDEX=0
##$CONDENSED SPECTRUM=NO
##NPOINTS= 10
##XYDATA=(XY..XY) 1 
    41        320
    42         90
    43        150
    55        160
    56         90
    69        430
    80        110
    97        999
    98        120
   140        180