##TITLE=Library Entry 32822
##JCAMP-DX=Revision 4.10 
##DATA TYPE=MASS SPECTRUM
##SAMPLE DESCRIPTION=Leung Pu, NIH, Bethesda, Maryland, U.S.
##NAMES=HP
##CAS NAME=7-Hexadecyn-1-ol
##MOLFORM=C16H30O
##CAS REGISTRY NO=822-21-9
##MP= -300
##BP= -300
##MW= 238
##$RETENTION INDEX=0
##$CONDENSED SPECTRUM=NO
##NPOINTS= 182
##XYDATA=(XY..XY) 1 
    41        857
    42        184
    43        720
    44         53
    45         44
    46          2
    47          7
    48          4
    49         38
    50         14
    51         63
    52        105
    53        273
    54        687
    55        910
    56        193
    57        391
    58        155
    59         21
    60         15
    61          5
    62          2
    63         12
    64          7
    65        146
    66        164
    67        999
    68        654
    69        529
    70        198
    71        225
    72        101
    73         26
    74          1
    75          3
    77        177
    78        150
    79        761
    80        566
    81        970
    82        795
    83        481
    84        212
    85        124
    86         34
    87          8
    88          4
    89          3
    91        224
    92         48
    93        653
    94        316
    95        763
    96        664
    97        337
    98        359
    99         89
   100         18
   101         37
   102          5
   103         10
   104          5
   105         59
   106         21
   107        347
   108        101
   109        320
   110        224
   111        209
   112         92
   113         23
   114          3
   115          9
   116          3
   117         37
   118          1
   119         27
   120         12
   121        194
   122        317
   123        190
   124        234
   125         74
   126         18
   127          5
   128          2
   129          8
   130          1
   131          5
   132          1
   133         10
   134          3
   135         71
   136         95
   137        138
   138        118
   139         32
   140         22
   141          6
   142          2
   143          2
   144          1
   145          2
   146          1
   147          7
   148          5
   149         36
   150         13
   151         31
   152        175
   153         36
   154         22
   155          8
   156          2
   157          2
   158          2
   159          2
   160          1
   161          5
   162          3
   163         16
   164          6
   165         13
   166        193
   167         30
   168          6
   169          2
   170          1
   171          1
   172          0
   173          4
   174          4
   175          6
   176          5
   177          7
   178          2
   179         11
   180          5
   181          7
   182          6
   183          2
   184          0
   185          1
   187          5
   188          4
   189          6
   190          4
   191          6
   192          5
   193         28
   194         29
   195         17
   196          4
   197          1
   199          1
   201          6
   202          2
   203          4
   204          2
   205          3
   206          1
   207          6
   208          6
   209          6
   210          4
   211          1
   215          1
   216          1
   217          3
   218          2
   219          4
   220          3
   221          7
   222          2
   223          2
   225          2
   226          0
   235          1
   236          1
   237          2
   238          8
   239          3