##TITLE=Library Entry 7962
##JCAMP-DX=Revision 4.10 
##DATA TYPE=MASS SPECTRUM
##SAMPLE DESCRIPTION=NIST Mass Spectrometry Data Center
##NAMES=HP
##CAS NAME=Hexacosyl acetate
##MOLFORM=C28H56O2
##CAS REGISTRY NO=822-32-2
##MP= -300
##BP= -300
##MW= 424
##$RETENTION INDEX=3003
##$CONDENSED SPECTRUM=NO
##NPOINTS= 159
##XYDATA=(XY..XY) 1 
    15          2
    26          2
    27         18
    28          6
    29         67
    30          2
    37          1
    38          1
    39         26
    40          7
    41        293
    42         98
    43        999
    44         30
    45          5
    51          1
    52          1
    53         18
    54         83
    55        625
    56        298
    57        827
    58         44
    59          9
    61        592
    62         13
    63          3
    65          3
    66         10
    67        122
    68        175
    69        519
    70        257
    71        411
    72         25
    73         35
    74          2
    77          3
    78          1
    79         12
    80          9
    81        103
    82        358
    83        674
    84        192
    85        275
    86         19
    87          5
    88          2
    91          2
    93          4
    94          5
    95         70
    96        194
    97        717
    98        146
    99         77
   100          5
   101          7
   102          3
   107          1
   108          3
   109         34
   110         74
   111        404
   112         94
   113         45
   114          5
   115          2
   116         36
   117          2
   121          1
   122          3
   123         22
   124         49
   125        205
   126         60
   127         29
   128          3
   129          2
   130          5
   136          2
   137         14
   138         34
   139         87
   140         38
   141         18
   142          2
   143          1
   151          4
   152         22
   153         47
   154         26
   155         12
   156          2
   165          2
   166         15
   167         28
   168         18
   169          8
   170          1
   179          1
   180         11
   181         17
   182         12
   183          5
   184          1
   194          8
   195         10
   196          9
   197          3
   198          1
   208          6
   209          6
   210          6
   211          2
   222          6
   223          5
   224          5
   225          2
   236          5
   237          4
   238          4
   239          2
   250          5
   251          3
   252          4
   253          1
   264          4
   265          3
   266          3
   267          1
   278          4
   279          3
   280          3
   292          3
   293          2
   294          2
   295          1
   306          2
   307          2
   308          2
   309          1
   320          2
   321          2
   322          1
   334          1
   335          2
   336         15
   337          4
   338          1
   362          1
   364         18
   365          5
   366          1
   406          1
   409          2
   410          1
   424          1