##TITLE=Library Entry 7234
##JCAMP-DX=Revision 4.10 
##DATA TYPE=MASS SPECTRUM
##SAMPLE DESCRIPTION=NIST Mass Spectrometry Data Center, 1990.
##NAMES=HP
##CAS NAME=Acetic acid n-octadecyl ester
##MOLFORM=C20H40O2
##CAS REGISTRY NO=822-23-1
##MP= -300
##BP= -300
##MW= 312
##$RETENTION INDEX=2208
##$CONDENSED SPECTRUM=NO
##NPOINTS= 98
##XYDATA=(XY..XY) 1 
    14          3
    15         15
    17          3
    18          1
    26          3
    27         56
    28         21
    29        139
    30          5
    39         47
    41        426
    42        141
    43        999
    44         38
    45          7
    53         22
    54         95
    55        591
    56        283
    57        552
    58         34
    59          8
    60          7
    61        352
    62          9
    65          5
    66         17
    67        120
    68        165
    69        522
    70        286
    71        262
    72         17
    73         34
    77          5
    79         12
    80         11
    81         89
    82        293
    83        542
    84        191
    85        163
    86          9
    87          5
    91          2
    93          3
    94          5
    95         43
    96        155
    97        551
    98        145
    99         47
   100          4
   101          5
   108          3
   109         19
   110         69
   111        333
   112         88
   113         33
   114          3
   116         27
   122          3
   123         11
   124         54
   125        186
   126         66
   127         15
   129          3
   130          4
   137          7
   138         28
   139         68
   140         39
   141          8
   151          1
   152         17
   153         46
   154         21
   155          6
   166         14
   167         26
   168         18
   169          6
   180         10
   181         13
   182         11
   194          5
   195          7
   196          9
   209          5
   210          4
   223          3
   224         38
   225          7
   252         44
   253          6
   297          3