##TITLE=Library Entry 1704
##JCAMP-DX=Revision 4.10 
##DATA TYPE=MASS SPECTRUM
##SAMPLE DESCRIPTION=AMERICAN OIL CO., WHITING, IND, USA
##NAMES=HP
##CAS NAME=Cyclopropane, 1,1'-ethenylidenebis-
##MOLFORM=C8H12
##CAS REGISTRY NO=822-93-5
##MP= -300
##BP= -300
##MW= 108
##$RETENTION INDEX=0
##$CONDENSED SPECTRUM=NO
##NPOINTS= 80
##XYDATA=(XY..XY) 1 
    13         16
    14         65
    15        148
    16          5
    24          0
    25          5
    26        108
    27        512
    28         90
    29         74
    30          2
    31          1
    32          1
    36          2
    37         49
    38        137
    39        999
    40        161
    41        728
    42         40
    43         25
    44         13
    45          2
    46          0
    49         10
    50        132
    51        251
    52        151
    53        200
    54         83
    55         44
    56          6
    57          1
    58          2
    60          1
    61         14
    62         35
    63         78
    64         16
    65        240
    66        170
    67        499
    68         43
    69          5
    70          1
    71          1
    72          0
    73          3
    74         13
    75         12
    76          2
    77        623
    78        113
    79        544
    80        194
    81         29
    82          4
    83          0
    84          0
    85          1
    86          1
    87          1
    88         14
    89          3
    90          3
    91        395
    92         40
    93        667
    94         48
    95          1
    98          0
   102          1
   103          4
   104          1
   105         21
   106          2
   107         52
   108        303
   109         23
   110          0