##TITLE=Library Entry 69717
##JCAMP-DX=Revision 4.10 
##DATA TYPE=MASS SPECTRUM
##SAMPLE DESCRIPTION=T. Jones, LC, NHLBI, NIH, Bethesda, MD 20892
##NAMES=HP
##CAS NAME=2,5-Dimethyl-1-pyrroline
##MOLFORM=C6H11N
##CAS REGISTRY NO=822-64-0
##MP= -300
##BP= -300
##MW= 97
##$RETENTION INDEX=0
##$CONDENSED SPECTRUM=NO
##NPOINTS= 45
##XYDATA=(XY..XY) 1 
    41        508
    42        841
    43        236
    44        142
    45         53
    49          7
    50         23
    51          5
    52         43
    53         92
    54         93
    55        327
    56        594
    57        125
    58         24
    60         60
    65         29
    66         19
    67         62
    68        264
    69        505
    70         64
    71         44
    72         25
    73         28
    75         24
    77         45
    78         65
    79         38
    80         60
    81         94
    82        543
    83        150
    84         10
    85          7
    86         13
    89          8
    91          9
    93          6
    94          6
    95          5
    96        236
    97        999
    98         69
    99          2