##TITLE=Library Entry 76035
##JCAMP-DX=Revision 4.10 
##DATA TYPE=MASS SPECTRUM
##SAMPLE DESCRIPTION=MM VESTLING RL OGREN STATE UNIV., BROCKPORT, NY, USA
##NAMES=HP
##CAS NAME=Thiazolidine, 2-ethyl-2-methyl-
##MOLFORM=C6H13NS
##CAS REGISTRY NO=822-72-0
##MP= -300
##BP= -300
##MW= 131
##$RETENTION INDEX=0
##$CONDENSED SPECTRUM=NO
##NPOINTS= 63
##XYDATA=(XY..XY) 1 
    27        242
    28        160
    29        160
    30        365
    31         10
    32         27
    34         10
    39         83
    40         20
    41        113
    42        700
    43         67
    44        157
    45        110
    46         26
    47         26
    51         16
    52         11
    53         40
    54         51
    55        300
    56        388
    57         91
    58         44
    59        213
    60        100
    61        410
    62         20
    63         18
    67         18
    68         31
    69         23
    70        190
    71         40
    72        610
    73         27
    74         12
    81         21
    82         31
    83         20
    84        960
    85        201
    87         33
    88         23
    95         15
    96         10
    97         18
    98        130
    99         15
   100         12
   101         13
   102        999
   103         58
   104         46
   111         10
   114         10
   115         12
   116        177
   117         12
   118         11
   131        580
   132         61
   133         30