##TITLE=Library Entry 2969
##JCAMP-DX=Revision 4.10 
##DATA TYPE=MASS SPECTRUM
##SAMPLE DESCRIPTION=Japan AIST/NIMC Database- Spectrum MS-NW- 590
##NAMES=HP
##CAS NAME=Hexane, 1,6-diisocyanato-
##MOLFORM=C8H12N2O2
##CAS REGISTRY NO=822-06-0
##MP= -300
##BP= -300
##MW= 168
##$RETENTION INDEX=0
##$CONDENSED SPECTRUM=NO
##NPOINTS= 82
##XYDATA=(XY..XY) 1 
    12          1
    14          4
    15         55
    16          2
    17          4
    18         13
    26         21
    27        153
    28        154
    29        124
    30         62
    37          3
    38          9
    39        126
    40         36
    41        999
    42        161
    43        708
    44         44
    45          2
    46          2
    50          5
    51          9
    52          9
    53         48
    54        167
    55        208
    56        902
    57         30
    58         85
    59          5
    60          1
    62          1
    63          2
    64          1
    65          6
    66          5
    67        191
    68         63
    69        337
    70        102
    71         13
    72          2
    73          2
    77          2
    78          2
    79          9
    80         26
    81         35
    82        100
    83         36
    84        112
    85        521
    86         27
    87          2
    94          3
    95          9
    96         34
    97        131
    98        253
    99        458
   100         27
   101          1
   108          2
   110         11
   111         11
   112         29
   113         40
   114          3
   120          1
   121          1
   122          2
   123         10
   124         57
   125         36
   126         84
   127          7
   134          2
   135          2
   139          3
   140          1
   167          1