##TITLE=Library Entry 40700
##JCAMP-DX=Revision 4.10 
##DATA TYPE=MASS SPECTRUM
##SAMPLE DESCRIPTION=D.H.WILLIAMS CHEMISTRY DEPT., UNIVERSITY OF CAMBRIDGE
##NAMES=HP
##CAS NAME=1,3-Dioxolane, 2-(1-methylethyl)-
##MOLFORM=C6H12O2
##CAS REGISTRY NO=822-83-3
##MP= -300
##BP= -300
##MW= 116
##$RETENTION INDEX=848
##$CONDENSED SPECTRUM=NO
##NPOINTS= 34
##XYDATA=(XY..XY) 1 
    14         10
    15        250
    18         20
    19         30
    26         10
    27         70
    28         50
    29         35
    30          5
    31         10
    38          5
    39         40
    40         10
    41         70
    42         15
    43         75
    44         15
    45        280
    46         10
    53         10
    54         10
    55         30
    56         65
    57         40
    71         20
    72         10
    73        999
    74         40
    85         10
    86         10
    99         10
   101         10
   115         30
   116         15