##TITLE=Library Entry 25315
##JCAMP-DX=Revision 4.10 
##DATA TYPE=MASS SPECTRUM
##SAMPLE DESCRIPTION=D. GUPTA, DEP. CHEM., GOV. COLL., AJMER, INDIA
##NAMES=HP
##CAS NAME=Dioctyl disulphide
##MOLFORM=C16H34S2
##CAS REGISTRY NO=822-27-5
##MP= -300
##BP= -300
##MW= 290
##$RETENTION INDEX=0
##$CONDENSED SPECTRUM=NO
##NPOINTS= 39
##XYDATA=(XY..XY) 1 
    27        150
    29        270
    39         90
    41        490
    42        140
    43        740
    44         30
    45         40
    47         70
    53         30
    54         30
    55        360
    56        170
    57        999
    58         50
    59         30
    60         40
    61         40
    67         60
    68         40
    69        250
    70        130
    71        800
    72         40
    79         30
    83         70
    84         60
    87        120
   101         60
   112         30
   115         30
   145        160
   146         40
   178        270
   179         30
   180         30
   290        280
   291         50
   292         30