##TITLE=Library Entry 7964
##JCAMP-DX=Revision 4.10 
##DATA TYPE=MASS SPECTRUM
##SAMPLE DESCRIPTION=NIST Mass Spectrometry Data Center
##NAMES=HP
##CAS NAME=1-Docosanol, acetate
##MOLFORM=C24H48O2
##CAS REGISTRY NO=822-26-4
##MP= -300
##BP= -300
##MW= 368
##$RETENTION INDEX=2611
##$CONDENSED SPECTRUM=NO
##NPOINTS= 135
##XYDATA=(XY..XY) 1 
    15          4
    26          2
    27         24
    28          9
    29         87
    30          2
    37          1
    38          1
    39         30
    40          8
    41        324
    42        100
    43        999
    44         32
    45          6
    51          1
    52          1
    53         19
    54         80
    55        570
    56        276
    57        642
    58         38
    59          9
    61        503
    62         11
    63          2
    65          4
    66          9
    67        110
    68        153
    69        460
    70        245
    71        314
    72         19
    73         40
    74          2
    77          3
    78          1
    79         11
    80          7
    81         82
    82        300
    83        590
    84        177
    85        201
    86         13
    87          5
    88          2
    91          1
    93          2
    94          4
    95         50
    96        150
    97        594
    98        134
    99         53
   100          4
   101          7
   102          3
   107          1
   108          1
   109         23
   110         57
   111        342
   112         82
   113         32
   114          3
   115          2
   116         35
   117          3
   122          2
   123         14
   124         37
   125        163
   126         52
   127         19
   128          2
   129          2
   130          5
   136          1
   137          9
   138         25
   139         64
   140         35
   141         11
   142          2
   151          2
   152         16
   153         32
   154         22
   155          7
   156          1
   165          2
   166         10
   167         19
   168         15
   169          5
   170          1
   180          7
   181         11
   182         10
   183          3
   184          1
   194          6
   195          6
   196          8
   197          2
   208          4
   209          4
   210          4
   211          1
   222          3
   223          3
   224          4
   225          1
   236          3
   237          2
   238          3
   239          1
   250          2
   251          2
   252          2
   264          1
   265          1
   266          1
   278          1
   279          1
   280         14
   281          3
   306          1
   308         14
   309          4
   310          1
   353          1