##TITLE=Library Entry 22038
##JCAMP-DX=Revision 4.10 
##DATA TYPE=MASS SPECTRUM
##SAMPLE DESCRIPTION=Exported from NIST MS Search
##NAMES=HP
##CAS NAME=Cyclopentane, 1,2-dimethyl-, trans-
##MOLFORM=C7H14
##CAS REGISTRY NO=822-50-4
##MP= -300
##BP= -300
##MW= 98
##$RETENTION INDEX=692
##$CONDENSED SPECTRUM=NO
##NPOINTS= 68
##XYDATA=(XY..XY) 1 
     1          4
     2          1
    12          1
    13          1
    14          2
    15         48
    16          1
    25          1
    26         20
    27        292
    28        108
    29        199
    30          7
    31          1
    32          1
    34          1
    37          3
    38         12
    39        258
    40         54
    41        676
    42        275
    43        117
    44          4
    45          1
    46          2
    47          1
    49          1
    50         13
    51         22
    52         11
    53         68
    54         75
    55        657
    56        999
    57        136
    58          5
    61          1
    62          1
    63          4
    64          1
    65         10
    66          5
    67         27
    68         34
    69        288
    70        575
    71         30
    72          1
    74          1
    77          8
    78          2
    79          8
    80          1
    81         14
    82          6
    83        129
    84          8
    85          1
    89          1
    91          1
    93          1
    95          1
    96          1
    97          8
    98        257
    99         19
   100          1