##TITLE=Library Entry 7381
##JCAMP-DX=Revision 4.10 
##DATA TYPE=MASS SPECTRUM
##SAMPLE DESCRIPTION=NIST Mass Spectrometry Data Center
##NAMES=HP
##CAS NAME=Heptadecyl acetate
##MOLFORM=C19H38O2
##CAS REGISTRY NO=822-20-8
##MP= -300
##BP= -300
##MW= 298
##$RETENTION INDEX=2107
##$CONDENSED SPECTRUM=NO
##NPOINTS= 111
##XYDATA=(XY..XY) 1 
    15          5
    26          2
    27         35
    28         13
    29        105
    30          3
    31          4
    38          1
    39         38
    40         10
    41        351
    42        105
    43        999
    44         34
    45          6
    51          2
    52          1
    53         24
    54         75
    55        505
    56        272
    57        449
    58         31
    59          7
    60          4
    61        399
    62          8
    63          2
    65          4
    66          8
    67         96
    68        133
    69        401
    70        250
    71        203
    72         13
    73         44
    74          2
    77          3
    78          1
    79         10
    80          5
    81         57
    82        236
    83        483
    84        174
    85        120
    86          9
    87          5
    88          2
    91          1
    93          2
    94          2
    95         30
    96        103
    97        436
    98        125
    99         28
   101          6
   102          2
   108          1
   109         11
   110         38
   111        234
   112         73
   113         14
   114          2
   115          2
   116         34
   117          3
   122          1
   123          6
   124         24
   125        100
   126         43
   127          8
   128          1
   129          2
   130          4
   137          3
   138         15
   139         32
   140         25
   141          4
   143          1
   152          9
   153         12
   154         17
   155          3
   156          1
   166          6
   167          5
   168          9
   180          3
   181          3
   182          6
   183          1
   194          2
   195          2
   196          2
   197          1
   208          1
   209          1
   210         22
   211          4
   212          1
   226          1
   236          1
   238         14
   239          3
   283          1