##TITLE=Library Entry 5005
##JCAMP-DX=Revision 4.10 
##DATA TYPE=MASS SPECTRUM
##SAMPLE DESCRIPTION=LAC, NIDDK, NIH, Bethesda, MD 20892
##NAMES=HP
##CAS NAME=1H-Imidazole, 2,4,5-trimethyl-
##MOLFORM=C6H10N2
##CAS REGISTRY NO=822-90-2
##MP= -300
##BP= -300
##MW= 110
##$RETENTION INDEX=0
##$CONDENSED SPECTRUM=NO
##NPOINTS= 67
##XYDATA=(XY..XY) 1 
    41        571
    42        999
    43        166
    44        183
    45         19
    46          5
    47          8
    48         15
    49          4
    50         44
    51         87
    52        191
    53        126
    54        664
    55        190
    56         67
    57         24
    58         12
    59          8
    60          6
    61          4
    62          7
    63         20
    64         35
    65         33
    66         62
    67         74
    68        341
    69         67
    70         22
    71         11
    72          2
    73          9
    74          6
    75          9
    76         22
    77         26
    78         25
    79         39
    80         55
    81        247
    82        151
    83         29
    84          7
    85          8
    86          7
    87          3
    88          5
    89          6
    90          8
    91         19
    92         21
    93         36
    94         22
    95        951
    96        257
    97        121
    98         11
    99          5
   106          3
   107         13
   108         69
   109        731
   110        572
   111         71
   112         10
   113          0