##TITLE=Library Entry 49471
##JCAMP-DX=Revision 4.10 
##DATA TYPE=MASS SPECTRUM
##SAMPLE DESCRIPTION=D.HENNEBERG, MAX-PLANCK INSTITUTE, MULHEIM, WEST GERMAN
Y
##NAMES=HP
##CAS NAME=Bicyclo[2.2.1]hept-2-ene, 1-methyl-
##MOLFORM=C8H12
##CAS REGISTRY NO=822-73-1
##MP= -300
##BP= -300
##MW= 108
##$RETENTION INDEX=0
##$CONDENSED SPECTRUM=NO
##NPOINTS= 82
##XYDATA=(XY..XY) 1 
    24          0
    25          1
    26         32
    27        145
    28         35
    29         20
    30          0
    31          0
    32          0
    36          0
    37          9
    38         26
    39        182
    40         24
    41         70
    42          4
    43          2
    44          0
    46          0
    47          0
    48          0
    49          3
    50         35
    51         69
    52         37
    53         48
    54          9
    55          8
    56          1
    57          0
    58          0
    60          0
    61          3
    62          8
    63         19
    64          4
    65         43
    66         15
    67         18
    68          2
    69          0
    70          0
    71          0
    72          0
    73          0
    74          4
    75          2
    76          2
    77        110
    78         52
    79        331
    80        999
    81         70
    82          2
    83          0
    84          0
    85          0
    86          0
    87          0
    88          0
    89          2
    90          2
    91         66
    92          9
    93         78
    94          6
    95          0
    96          0
    97          0
    98          0
    99          0
   100          0
   101          0
   102          0
   103          2
   104          0
   105          4
   106          0
   107          5
   108         34
   109          3
   110          0