##TITLE=Library Entry 37584
##JCAMP-DX=Revision 4.10 
##DATA TYPE=MASS SPECTRUM
##SAMPLE DESCRIPTION=NIST Mass Spectrometry Data Center, 1992
##NAMES=HP
##CAS NAME=2-Cyclohexen-1-ol
##MOLFORM=C6H10O
##CAS REGISTRY NO=822-67-3
##MP= -300
##BP= -300
##MW= 98
##$RETENTION INDEX=887
##$CONDENSED SPECTRUM=NO
##NPOINTS= 71
##XYDATA=(XY..XY) 1 
    12          1
    13          2
    14          8
    15         45
    16          2
    17          5
    18         33
    19          4
    26         65
    27        290
    28         99
    29        209
    30          9
    31         74
    32          3
    33          1
    37         28
    38         72
    39        413
    40         95
    41        352
    42        266
    43        201
    44         45
    45          6
    46          2
    47          8
    48          2
    49         13
    50         86
    51        115
    52         60
    53        109
    54         94
    55        369
    56         51
    57        109
    58          8
    59          1
    60          1
    61          6
    62         12
    63         21
    64          4
    65         41
    66         23
    67         81
    68         56
    69        346
    70        999
    71         45
    72          3
    73          5
    74         10
    75          6
    76          1
    77        136
    78         41
    79        245
    80         86
    81         38
    82          3
    83        471
    84         23
    85          2
    94          2
    95         14
    97        342
    98        316
    99         18
   100          1