##TITLE=Library Entry 50293
##JCAMP-DX=Revision 4.10 
##DATA TYPE=MASS SPECTRUM
##SAMPLE DESCRIPTION=Chuck Anderson, Aldrich Chemical Co.
##NAMES=HP
##CAS NAME=Cyclohexane, 1,2-dichloro-, trans-
##MOLFORM=C6H10Cl2
##CAS REGISTRY NO=822-86-6
##MP= -300
##BP= -300
##MW= 152
##$RETENTION INDEX=1037
##$CONDENSED SPECTRUM=NO
##NPOINTS= 107
##XYDATA=(XY..XY) 1 
    14          0
    15          2
    16          0
    24          0
    25          0
    26         19
    27        140
    28         30
    29         29
    30          0
    31          0
    32          0
    35          2
    36          5
    37         11
    38         32
    39        269
    40         41
    41        323
    42         33
    43          4
    44          0
    45          0
    47          1
    48          2
    49         40
    50         50
    51        109
    52         39
    53        180
    54        164
    55        224
    56         22
    57          4
    58          1
    59          0
    60          3
    61         21
    62         81
    63         30
    64         27
    65         50
    66         15
    67        148
    68          8
    69          9
    70          0
    71          0
    72          1
    73         12
    74          6
    75        138
    76         18
    77        101
    78         16
    79        241
    80        738
    81        999
    82         64
    83          5
    84          0
    85          3
    86          0
    87          6
    88         56
    89         20
    90         47
    91          7
    92          9
    93          0
    95          0
    96          8
    97          1
    98          5
    99          2
   100          2
   101         11
   102          1
   103          8
   104          0
   105          1
   106          0
   107          0
   109          7
   110          1
   111          5
   112          1
   113          1
   114          0
   115          4
   116         65
   117         14
   118         21
   119          4
   120          0
   122          0
   123          0
   124          1
   125          0
   126          0
   150          0
   152         40
   153          2
   154         27
   155          1
   156          4
   157          0