##TITLE=Library Entry 62058
##JCAMP-DX=Revision 4.10 
##DATA TYPE=MASS SPECTRUM
##SAMPLE DESCRIPTION=Chemical Concepts
##NAMES=HP
##CAS NAME=Bicyclo[4.1.0]heptane-7-methanol, 7-bromo-.alpha.-ethenyl-, (1.al
pha.,6.alpha.,7.alpha.)-
##MOLFORM=C10H15BrO
##CAS REGISTRY NO=82253-01-8
##MP= -300
##BP= -300
##MW= 230
##$RETENTION INDEX=0
##$CONDENSED SPECTRUM=NO
##NPOINTS= 138
##XYDATA=(XY..XY) 1 
    26         19
    27        255
    28         51
    29        226
    30          7
    31         52
    38         25
    39        332
    40         77
    41        473
    42         46
    43        158
    44         14
    45         13
    50         37
    51        139
    52         76
    53        252
    54         84
    55        612
    56         58
    57        417
    58         24
    59         11
    60          8
    61          6
    62          9
    63         50
    64         22
    65        235
    66        125
    67        664
    68        180
    69        189
    70         49
    71         71
    72          7
    74          8
    75         16
    76         10
    77        370
    78        113
    79        552
    80        194
    81        522
    82        109
    83        254
    84        172
    85        280
    86         19
    89         16
    90         11
    91        999
    92        220
    93        303
    94        135
    95        319
    96         58
    97         52
    98         10
   102          7
   103         36
   104        102
   105        388
   106        117
   107        255
   108         82
   109        227
   110         31
   111         13
   115         26
   116         15
   117         84
   118         46
   119         56
   120         15
   121        486
   122         92
   123        106
   124         14
   125          6
   128          6
   129          9
   131         53
   132        155
   133        788
   134        107
   135         82
   136         13
   137         71
   138          9
   144         51
   145         17
   146         83
   147         23
   148         82
   149         32
   150         65
   151        400
   152         52
   153          6
   156         27
   157         48
   158         51
   159         61
   160         33
   161         51
   162         11
   163         30
   164          8
   165         13
   169         62
   170        102
   171         97
   172        115
   173         49
   174         16
   175         23
   176         16
   178          5
   183         21
   184         14
   185         23
   186         27
   187         36
   188         21
   189         37
   190          7
   191          5
   197         10
   199         10
   201         41
   202          8
   203         54
   204          7
   205         13
   212          7
   214          7