##TITLE=Library Entry 14218
##JCAMP-DX=Revision 4.10 
##DATA TYPE=MASS SPECTRUM
##SAMPLE DESCRIPTION=A. Brossi, LC, NIDDK, NIH, Bethesda, MD 20892
##NAMES=HP
##CAS NAME=Perhydro-htx-8-one, 1-acetyl-2-depentyl-
##MOLFORM=C16H27NO2
##CAS REGISTRY NO=82267-11-6
##MP= -300
##BP= -300
##MW= 265
##$RETENTION INDEX=0
##$CONDENSED SPECTRUM=NO
##NPOINTS= 191
##XYDATA=(XY..XY) 1 
    41        309
    42        113
    43        999
    44        107
    45         28
    46          2
    47          6
    48          1
    49         22
    50          5
    51         23
    52         22
    53         79
    54         32
    55        268
    56        130
    57         90
    58         79
    59         12
    60         68
    61          6
    62          0
    63          6
    64          2
    65         61
    66         37
    67        157
    68         28
    69         54
    70         86
    71          6
    72        176
    73        286
    74         16
    75          1
    77        142
    78         36
    79        217
    80         44
    81        107
    82         41
    83         28
    84         30
    86        212
    87        151
    88         10
    89          3
    91        181
    92         32
    93        130
    94         47
    95        132
    96         64
    97         55
    98         36
   100        656
   101         49
   102          2
   103         17
   104          6
   105         85
   106         18
   107        111
   108         53
   109         68
   110         86
   111         41
   112         86
   113        168
   114         15
   115        187
   116         27
   117         37
   118         11
   119         41
   121        155
   122         49
   123         65
   124         84
   125         15
   126         12
   127          4
   128          6
   129          9
   131         57
   132         12
   133         64
   134         22
   135        116
   136         53
   137        105
   138        112
   139         34
   140          7
   141          2
   142          4
   143          5
   144          0
   145         42
   146         18
   147         68
   149        281
   150         55
   151        518
   152         95
   153         39
   154         13
   155          3
   156          1
   157          1
   159         26
   160         10
   161         15
   163        144
   164         48
   165         39
   166        135
   167         21
   168         11
   169          2
   170          1
   171          1
   173         11
   174          4
   175          8
   177         81
   178         11
   179        253
   180         62
   181          9
   182          7
   183          1
   184          0
   185          0
   186          1
   187          2
   188         37
   189         11
   190         19
   191         12
   192         69
   193         80
   194         57
   195          7
   196          7
   198          0
   201          0
   202          1
   204         23
   205         33
   206         77
   208        691
   209         93
   210         13
   211          2
   212          1
   218          9
   219          3
   220         19
   222         65
   223         15
   224         15
   225          3
   226          0
   228          1
   230          0
   231          3
   232          5
   234         12
   235          2
   236         11
   237         15
   238          8
   239          2
   240          0
   246         12
   247         18
   248          8
   249         72
   250        108
   251         16
   252          4
   253          0
   256          0
   257          0
   261          1
   262          1
   265        885
   266        462
   267         76
   268          9