##TITLE=Library Entry 30612
##JCAMP-DX=Revision 4.10 
##DATA TYPE=MASS SPECTRUM
##SAMPLE DESCRIPTION=A. Brossi, LC, NIDDK, NIH, Bethesda, MD 20892
##NAMES=HP
##CAS NAME=Perhydro-htx, 1-methoxycarbonyl-2-depentyl-, methoxyformate(ester
)
##MOLFORM=C18H31NO5
##CAS REGISTRY NO=82260-24-0
##MP= -300
##BP= -300
##MW= 341
##$RETENTION INDEX=0
##$CONDENSED SPECTRUM=NO
##NPOINTS= 191
##XYDATA=(XY..XY) 1 
    41        389
    42        120
    43        147
    44         84
    45         53
    47          5
    49         12
    50          1
    51          7
    52          5
    53         58
    54         61
    55        298
    56         85
    57         54
    59        999
    60         22
    61          5
    65         25
    66         13
    67        173
    68         68
    69         72
    70         48
    71         30
    72          7
    73          2
    74          5
    76         26
    77        168
    79        147
    80         45
    81        104
    82        100
    83         36
    84         28
    85         10
    86          8
    88        105
    89          6
    91        114
    92         16
    93         91
    94         51
    95         65
    96         84
    97        124
    98         18
    99          6
   100         11
   101          8
   102         15
   103          7
   105         62
   106         26
   107         50
   108         68
   109         41
   110         85
   111         22
   112         11
   114         43
   115          7
   116         10
   117         11
   118          6
   119         35
   120         36
   121         51
   122         57
   123         27
   124         42
   125          8
   126          7
   127          1
   128         52
   129         11
   130          1
   131         22
   132          1
   133         52
   134         64
   135         49
   136         44
   137         13
   138         26
   140        163
   142        253
   143         17
   144          3
   145          4
   146          1
   147         32
   148         37
   149         27
   150         50
   151         13
   152         40
   153         65
   155        876
   156         87
   157          8
   158          1
   159          0
   160          6
   161         10
   162         21
   163         14
   164         39
   165          2
   166         81
   167         18
   168        629
   169        105
   170         13
   171          3
   172          1
   174          2
   175          0
   176         18
   177          1
   178         54
   180         86
   181         88
   182         42
   183         15
   184          9
   187          1
   189          2
   190        100
   191         27
   192         14
   194        360
   195         68
   196         16
   197          6
   198          1
   202          0
   204         11
   206        269
   208        246
   209        107
   210        100
   211         42
   212         15
   213          1
   216          0
   218          1
   220          3
   222         94
   223         30
   224         14
   226         12
   227          1
   232          8
   234         64
   235         11
   236         27
   237         14
   238          2
   240          8
   242         28
   243          1
   248          0
   250         37
   251          5
   252          1
   259          1
   262          1
   263          1
   265        467
   266        647
   267         96
   268         12
   270          1
   279          0
   280          1
   282         42
   283          6
   285          8
   286          0
   298          2
   310         19
   311          3
   312          1
   326          1
   339          5
   341        354
   342         59
   343          9
   344          0