##TITLE=Library Entry 13633
##JCAMP-DX=Revision 4.10 
##DATA TYPE=MASS SPECTRUM
##SAMPLE DESCRIPTION=A. Brossi, LC, NIDDK, NIH, Bethesda, MD 20892
##NAMES=HP
##CAS NAME=Perhydro-htx, 1-acetyl-, acetate(ester)
##MOLFORM=C18H31NO3
##CAS REGISTRY NO=82260-20-6
##MP= -300
##BP= -300
##MW= 309
##$RETENTION INDEX=0
##$CONDENSED SPECTRUM=NO
##NPOINTS= 205
##XYDATA=(XY..XY) 1 
    41        190
    42         95
    43        999
    44         49
    45         13
    46          0
    47          2
    49          6
    50          0
    51          6
    52          6
    53         37
    54         34
    55        145
    56         67
    57         42
    58         19
    59          5
    60         23
    61         21
    62          0
    63          1
    65         22
    66          7
    67         80
    68         24
    69         36
    70         37
    71          3
    72         51
    73         61
    74          4
    75          0
    77         45
    78         11
    79         74
    80         27
    81         52
    82         54
    83         19
    84         21
    85          6
    86         42
    87         30
    88          2
    89          0
    91         69
    92         13
    93         46
    94         30
    95         43
    96         73
    97        147
    98         34
   100        125
   101          9
   102          0
   103          5
   105         36
   106         13
   107         31
   108         33
   110        260
   111         48
   112         27
   113         26
   115         39
   116          6
   117          8
   118          2
   119         20
   120         14
   121         30
   122         30
   123         23
   124         48
   125          9
   126         23
   127          5
   128          3
   129          2
   131         13
   133         39
   134         21
   135         27
   136         37
   138        327
   139         90
   140         17
   141          2
   142          2
   143          1
   145          7
   146          3
   147         20
   148         22
   149         41
   150         59
   151         88
   152        118
   153         25
   154         19
   155          3
   156          1
   157          0
   158          0
   159          4
   160          2
   161          8
   162         12
   163         15
   164         67
   165         22
   166         46
   167         11
   168         11
   170         11
   171          1
   172          0
   173          2
   174          1
   175          3
   176          6
   177          4
   178         65
   179         43
   180         65
   181         11
   182         14
   183          1
   184          6
   185          0
   187          1
   188          5
   189          6
   190         17
   192        188
   193        116
   194        100
   195         17
   196         10
   197          1
   202          1
   204         11
   206        160
   208        447
   209         56
   210         10
   211          1
   212          7
   213          1
   214          0
   218          2
   220         49
   221         15
   222         51
   223         15
   224         41
   225          7
   226          1
   227          0
   231          6
   232          4
   234         30
   235          5
   236          5
   237          5
   238          8
   239          3
   240          2
   246          1
   247          3
   249        229
   250        276
   251         47
   252         12
   253          2
   254          1
   262          0
   263          0
   264          3
   265        163
   266        155
   267         30
   268          4
   269          0
   270          0
   278          1
   279          0
   280          3
   281          5
   282          3
   283          0
   284          0
   292          0
   294          4
   295          1
   296          0
   297          0
   298          1
   307          2
   309        103
   310         23
   311          3
   312          0