##TITLE=Library Entry 28656
##JCAMP-DX=Revision 4.10 
##DATA TYPE=MASS SPECTRUM
##SAMPLE DESCRIPTION=H. Fales, LC, NHLBI, NIH, Bethesda, MD 20892
##NAMES=HP
##CAS NAME=7-n-Butyl-8-acetoxy-1-iodo-1,1-dimethyl-1-azaspiro[5.5]undecane
##MOLFORM=C18H34INO2
##CAS REGISTRY NO=82260-26-2
##MP= -300
##BP= -300
##MW= 423
##$RETENTION INDEX=0
##$CONDENSED SPECTRUM=NO
##NPOINTS= 92
##XYDATA=(XY..XY) 1 
    41         36
    42         39
    43        115
    44         36
    45         54
    46         17
    47          0
    49          5
    51          3
    53          8
    54          0
    55         31
    56         12
    58        999
    59         24
    63          4
    64          2
    65          5
    66          1
    67         19
    68          3
    69          5
    70         11
    71         28
    72          3
    73         12
    77         16
    78          1
    79         25
    80          2
    81         11
    82          4
    84        214
    85         31
    86          3
    88          0
    91         31
    92          2
    93         18
    94          0
    95          7
    97         14
    98          6
    99          0
   100          1
   103          2
   105         15
   106          2
   107          9
   109          1
   110          2
   111          4
   113          6
   115          1
   117          2
   119          4
   120          2
   121          2
   123          1
   124          5
   125          0
   127         47
   128         65
   133          7
   134          2
   135          2
   136          1
   138          0
   142          2
   147          1
   148          2
   166          1
   176          1
   178         12
   179          6
   180          1
   192          4
   222          9
   223          0
   234         30
   235         12
   236        120
   237         20
   238          8
   239          0
   252          4
   253          0
   268          0
   294          2
   295         22
   296          7
   297          0