##TITLE=Library Entry 56265
##JCAMP-DX=Revision 4.10 
##DATA TYPE=MASS SPECTRUM
##SAMPLE DESCRIPTION=HD Science, UK
##NAMES=HP
##CAS NAME=Nadolol, 3TMS derivative
##MOLFORM=C26H51NO4Si3
##CAS REGISTRY NO=82272-01-3
##MP= -300
##BP= -300
##MW= 525
##$RETENTION INDEX=2468
##$CONDENSED SPECTRUM=NO
##NPOINTS= 246
##XYDATA=(XY..XY) 1 
    27          1
    30        180
    31          3
    39          2
    41         22
    42          6
    43          3
    44          6
    45         16
    46          1
    47          3
    53          1
    54          1
    55          5
    56         31
    57         71
    58          8
    59         15
    60          2
    61          3
    65          1
    68          1
    70         39
    71         26
    73        264
    74         27
    75         43
    76          3
    77          4
    78          1
    79          1
    81          1
    82          3
    83          1
    84          9
    86        999
    87         92
    88          4
    89          2
    90          1
    91          4
    92          1
    94          1
    96          9
    97          1
    98          8
    99          2
   100          6
   101         31
   102          6
   103         42
   104          7
   105          4
   110          1
   112          5
   113          2
   114          4
   115         21
   116         26
   117         12
   118          3
   119          3
   120          1
   121          1
   126          1
   127          4
   128         14
   129         11
   130         15
   131         19
   132          7
   133         24
   134          4
   135          3
   141          5
   142          2
   143          5
   144         24
   145         14
   147        130
   148         21
   149         15
   150          2
   151          1
   153          1
   155          2
   156          2
   157          7
   158          3
   159          3
   160          1
   161          4
   162          1
   163          2
   165          1
   168          1
   169         10
   170          3
   171          7
   172          6
   173          3
   174          1
   175          3
   176          1
   177          6
   178          1
   179          1
   181          1
   182          1
   183          9
   184          2
   185          4
   186         11
   187          5
   188          4
   189          7
   190          2
   191          4
   192          4
   193          2
   198          1
   199          2
   200          8
   201          8
   202         12
   203          6
   204          7
   205          7
   206          2
   207          2
   209          1
   210          1
   213          1
   215          2
   216          4
   217         12
   218          4
   219          6
   220          2
   221          2
   222          1
   223          1
   227          1
   229          1
   230          1
   231          5
   232          6
   233         15
   234         20
   235          5
   236          1
   243          2
   244          1
   245          3
   246          1
   247          3
   248          1
   249          2
   255          1
   256          1
   257          2
   258          2
   259          7
   260          2
   261          2
   262          1
   263          6
   264          2
   265          1
   266          1
   271          3
   272          2
   273          9
   274          3
   275          3
   276          1
   277          1
   278          2
   279          1
   288          1
   289          3
   290          5
   291          3
   292          2
   293          3
   294          1
   303          1
   304          1
   305          4
   306          6
   307          4
   308          8
   309          3
   310          1
   317          1
   318          1
   319          1
   320          1
   321          7
   322          2
   323          1
   324          1
   330          1
   332          1
   333          1
   334          3
   335          2
   336          1
   346          2
   347          4
   348          6
   349          4
   350          1
   362          1
   363          1
   364          2
   365          1
   378          2
   379          1
   393          1
   409         49
   410         16
   411          6
   412          1
   420          7
   421          2
   422          1
   434          1
   435          1
   436          1
   437          1
   452          1
   454          3
   455          1
   456          1
   494          1
   510        120
   511         52
   512         23
   513          7
   514          2
   524          3
   525         14
   526          7
   527          3
   528          1