##TITLE=Library Entry 22256
##JCAMP-DX=Revision 4.10 
##DATA TYPE=MASS SPECTRUM
##SAMPLE DESCRIPTION=LAC, NIDDK, NIH, Bethesda, MD 20892
##NAMES=HP
##CAS NAME=Decahydroquinoline-10-ol
##MOLFORM=C9H17NO
##CAS REGISTRY NO=82297-51-6
##MP= -300
##BP= -300
##MW= 155
##$RETENTION INDEX=0
##$CONDENSED SPECTRUM=NO
##NPOINTS= 91
##XYDATA=(XY..XY) 1 
    41        912
    42        500
    43        890
    44        925
    45         55
    46         18
    47         46
    48         24
    52         41
    53        161
    54        160
    55        395
    56        999
    57        447
    58        112
    59         41
    60         17
    61          1
    62          2
    63         12
    64          1
    65         55
    66         30
    67        176
    68        320
    69        539
    70        666
    71        109
    72         49
    73         13
    74          0
    75          0
    77         61
    78         22
    79         85
    80        110
    81         88
    82        200
    83        200
    84        390
    85         95
    86        197
    88         31
    91         69
    92         36
    93         44
    94        142
    95        102
    96        171
    97        196
    98        468
    99        420
   100         48
   101         15
   103          1
   104          2
   105         14
   106         16
   107         11
   108        159
   109        169
   110         77
   112        384
   113         68
   114         71
   115          5
   117          3
   118          1
   119          8
   120        105
   121         24
   122         80
   123         12
   124         10
   125         11
   126        221
   127         44
   128          4
   134         13
   136        271
   137        417
   138        304
   139         27
   140         26
   141          3
   152          3
   153          7
   154        171
   155        838
   156        182
   157         17