##TITLE=Library Entry 20758
##JCAMP-DX=Revision 4.10 
##DATA TYPE=MASS SPECTRUM
##SAMPLE DESCRIPTION=Japan AIST/NIMC Database- Spectrum MS-NW-8952
##NAMES=HP
##CAS NAME=Ethanone, 1-cyclohexyl-
##MOLFORM=C8H14O
##CAS REGISTRY NO=823-76-7
##MP= -300
##BP= -300
##MW= 126
##$RETENTION INDEX=985
##$CONDENSED SPECTRUM=NO
##NPOINTS= 76
##XYDATA=(XY..XY) 1 
    15         20
    18          1
    26          3
    27         58
    28         19
    29         53
    30          1
    31          1
    32          1
    36          1
    38          2
    39         95
    40         12
    41        361
    42         25
    43        581
    44         14
    45         13
    50          5
    51         17
    52          7
    53         42
    54         64
    55        999
    56         53
    57          9
    58         47
    59         44
    60          1
    63          3
    65         11
    66          9
    67        200
    68        159
    69         42
    70          7
    71        410
    72         20
    73          2
    74          1
    75          1
    76          1
    77         35
    78          9
    79         36
    80          8
    81         40
    82        119
    83        698
    84        113
    85         78
    86          4
    89          1
    91         11
    92          2
    93         17
    94          4
    95          5
    96          3
    97         39
    98          9
    99          1
   107          2
   108         18
   109          8
   110          3
   111        118
   112         10
   113          1
   120          1
   123          1
   124          2
   125          2
   126        310
   127         56
   128          3