##TITLE=Library Entry 67989
##JCAMP-DX=Revision 4.10 
##DATA TYPE=MASS SPECTRUM
##SAMPLE DESCRIPTION=NIST Mass Spectrometry Data Center, 1990.
##NAMES=HP
##CAS NAME=Cyclohexene, 3,5-dimethyl-
##MOLFORM=C8H14
##CAS REGISTRY NO=823-17-6
##MP= -300
##BP= -300
##MW= 110
##$RETENTION INDEX=912
##$CONDENSED SPECTRUM=NO
##NPOINTS= 42
##XYDATA=(XY..XY) 1 
    15         19
    26         13
    27         93
    28         38
    29         45
    37          7
    38         33
    39        279
    40         65
    41        236
    42         38
    43         11
    50         35
    51         79
    52         41
    53        167
    54         39
    55        219
    56         28
    62         13
    63         33
    65         88
    67        653
    68        446
    69         99
    74          6
    77        123
    78         34
    79        126
    80         33
    81        187
    82         95
    83          6
    91         78
    92         12
    93         59
    94          6
    95        999
    96         77
   105          5
   110        232
   111         22