##TITLE=Library Entry 4844
##JCAMP-DX=Revision 4.10 
##DATA TYPE=MASS SPECTRUM
##SAMPLE DESCRIPTION=Japan AIST/NIMC Database- Spectrum MS-IW-6579
##NAMES=HP
##CAS NAME=2H-Pyran-2-one, tetrahydro-6-methyl-
##MOLFORM=C6H10O2
##CAS REGISTRY NO=823-22-3
##MP= -300
##BP= -300
##MW= 114
##$RETENTION INDEX=1084
##$CONDENSED SPECTRUM=NO
##NPOINTS= 55
##XYDATA=(XY..XY) 1 
    14          4
    15         18
    18          1
    26         15
    27         95
    28         30
    29         45
    30          1
    31          4
    32          2
    34          2
    35          1
    37          6
    38         14
    39        115
    40         33
    41        177
    42        999
    43        253
    44          9
    45         13
    49          1
    50          4
    51          5
    52          2
    53         11
    54          6
    55        229
    56         14
    57          3
    58          4
    59          2
    60          4
    61          1
    62          1
    63          1
    65          1
    67          4
    68          4
    69          6
    70        640
    71        131
    72          6
    73          2
    81          2
    84          2
    85         16
    86          3
    97          1
    99         76
   100          5
   101          1
   113          6
   114         59
   115          6