##TITLE=Library Entry 46563
##JCAMP-DX=Revision 4.10 
##DATA TYPE=MASS SPECTRUM
##SAMPLE DESCRIPTION=Japan AIST/NIMC Database- Spectrum MS-NW-3220
##NAMES=HP
##CAS NAME=Phenyl mercuric iodide
##MOLFORM=C6H5HgI
##CAS REGISTRY NO=823-04-1
##MP= -300
##BP= -300
##MW= 406
##$RETENTION INDEX=0
##$CONDENSED SPECTRUM=NO
##NPOINTS= 81
##XYDATA=(XY..XY) 1 
    26          4
    27         25
    36          2
    37         18
    38         21
    39         25
    43          1
    44          1
    48          1
    49         20
    50        195
    51        425
    52         22
    55          1
    57          1
    60          1
    61          4
    62          7
    63          3
    71          1
    72          1
    73         14
    74         68
    75         40
    76         56
    77        999
    78         78
    79          3
   100          1
   101          1
   110          1
   127         24
   128          9
   151          1
   152          3
   153          3
   154          7
   155          1
   176          1
   177          1
   184          1
   185          2
   186          4
   198          8
   199         12
   200         16
   201         10
   202         23
   203          7
   204         18
   205          1
   225          1
   227          1
   275         22
   276         40
   277         54
   278         32
   279         66
   280          5
   281         14
   282          1
   325          7
   326         11
   327         15
   328          9
   329         20
   331          5
   352          1
   353          2
   354          4
   355          2
   356          4
   358          1
   402         37
   403         62
   404         86
   405         52
   406        109
   407          7
   408         23
   409          1