##TITLE=Library Entry 51071
##JCAMP-DX=Revision 4.10 
##DATA TYPE=MASS SPECTRUM
##SAMPLE DESCRIPTION=USAF ACADEMY, COLORADO; J LLOYD PFLUG
##NAMES=HP
##CAS NAME=1,3,5-Triazine, 2,4,6-trimethyl-
##MOLFORM=C6H9N3
##CAS REGISTRY NO=823-94-9
##MP= -300
##BP= -300
##MW= 123
##$RETENTION INDEX=0
##$CONDENSED SPECTRUM=NO
##NPOINTS= 32
##XYDATA=(XY..XY) 1 
    13          1
    14          9
    15         87
    16          0
    25          1
    26         14
    27         19
    37          2
    38         17
    39         35
    40        171
    41        220
    42        840
    43         22
    51         12
    52         24
    53         16
    54         40
    55          4
    64          3
    65          3
    66         17
    67         70
    68          4
    77          1
    79          2
    80          2
    82        999
    83         56
   123        796
   124         63
   125          2