##TITLE=Library Entry 33370
##JCAMP-DX=Revision 4.10 
##DATA TYPE=MASS SPECTRUM
##SAMPLE DESCRIPTION=Exported from NIST MS Search
##NAMES=HP
##CAS NAME=Bicyclo[4.1.0]heptane, 7,7-dichloro-
##MOLFORM=C7H10Cl2
##CAS REGISTRY NO=823-69-8
##MP= -300
##BP= -300
##MW= 164
##$RETENTION INDEX=0
##$CONDENSED SPECTRUM=NO
##NPOINTS= 124
##XYDATA=(XY..XY) 1 
    13          3
    14          9
    15         60
    16          2
    25          4
    26         60
    27        253
    28         56
    29        103
    30          2
    31          2
    32          2
    35          9
    36         12
    37         32
    38         69
    39        403
    40         55
    41        158
    42         21
    43          8
    44          4
    45         12
    46          3
    47         14
    48          4
    49         42
    50         62
    51        151
    52         35
    53        124
    54         48
    55        404
    56         25
    57          4
    58          1
    59          2
    60          8
    61         33
    62         35
    63         69
    64         17
    65        176
    66         55
    67        330
    68        999
    69         62
    70          3
    71          1
    72          5
    73         59
    74         12
    75         55
    76          7
    77        124
    78         25
    79         87
    80         10
    81        194
    82         22
    83         18
    84          6
    85         23
    86         11
    87        144
    88         25
    89         56
    90          9
    91        102
    92         14
    93        180
    94         12
    95          1
    96          9
    97          4
    98          5
    99         44
   100         17
   101         66
   102         17
   103         14
   104          4
   105          1
   107          3
   108          1
   109          5
   110          4
   111         38
   112          5
   113         21
   114          3
   115         18
   116          2
   117          4
   121          1
   122        393
   123         41
   124        244
   125         29
   126         36
   127         15
   128          8
   129         40
   130          5
   131         11
   132          1
   133          2
   134          1
   135         10
   136          9
   137          7
   138          5
   139          2
   140          1
   147          2
   149          4
   151          2
   162          1
   163          1
   164         12
   165          1
   166          7
   167          1
   168          1