##TITLE=Library Entry 98769
##JCAMP-DX=Revision 4.10 
##DATA TYPE=MASS SPECTRUM
##SAMPLE DESCRIPTION=ASES Database, Dalian Institute, P.R. China
##NAMES=HP
##CAS NAME=1,1-Difluoro-tetramethylcyclopropane
##MOLFORM=C7H12F2
##CAS REGISTRY NO=823-25-6
##MP= -300
##BP= -300
##MW= 134
##$RETENTION INDEX=0
##$CONDENSED SPECTRUM=NO
##NPOINTS= 44
##XYDATA=(XY..XY) 1 
    38         30
    39        338
    40         49
    41        482
    42         50
    43         71
    47         20
    50         10
    51         69
    52         10
    53         60
    54          9
    55        257
    56         29
    57         10
    59        100
    60          9
    61         81
    64         29
    65        207
    67         19
    69        239
    70         10
    71         10
    73        109
    74          9
    75          9
    77        439
    78         10
    79        179
    80         10
    84         29
    85         10
    90          9
    91        170
    92        100
    93         10
    97          9
    99         80
   103         10
   119        999
   120         60
   134        139
   135          9