##TITLE=Library Entry 27271
##JCAMP-DX=Revision 4.10 
##DATA TYPE=MASS SPECTRUM
##SAMPLE DESCRIPTION=V.Lopez-Avila, Org.Mass Spectrom. 22, 557 (1987)
##NAMES=HP
##CAS NAME=7,9-Di-tert-butyl-1-oxaspiro(4,5)deca-6,9-diene-2,8-dione
##MOLFORM=C17H24O3
##CAS REGISTRY NO=82304-66-3
##MP= -300
##BP= -300
##MW= 276
##$RETENTION INDEX=1923
##$CONDENSED SPECTRUM=NO
##NPOINTS= 113
##XYDATA=(XY..XY) 1 
    51         37
    52         12
    53         81
    55        481
    56         67
    57        999
    58         40
    59          7
    63         18
    64         15
    65         89
    66         22
    67        122
    69         83
    71         20
    73         19
    77        119
    78         21
    79         98
    80         24
    81         54
    82         13
    83         47
    85         45
    87         24
    89         11
    91        180
    92         22
    93         47
    95         67
    96         42
    97         40
    98         40
   103         30
   105         87
   106         13
   107         67
   108          8
   109        132
   110         33
   111         61
   115         79
   116         28
   117         48
   119         87
   120         12
   121         62
   122         12
   123         61
   124         42
   127         20
   128         55
   129         47
   130         18
   131         49
   132          8
   133         87
   134         26
   135        107
   136         31
   137         62
   138         13
   141         24
   142         21
   143         27
   144          9
   145         45
   146          8
   147         64
   148         31
   149         67
   150         55
   151         39
   152         23
   153         32
   157         29
   159         75
   160         19
   161         95
   162         30
   163         87
   164         30
   165         43
   173         33
   175        318
   176         70
   177        246
   178         60
   179         40
   185          1
   187         27
   189        244
   190         54
   191        108
   192         86
   193         31
   201         28
   203         83
   204         36
   205        537
   206         69
   207         21
   217        257
   218         47
   219         54
   220        202
   221         56
   222         32
   232        104
   233         51
   261         74
   262         11
   276         18