##TITLE=Library Entry 58838
##JCAMP-DX=Revision 4.10 
##DATA TYPE=MASS SPECTRUM
##SAMPLE DESCRIPTION=V.G.Zaikin, TIPS, Russian Acad. Sci.
##NAMES=HP
##CAS NAME=1,1,2-Trimethyl-1-sila-3-thiacyclopentane
##MOLFORM=C6H14SSi
##CAS REGISTRY NO=82316-79-8
##MP= -300
##BP= -300
##MW= 146
##$RETENTION INDEX=0
##$CONDENSED SPECTRUM=NO
##NPOINTS= 52
##XYDATA=(XY..XY) 1 
    26         20
    27         80
    28         80
    29         10
    30         20
    31        190
    32         20
    39         20
    41         40
    42         50
    43        330
    44         50
    45        150
    46         50
    53         30
    54         16
    55         70
    57         30
    58        340
    59        550
    60         80
    61         80
    69         20
    71         20
    73        220
    74         20
    75        480
    76        140
    77        170
    78         15
    85        150
    86         13
    90        999
    91        210
    92        100
    97        100
    98          9
   103        710
   104         70
   105         60
   117         90
   118        730
   119         90
   120         60
   131        960
   132        110
   133         90
   146        620
   147         77
   148         51
   149          5
   150          1