##TITLE=Library Entry 58786
##JCAMP-DX=Revision 4.10 
##DATA TYPE=MASS SPECTRUM
##SAMPLE DESCRIPTION=V.G.Zaikin, TIPS, Russian Acad. Sci.
##NAMES=HP
##CAS NAME=1,1-Dimethyl-1-sila-4-thiacyclohexane
##MOLFORM=C6H14SSi
##CAS REGISTRY NO=82316-78-7
##MP= -300
##BP= -300
##MW= 146
##$RETENTION INDEX=0
##$CONDENSED SPECTRUM=NO
##NPOINTS= 62
##XYDATA=(XY..XY) 1 
    25         10
    26         45
    27        170
    28         90
    29        140
    30         30
    31        260
    32         20
    39         30
    41         30
    42         70
    43        350
    44         60
    45        160
    46         50
    47         20
    53         50
    54         10
    55         60
    56         14
    57         30
    58        130
    59        180
    60         40
    61         70
    62         10
    66         10
    67         20
    68          7
    69         10
    70          7
    71         10
    72         30
    73         46
    74         25
    75        470
    76         60
    77         70
    85         30
    86         50
    87         20
    88          7
    89         10
    90        999
    91        120
    92         80
    93         10
    97          7
   103        316
   104         35
   105         30
   117         20
   118        270
   119         30
   120         20
   131         70
   132         10
   133          7
   146        160
   147         20
   148         13
   149          1