##TITLE=Library Entry 41381
##JCAMP-DX=Revision 4.10 
##DATA TYPE=MASS SPECTRUM
##SAMPLE DESCRIPTION=O A MAMER, MCGILL UNIVERSITY, MONTRE
##NAMES=HP
##CAS NAME=Palmitelaidic acid, TMS derivative
##MOLFORM=C19H38O2Si
##CAS REGISTRY NO=82326-15-6
##MP= -300
##BP= -300
##MW= 326
##$RETENTION INDEX=0
##$CONDENSED SPECTRUM=NO
##NPOINTS= 160
##XYDATA=(XY..XY) 1 
    15         12
    26         11
    27         69
    28         34
    29        146
    39         59
    40         13
    41        399
    42         77
    43        252
    44         22
    45         81
    46          6
    47         46
    51          8
    52         12
    53         42
    54        121
    55        505
    56         84
    57         68
    58         18
    59         27
    60         12
    61         69
    65         12
    66         14
    67        216
    68         95
    69        241
    70         43
    71         25
    72         39
    73        999
    74        106
    75        943
    76         72
    77         54
    78         11
    79         66
    80         37
    81        194
    82        108
    83        151
    84        171
    85         30
    86         10
    87          9
    88          7
    89         30
    91         28
    92         10
    93         41
    94         28
    95        137
    96        185
    97        115
    98        147
    99         31
   101         10
   105         26
   107         24
   108         19
   109         74
   110         79
   111         50
   112         30
   113          9
   116         75
   117        640
   118         67
   119         47
   121         27
   122         13
   123         69
   124         37
   125         18
   126          8
   129        498
   130         68
   131        102
   132        194
   133         59
   134         23
   135         19
   136          9
   137         47
   138         35
   139         12
   141         14
   143         30
   145        286
   146         40
   147         31
   148         11
   149          9
   151         29
   152         70
   153         17
   155         29
   157         17
   158          9
   159         22
   161         10
   165         18
   166         15
   169         11
   171         36
   172         16
   173         21
   174          7
   175          6
   179         13
   180          7
   183         12
   185         59
   186         18
   187         25
   188         10
   189          5
   192         23
   193         20
   194        100
   195         18
   197          6
   199         62
   200         15
   201         21
   202          5
   207         10
   208         19
   211          7
   213         17
   215          8
   218          7
   221          4
   227         20
   229         12
   230          5
   236         81
   237         17
   239          7
   241         12
   243          8
   244          8
   253          8
   255          8
   258          5
   267         10
   269          5
   283          9
   284          3
   297          4
   311        527
   312        137
   313         38
   314          7
   326         75
   327         24
   328          8