##TITLE=Library Entry 76248
##JCAMP-DX=Revision 4.10 
##DATA TYPE=MASS SPECTRUM
##SAMPLE DESCRIPTION=Div. of Experiment Therapeutics WRAIR, WRAMC, Washingto
n DC 20307
##NAMES=HP
##CAS NAME=5-[2,4-Dichlorophenoxy]-6-methoxy-8-nitroquinoline
##MOLFORM=C16H10Cl2N2O4
##CAS REGISTRY NO=82329-63-3
##MP= -300
##BP= -300
##MW= 364
##$RETENTION INDEX=0
##$CONDENSED SPECTRUM=NO
##NPOINTS= 232
##XYDATA=(XY..XY) 1 
    41         27
    43         25
    45         16
    46         16
    47         14
    49         94
    50        186
    51        356
    52         82
    53         82
    55         21
    56          7
    57         10
    59         42
    61         50
    62        141
    63        294
    64         55
    65         44
    66          9
    67          9
    68          9
    69         50
    71          8
    72         10
    73         71
    74        236
    75        515
    76        208
    77         88
    78         42
    79         33
    80         11
    81         14
    83         31
    84         68
    85         46
    86         80
    87        145
    88        124
    89         83
    90        154
    91         40
    92         16
    93         12
    94         11
    95          7
    97         26
    98         38
    99         63
   100         58
   101         13
   102        999
   103        168
   104         38
   105         26
   106         30
   107         14
   109        204
   110         50
   111         81
   112         25
   113         10
   114        152
   115        106
   116        106
   117         76
   118         34
   119         13
   120          8
   121          7
   122          5
   123         35
   124         17
   125         22
   126         29
   127         60
   128         28
   129         58
   130        366
   131         55
   133         79
   135         45
   136          9
   137         12
   138          9
   139          5
   140          4
   142         30
   143         19
   145        127
   146         46
   147         66
   148          6
   149         28
   150         49
   151         16
   152         14
   156          8
   158        152
   159        455
   161        364
   162         42
   163         68
   164         23
   165         13
   170          5
   171          4
   172          9
   173         50
   174         31
   175         39
   176         28
   177         86
   178         26
   180         13
   182          8
   183          8
   184          7
   185          9
   186         10
   187         19
   188         25
   189         28
   190         41
   191         21
   192         12
   193          8
   194          4
   197          6
   198          7
   199          6
   200         34
   202         18
   203          5
   204          8
   205          8
   206          5
   207          5
   208          6
   209          4
   211         22
   212         34
   213         17
   214         17
   215          8
   217         10
   218          5
   219         11
   220         13
   222         29
   224         32
   225          9
   226         15
   227         12
   228         19
   229          6
   230          6
   232          5
   235          7
   236         10
   237          5
   238          5
   239          9
   240         45
   241          7
   242         25
   243         10
   246          7
   247         13
   248         11
   249         10
   250         12
   251          5
   252         13
   253         27
   254         31
   255         29
   256         89
   257         48
   259          4
   262          4
   263         13
   264          5
   265          9
   266          8
   268         35
   269          8
   270         25
   271          8
   272          6
   274         30
   275         14
   276         19
   277          9
   278          6
   282         15
   283          9
   284        122
   285         23
   286         41
   287         11
   290          6
   291          4
   298         23
   299          8
   300          8
   302         10
   303         20
   304          7
   305         14
   306         61
   308         50
   309          6
   310          6
   314         22
   316         11
   318         10
   320          6
   334        128
   335         11
   336         95
   337         14
   338         14
   348         10
   350          8
   364        819
   365        152
   366        549
   367         97
   368         96
   369         17