##TITLE=Library Entry 7949
##JCAMP-DX=Revision 4.10 
##DATA TYPE=MASS SPECTRUM
##SAMPLE DESCRIPTION=Philip Morris R&D
##NAMES=HP
##CAS NAME=4s,6R-Dimethyl-7R-acetoxy-3-nonanone
##MOLFORM=C13H24O3
##CAS REGISTRY NO=82335-98-6
##MP= -300
##BP= -300
##MW= 228
##$RETENTION INDEX=0
##$CONDENSED SPECTRUM=NO
##NPOINTS= 76
##XYDATA=(XY..XY) 1 
    36          3
    39         43
    40         10
    41        196
    42         61
    43        999
    44         43
    45         35
    53         19
    54          9
    55        272
    56         80
    57        952
    58         57
    59         23
    60          4
    61         15
    65          3
    67         26
    68         20
    69        561
    70        414
    71         65
    72         20
    73         10
    75          2
    77          4
    79          7
    81         19
    82         43
    83        363
    84         49
    85         30
    86        810
    87         87
    88          4
    91          2
    93          3
    94          3
    95         18
    96          7
    97         38
    98          9
    99        179
   100         13
   101         35
   109          5
   110         16
   111        300
   112         72
   113         12
   114          3
   115          2
   117         79
   118          5
   121         16
   125         29
   126         32
   127         45
   128        115
   129         16
   130          4
   139        271
   140         28
   141          3
   150          8
   151          4
   153         12
   157        295
   158         25
   159          3
   167          6
   168        160
   169         22
   170          4
   185          2