##TITLE=Library Entry 96946
##JCAMP-DX=Revision 4.10 
##DATA TYPE=MASS SPECTRUM
##SAMPLE DESCRIPTION=NIST Mass Spectrometry Data Center, 1994
##NAMES=HP
##CAS NAME=2-Mercaptothiazole
##MOLFORM=C3H3NS2
##CAS REGISTRY NO=82358-09-6
##MP= -300
##BP= -300
##MW= 117
##$RETENTION INDEX=0
##$CONDENSED SPECTRUM=NO
##NPOINTS= 54
##XYDATA=(XY..XY) 1 
    12         20
    13         19
    17         10
    25         34
    26         53
    28         16
    32        165
    33         38
    35         15
    36         17
    37         12
    38         48
    39         35
    40         78
    41        130
    44        142
    45        311
    46         65
    47         24
    50         14
    51         18
    52         15
    56         32
    57        240
    58        714
    59        185
    60         61
    61         19
    62         13
    63         19
    64         87
    65         12
    66         14
    69          8
    70         47
    71         29
    72        151
    73         24
    76         93
    77         28
    79          9
    82         17
    83         25
    84         26
    85         17
    87          7
    88         26
    89         35
    90        163
    91         29
    92         15
   117        999
   118         55
   119         94