##TITLE=Library Entry 15929
##JCAMP-DX=Revision 4.10 
##DATA TYPE=MASS SPECTRUM
##SAMPLE DESCRIPTION=LAC, NIDDK, NIH, Bethesda, MD 20892
##NAMES=HP
##CAS NAME=Cystine, methyl ester
##MOLFORM=C7H14N2O4S2
##CAS REGISTRY NO=82356-84-1
##MP= -300
##BP= -300
##MW= 254
##$RETENTION INDEX=0
##$CONDENSED SPECTRUM=NO
##NPOINTS= 183
##XYDATA=(XY..XY) 1 
    42        652
    43        515
    44        999
    45        155
    46         58
    47         75
    48         48
    49          7
    50         43
    51          8
    52         18
    53         15
    54         64
    55        102
    56         51
    57         57
    58         78
    59        375
    60         86
    61         24
    62          4
    64        105
    65          9
    66         14
    67         15
    68         36
    69         28
    70         91
    71         25
    72         10
    73         24
    74        203
    75        196
    76        512
    77         31
    78         37
    79         18
    80          9
    81          9
    82         15
    83         18
    84         14
    85         49
    86        138
    87        147
    88        800
    89         60
    90         10
    91         15
    92          5
    93          6
    94          9
    95          5
    96         31
    97          9
    98         16
    99         16
   100        157
   101         45
   102        335
   103         59
   104         18
   105          5
   106         57
   107         56
   108         21
   109          9
   110          5
   111          8
   112         17
   113         14
   114         32
   115         13
   116         11
   117          9
   118          7
   119         92
   120         12
   121         12
   122         10
   123          5
   124          9
   125          6
   126         25
   127          2
   128         52
   129          4
   130         11
   131          3
   132         34
   133         17
   134        116
   135        287
   136        255
   137         29
   138         16
   139          5
   140          5
   141          4
   142          7
   143          3
   144          9
   145          1
   146        233
   147         17
   148         17
   149          5
   150          8
   151         11
   152          7
   153          6
   154          5
   155          4
   156          6
   157          4
   158         20
   159         20
   160        357
   161         41
   162         28
   163          3
   164          8
   165         11
   166         17
   167        413
   168         40
   169         43
   170          6
   171          4
   172          7
   173          4
   174          3
   175          2
   176          1
   177          4
   178          2
   179          2
   180          8
   181          9
   182          7
   183          4
   184          8
   185          7
   186         16
   187          5
   188          3
   189          4
   190          6
   191         14
   192         87
   193         11
   194         17
   195          3
   196          3
   197          2
   198          2
   199         31
   200          5
   201          5
   202          2
   207          0
   208          2
   209         40
   210          4
   211          5
   212          3
   213          2
   220          0
   221          0
   222         97
   223         48
   224          8
   225          8
   226          3
   235          1
   236          4
   237          6
   238          5
   239          2
   253          1
   254          8
   255          3
   256          1