##TITLE=Library Entry 79448
##JCAMP-DX=Revision 4.10 
##DATA TYPE=MASS SPECTRUM
##SAMPLE DESCRIPTION=A.A.Kutin, Moscow, Russia
##NAMES=HP
##CAS NAME=1H-Pyrazol-5-ol, 1-benzoyl-4,5-dihydro3-methyl-5-(4-nitrophenyl)-
##MOLFORM=C17H15N3O4
##CAS REGISTRY NO=82366-24-3
##MP= -300
##BP= -300
##MW= 325
##$RETENTION INDEX=0
##$CONDENSED SPECTRUM=NO
##NPOINTS= 160
##XYDATA=(XY..XY) 1 
    33          0
    39         75
    41         71
    42         26
    43         15
    44          7
    45          3
    46          5
    50         93
    51        197
    52         20
    53         12
    54          7
    55         12
    56          4
    57          2
    58          1
    59          0
    60          0
    62          8
    63         23
    64         15
    65         18
    66          5
    67          4
    68          2
    69         12
    70          3
    71          1
    72          0
    73          2
    74         21
    75         40
    76        143
    77        612
    78         52
    79          8
    80          1
    81          1
    82          1
    83          1
    84          1
    85          0
    86          1
    87          2
    88          2
    89         14
    90          8
    91         29
    92         28
    93          3
    94          1
    95          0
    97          0
    98          0
    99          1
   101          4
   102         12
   103         26
   105        999
   106         61
   107          6
   108          1
   111          0
   112          0
   113          1
   115         30
   116          9
   117         16
   118          5
   119          5
   120         10
   121          2
   122          3
   123          0
   125          1
   126          1
   127          8
   128         11
   129          7
   130          6
   131         37
   132          4
   133          2
   134          5
   135          1
   136          1
   137          1
   139          0
   141          0
   142          0
   143          1
   144          6
   145         20
   146          8
   147          1
   149          1
   150         39
   151          5
   152          3
   153          0
   154          0
   155          0
   156          0
   157          0
   158          4
   159          2
   161        201
   162         21
   163          1
   165          1
   166          0
   167          0
   171          0
   172          0
   173          2
   174          7
   175          5
   176          1
   178          0
   180          0
   181          0
   186          0
   189          0
   190          0
   191          1
   192          0
   193          0
   201          1
   203          6
   204          3
   205          1
   206          0
   220          3
   221          0
   222          0
   227          0
   233          0
   241          0
   262          0
   277          0
   278          0
   279          1
   280          0
   283          0
   290          0
   297          0
   306          0
   307          1
   308          1
   309          0
   310         10
   311          1
   312          1
   322          0
   323          0
   325        124
   326         20
   327          2
   328          0