##TITLE=Library Entry 38794
##JCAMP-DX=Revision 4.10 
##DATA TYPE=MASS SPECTRUM
##SAMPLE DESCRIPTION=ASES Database, Dalian Institute, P.R. China
##NAMES=HP
##CAS NAME=2,2-Dimethyl-propyl 2,2-dimethyl-propanesulfinyl sulfone
##MOLFORM=C10H22O3S2
##CAS REGISTRY NO=82360-14-3
##MP= -300
##BP= -300
##MW= 254
##$RETENTION INDEX=0
##$CONDENSED SPECTRUM=NO
##NPOINTS= 9
##XYDATA=(XY..XY) 1 
    45         70
    48        131
    53         79
    55        539
    56        387
    57        959
    64         20
    71        999
   254          2