##TITLE=Library Entry 40925
##JCAMP-DX=Revision 4.10 
##DATA TYPE=MASS SPECTRUM
##SAMPLE DESCRIPTION=R.ERRA BALSELLS,DEP. QUIM. ORG.,CITY UNIV. BUENOS AIRES
,ARGENT
##NAMES=HP
##CAS NAME=RS-2,3-hexanediol
##MOLFORM=C6H14O2
##CAS REGISTRY NO=82360-67-6
##MP= -300
##BP= -300
##MW= 118
##$RETENTION INDEX=0
##$CONDENSED SPECTRUM=NO
##NPOINTS= 14
##XYDATA=(XY..XY) 1 
    27        170
    28         50
    29        140
    30        120
    41        310
    43        550
    44         50
    45        650
    55        730
    57        380
    69         20
    71         30
    72        280
    73        999