##TITLE=Library Entry 4482
##JCAMP-DX=Revision 4.10 
##DATA TYPE=MASS SPECTRUM
##SAMPLE DESCRIPTION=Institute of Organic Chemistry, Novosibirsk, USSR 1988
##NAMES=HP
##CAS NAME=N-(4-Chlorobenzenesulfonyl)azetidin-3-one
##MOLFORM=C9H8ClNO3S
##CAS REGISTRY NO=82380-61-8
##MP= -300
##BP= -300
##MW= 245
##$RETENTION INDEX=0
##$CONDENSED SPECTRUM=NO
##NPOINTS= 28
##XYDATA=(XY..XY) 1 
    41        629
    42        999
    43        319
    44        459
    50         42
    51        167
    61         32
    62         16
    63         40
    69         19
    73         42
    74        125
    75        552
    76         99
    77         26
    85         59
    87         20
    89         11
   110          9
   111        333
   112         38
   113        108
   125         17
   131          9
   175         42
   177         14
   217         47
   219         16