##TITLE=Library Entry 4449
##JCAMP-DX=Revision 4.10 
##DATA TYPE=MASS SPECTRUM
##SAMPLE DESCRIPTION=Institute of Organic Chemistry, Novosibirsk, USSR 1988
##NAMES=HP
##CAS NAME=N-(4-Nitrobenzenesulfonyl)azetidin-3-one
##MOLFORM=C9H8N2O5S
##CAS REGISTRY NO=82380-62-9
##MP= -300
##BP= -300
##MW= 256
##$RETENTION INDEX=0
##$CONDENSED SPECTRUM=NO
##NPOINTS= 28
##XYDATA=(XY..XY) 1 
    41        629
    42        999
    44         45
    49         81
    50        591
    51         59
    53         19
    61         27
    63         46
    64        162
    65         33
    70         29
    73          9
    75        332
    76        330
    77         82
    78         21
    89         19
    90         18
    91          9
    92        182
    93         19
   106         25
   122        301
   123         31
   170         10
   186         79
   228         42