##TITLE=Library Entry 85925
##JCAMP-DX=Revision 4.10 
##DATA TYPE=MASS SPECTRUM
##SAMPLE DESCRIPTION=Institute of Organic Chemistry, Novosibirsk, USSR 1988
##NAMES=HP
##CAS NAME=Trivinyl(1,3,3-tribromopropyl)silane
##MOLFORM=C9H13Br3Si
##CAS REGISTRY NO=82389-54-6
##MP= -300
##BP= -300
##MW= 386
##$RETENTION INDEX=0
##$CONDENSED SPECTRUM=NO
##NPOINTS= 35
##XYDATA=(XY..XY) 1 
    39        107
    55        138
    56         37
    57        126
    58         10
    81         91
    82         36
    83        375
    84         50
    85         18
   107         38
   108        127
   109        999
   110        107
   111         46
   117         41
   119        137
   120          8
   121        136
   122          6
   135         98
   136          9
   137         97
   138          8
   173         20
   175         21
   187          8
   189         19
   191         10
   201         35
   203         62
   205         40
   215         41
   217         70
   219         44