##TITLE=Library Entry 36985
##JCAMP-DX=Revision 4.10 
##DATA TYPE=MASS SPECTRUM
##SAMPLE DESCRIPTION=RH-13
##NAMES=HP
##CAS NAME=Bicyclo[2.2.2]octan-1-ol, 4-methyl-
##MOLFORM=C9H16O
##CAS REGISTRY NO=824-13-5
##MP= -300
##BP= -300
##MW= 140
##$RETENTION INDEX=1590
##$CONDENSED SPECTRUM=NO
##NPOINTS= 78
##XYDATA=(XY..XY) 1 
    14         22
    15        168
    16          5
    17          6
    18         22
    19         12
    26        141
    27        589
    28        368
    29        408
    30         17
    31         94
    37         20
    38         57
    39        490
    40         88
    41        443
    42        176
    43        333
    44         26
    45         35
    49          8
    50         80
    51        140
    52         64
    53        272
    54        100
    55        495
    56         92
    57        112
    58         24
    61          6
    62         21
    63         50
    64         10
    65         84
    66         45
    67        149
    68         59
    69        174
    70        999
    71        228
    72         21
    74          8
    75         10
    77        125
    78         32
    79        115
    80         18
    81         56
    82         50
    83        190
    84         33
    85          8
    89         10
    91         68
    92         10
    93         72
    94         33
    95         77
    96         23
    97        118
    98         24
   105          8
   107         33
   108          4
   109         12
   110         22
   111        584
   112         65
   113          5
   122         17
   123          2
   125         53
   126          5
   140        255
   141         27
   142          2