##TITLE=Library Entry 32677
##JCAMP-DX=Revision 4.10 
##DATA TYPE=MASS SPECTRUM
##SAMPLE DESCRIPTION=ALPHA Chemicals / NIST MS Data Center.
##NAMES=HP
##CAS NAME=Bicyclo(2.2.1)heptane-2-carboxylic acid
##MOLFORM=C8H12O2
##CAS REGISTRY NO=824-62-4
##MP= -300
##BP= -300
##MW= 140
##$RETENTION INDEX=0
##$CONDENSED SPECTRUM=NO
##NPOINTS= 80
##XYDATA=(XY..XY) 1 
    15         18
    16          0
    18         14
    26         40
    27        325
    28        156
    29        117
    30          7
    31         26
    32          1
    37         16
    38         71
    39        500
    40        107
    41        389
    42         59
    43         79
    44         15
    45        118
    46          8
    47          7
    50         33
    51         84
    52         38
    53        169
    54         90
    55        262
    56         29
    57         21
    58          4
    59          4
    60          6
    61         11
    62         17
    63         35
    64          4
    65        163
    66        202
    67        999
    68        982
    69         76
    70         25
    71         21
    72          4
    73        917
    74         47
    75         10
    76          4
    77        111
    78         41
    79        195
    80        392
    81        156
    82          9
    83         33
    84         19
    85         61
    86         87
    87          5
    91         50
    92         11
    93         68
    94        165
    95        507
    96         46
    97        104
    98         24
    99         72
   100          4
   107         12
   111        153
   112         46
   113          4
   122        386
   123         48
   124          5
   125         27
   139          8
   140         30
   141          5