##TITLE=Library Entry 99044
##JCAMP-DX=Revision 4.10 
##DATA TYPE=MASS SPECTRUM
##SAMPLE DESCRIPTION=NIST Mass Spectrometry Data Center
##NAMES=HP
##CAS NAME=2,4-Dimethylbenzyl chloride
##MOLFORM=C9H11Cl
##CAS REGISTRY NO=824-55-5
##MP= -300
##BP= -300
##MW= 154
##$RETENTION INDEX=1208
##$CONDENSED SPECTRUM=NO
##NPOINTS= 82
##XYDATA=(XY..XY) 1 
    13          1
    15         72
    16          1
    18          4
    26         32
    27        144
    28         12
    29          6
    35         10
    36          3
    37         13
    38         44
    39        213
    40         26
    41         89
    42          3
    43          2
    45          2
    47          1
    48          3
    49         13
    50         82
    51        162
    52         45
    53         35
    54          3
    55          2
    58         70
    60          3
    61         11
    62         31
    63         84
    64         17
    65         76
    66          8
    67          1
    72          1
    73          7
    74         23
    75         25
    76         34
    77        121
    78         59
    79         32
    80          2
    84          1
    85          3
    86          5
    87          9
    88          3
    89         29
    91        217
    92         21
    93         16
    94          1
    98          2
    99          1
   101          3
   102         25
   103         82
   104         51
   105          7
   110          1
   111          1
   112          1
   113          1
   115         74
   116         16
   117         96
   119        999
   120         89
   121          4
   125          5
   127          1
   139         14
   140          2
   141          3
   142          1
   154        165
   155         19
   156         47
   157          4