##TITLE=Library Entry 99043
##JCAMP-DX=Revision 4.10 
##DATA TYPE=MASS SPECTRUM
##SAMPLE DESCRIPTION=NIST Mass Spectrometry Data Center
##NAMES=HP
##CAS NAME=2,5-Dimethylbenzyl chloride
##MOLFORM=C9H11Cl
##CAS REGISTRY NO=824-45-3
##MP= -300
##BP= -300
##MW= 154
##$RETENTION INDEX=1230
##$CONDENSED SPECTRUM=NO
##NPOINTS= 71
##XYDATA=(XY..XY) 1 
    13          1
    14          3
    15         25
    18          2
    26         19
    27         91
    35          8
    36          7
    37         20
    38         48
    39        202
    40         25
    41         80
    42          1
    47          1
    48          1
    49         19
    50         90
    51        164
    52         50
    53         37
    54          4
    55          3
    58         68
    59         12
    61         15
    62         45
    63         91
    64         22
    65         82
    66         10
    67          3
    73         10
    74         15
    75         29
    76         28
    77        129
    78         67
    79         42
    80          3
    85          3
    86          8
    87         13
    89         36
    91        270
    92         25
    93         20
    96          1
    97          2
    98          4
    99          3
   101          8
   102         34
   103        103
   104         72
   105         43
   106          3
   112          1
   115         99
   117        141
   119        999
   120        102
   121          4
   125          2
   139         21
   140          3
   141          7
   154        194
   155         26
   156         61
   157          5