##TITLE=Library Entry 97536
##JCAMP-DX=Revision 4.10 
##DATA TYPE=MASS SPECTRUM
##SAMPLE DESCRIPTION=Exported from NIST MS Search
##NAMES=HP
##CAS NAME=1H-Indene, 2,3-dihydro-2-methyl-
##MOLFORM=C10H12
##CAS REGISTRY NO=824-63-5
##MP= -300
##BP= -300
##MW= 132
##$RETENTION INDEX=1080
##$CONDENSED SPECTRUM=NO
##NPOINTS= 78
##XYDATA=(XY..XY) 1 
    13          4
    14          9
    15         70
    16          1
    25          3
    26         24
    27         93
    28         25
    29          9
    37         11
    38         32
    39        166
    40         13
    41         27
    42          3
    43          4
    44          1
    49          6
    50         61
    51        131
    52         28
    53         35
    54          7
    55          4
    56          4
    57         17
    58         31
    61         12
    62         38
    63        113
    64         78
    65        119
    66          5
    67          3
    73          5
    74         25
    75         24
    76         18
    77         81
    78         43
    79         15
    80          2
    85          6
    86         10
    87         14
    88          8
    89         58
    90         10
    91        215
    92         12
    93          4
    97          5
    98          8
    99          6
   100          4
   101         10
   102         35
   103         51
   104         66
   105         42
   106          7
   110          5
   113         14
   114         17
   115        273
   116         87
   117        999
   118          3
   119          4
   126          9
   127         28
   128         51
   129         35
   130         16
   131        199
   132        595
   133         64
   134          3