##TITLE=Library Entry 97550
##JCAMP-DX=Revision 4.10 
##DATA TYPE=MASS SPECTRUM
##SAMPLE DESCRIPTION=Exported from NIST MS Search
##NAMES=HP
##CAS NAME=1H-Indene, 2,3-dihydro-4-methyl-
##MOLFORM=C10H12
##CAS REGISTRY NO=824-22-6
##MP= -300
##BP= -300
##MW= 132
##$RETENTION INDEX=1145
##$CONDENSED SPECTRUM=NO
##NPOINTS= 84
##XYDATA=(XY..XY) 1 
    26         19
    27         90
    28         11
    29          7
    37          7
    38         23
    39        134
    40         13
    41         24
    42          2
    43          4
    44          2
    49          3
    50         48
    51        118
    52         30
    53         36
    54          3
    55          5
    56          1
    57          5
    58          8
    59          1
    61          4
    62         26
    63         75
    64         86
    65         96
    66         10
    67          6
    68          3
    69          1
    70          1
    71          2
    74         19
    75         20
    76         15
    77         72
    78         28
    79         17
    80          2
    81          3
    82          1
    83          1
    85          2
    86          6
    87          7
    88          3
    89         23
    90          4
    91        131
    92         13
    93          2
    94          2
    95          5
   101          4
   102         22
   103         28
   104         18
   105         21
   106          2
   107          1
   108          1
   109          6
   110          1
   111          1
   113          3
   114          4
   115        201
   116         96
   117        999
   118         97
   119         12
   120          1
   126          6
   127         28
   128         57
   129         45
   130         16
   131        226
   132        390
   133         41
   134          4
   135          1