##TITLE=Library Entry 67794
##JCAMP-DX=Revision 4.10 
##DATA TYPE=MASS SPECTRUM
##SAMPLE DESCRIPTION=Exported from NIST MS Search
##NAMES=HP
##CAS NAME=Ethanone, 1-bicyclo[2.2.1]hept-2-yl-, exo-
##MOLFORM=C9H14O
##CAS REGISTRY NO=824-59-9
##MP= -300
##BP= -300
##MW= 138
##$RETENTION INDEX=0
##$CONDENSED SPECTRUM=NO
##NPOINTS= 27
##XYDATA=(XY..XY) 1 
    41        186
    42         15
    43        426
    51         33
    53         60
    54         24
    55         93
    65         39
    66         63
    67        369
    68         36
    71        324
    72         33
    77         36
    78         12
    79         39
    80        174
    81         33
    91         24
    93         30
    95        999
    96         81
    97         30
   109         27
   120         39
   123         24
   138         60