##TITLE=Library Entry 88618
##JCAMP-DX=Revision 4.10 
##DATA TYPE=MASS SPECTRUM
##SAMPLE DESCRIPTION=J Am Soc Mass Spectrom 2008, 19, 1114-1118
##NAMES=HP
##CAS NAME=Formamide, N-(2-fluorophenyl)-
##MOLFORM=C7H6FNO
##CAS REGISTRY NO=824-48-6
##MP= -300
##BP= -300
##MW= 139
##$RETENTION INDEX=0
##$CONDENSED SPECTRUM=NO
##NPOINTS= 62
##XYDATA=(XY..XY) 1 
    37         60
    38        103
    39        133
    40         33
    41         84
    42         12
    43         12
    44         12
    45         12
    46         12
    48         15
    49         23
    50         84
    51         60
    52        121
    53         12
    54         12
    55         15
    56         51
    57        330
    58         33
    59         12
    60         15
    61         42
    62         60
    63        184
    64        312
    65         93
    66         12
    67         12
    68         33
    69         23
    70         23
    71         15
    72         23
    73         12
    74         33
    75         72
    76         23
    78         15
    80         12
    81         60
    82         60
    83        429
    84        439
    85         51
    88         15
    89         15
    90         33
    91        202
    92         23
    93         12
    94         23
    95         23
    96         15
   108         12
   109         23
   110         93
   111        999
   112         84
   139        708
   140         72