##TITLE=Library Entry 81316
##JCAMP-DX=Revision 4.10 
##DATA TYPE=MASS SPECTRUM
##SAMPLE DESCRIPTION=Exported from NIST MS Search
##NAMES=HP
##CAS NAME=Benzene, (2-chloro-1-methylethyl)-
##MOLFORM=C9H11Cl
##CAS REGISTRY NO=824-47-5
##MP= -300
##BP= -300
##MW= 154
##$RETENTION INDEX=1142
##$CONDENSED SPECTRUM=NO
##NPOINTS= 71
##XYDATA=(XY..XY) 1 
    26          2
    27         19
    28          3
    29          2
    37          2
    38          6
    39         37
    40          3
    41         27
    42          2
    43          3
    45         24
    49          8
    50         22
    51         60
    52         13
    53          7
    57          1
    58          7
    61          5
    62          7
    63         19
    64          4
    65         17
    66          2
    73          3
    74          9
    75         16
    76          9
    77        103
    78         33
    79         76
    80          7
    81          2
    85          3
    86          2
    87          3
    89          9
    90          2
    91         56
    92          5
    97          2
    99          2
   101          4
   102         13
   103         99
   104         28
   105        999
   106         87
   107          7
   108          6
   109          6
   110          4
   112          2
   115         18
   116          4
   117         12
   118          6
   119          7
   120          3
   121          8
   123          4
   125          3
   137          6
   138          3
   139          9
   141          3
   154        155
   155         16
   156         51
   157          5