##TITLE=Library Entry 2134
##JCAMP-DX=Revision 4.10 
##DATA TYPE=MASS SPECTRUM
##SAMPLE DESCRIPTION=A.A.Kutin, Moscow, Russia
##NAMES=HP
##CAS NAME=2H-1,4-Oxazino[2,3,4-i,j]quinoline-6-carboxylic acid, 3,7-dihydro
-9,10-difluoro-3-methyl-7-oxo-
##MOLFORM=C13H9F2NO4
##CAS REGISTRY NO=82419-35-0
##MP= -300
##BP= -300
##MW= 281
##$RETENTION INDEX=0
##$CONDENSED SPECTRUM=NO
##NPOINTS= 134
##XYDATA=(XY..XY) 1 
    33          4
    36          1
    37         16
    38         67
    39        910
    40        132
    41        999
    42        212
    43         28
    45        400
    46          2
    47          1
    49          2
    50          6
    51         19
    52         17
    53        422
    54         23
    55         15
    56         10
    57          8
    58          0
    61         17
    62         22
    63         21
    64          8
    65          4
    66          2
    67          7
    68         20
    69         15
    70         12
    71          3
    72          1
    73          2
    74         20
    75         42
    76         12
    77         10
    78          7
    79         11
    80         12
    81         18
    82          5
    83          4
    85          5
    86          8
    87         33
    88         39
    89          7
    91          3
    92         13
    93         15
    94         21
    95         10
    98         10
    99         34
   100         21
   101         17
   102          4
   103          1
   104          3
   105          9
   106          9
   107          6
   108          2
   110          1
   111         34
   112         68
   113         61
   114         21
   115          4
   116          6
   118          9
   119         10
   120         12
   121          6
   122          3
   123          2
   124          7
   125         22
   126         16
   127         11
   128         13
   129          2
   131          0
   132          5
   133          2
   136          2
   137          4
   138         18
   139         32
   140         48
   141         18
   142          5
   143          1
   144          1
   146          2
   149          1
   150          8
   151          9
   152          7
   154         13
   155          2
   156          1
   159          1
   164          2
   165          5
   166         14
   167         14
   168         23
   169          8
   170          2
   176          1
   179          3
   181          4
   182         20
   183          2
   184          2
   192          1
   194         16
   195          7
   196         33
   197          3
   208          6
   209          0
   221          7
   222        130
   223         19
   224          3
   236          2
   237        109
   238         16
   281          7