##TITLE=Library Entry 82916
##JCAMP-DX=Revision 4.10 
##DATA TYPE=MASS SPECTRUM
##SAMPLE DESCRIPTION=H. LANGHALS, INST. ORG. CHEM. UNIV. MUNICH, MUNICH, W.
 GER.
##NAMES=HP
##CAS NAME=3-Methyl-1-(3-pyridyl)-1-butanone
##MOLFORM=C10H13NO
##CAS REGISTRY NO=82465-52-9
##MP= -300
##BP= -300
##MW= 163
##$RETENTION INDEX=0
##$CONDENSED SPECTRUM=NO
##NPOINTS= 8
##XYDATA=(XY..XY) 1 
    43        220
    51        320
    57         70
    78        630
   106        999
   121        670
   148        150
   163        310