##TITLE=Library Entry 86395
##JCAMP-DX=Revision 4.10 
##DATA TYPE=MASS SPECTRUM
##SAMPLE DESCRIPTION=Chemical Concepts
##NAMES=HP
##CAS NAME=2,5,5,8a-Tetramethyl-1,4,4a,5,6,7,8,8a-octahydronaphthalene-1-car
boxylic acid, methyl ester
##MOLFORM=C16H26O2
##CAS REGISTRY NO=82462-60-0
##MP= -300
##BP= -300
##MW= 250
##$RETENTION INDEX=0
##$CONDENSED SPECTRUM=NO
##NPOINTS= 161
##XYDATA=(XY..XY) 1 
    27         67
    28         12
    29        109
    30          3
    31          3
    39         99
    40         19
    41        412
    42         25
    43        141
    44          5
    45         13
    49          2
    50          6
    51         30
    52         14
    53         98
    54         14
    55        260
    56         33
    57         46
    58          6
    59         72
    61          4
    63         11
    64          5
    65         66
    66         20
    67        168
    68         49
    69        266
    70         20
    71         16
    72          3
    73          7
    74         13
    75         13
    76          5
    77        140
    78         38
    79        173
    80         52
    81        325
    82        107
    83         79
    84          8
    85         28
    86          3
    87         14
    88          4
    89          7
    90          4
    91        313
    92         52
    93        167
    94         54
    95        320
    96         68
    97         50
    98          7
    99         10
   101         21
   102          8
   103         33
   104         17
   105        250
   106        105
   107        217
   108         57
   109        999
   110         94
   111         22
   112         29
   113          5
   114        205
   115         38
   116         12
   117         29
   118         10
   119        152
   120         67
   121        203
   122         46
   123        134
   124        356
   125        140
   126         21
   127        291
   128         41
   129         17
   130          7
   131         19
   132          7
   133         66
   134         32
   135        135
   136         58
   137        506
   138         55
   139         20
   140          7
   141         23
   142          5
   143          6
   144          4
   145         13
   146          7
   147         60
   148         20
   149         45
   150         65
   151         15
   152          5
   153         17
   154          7
   155          3
   157          2
   159         15
   160          3
   161         51
   162         17
   163          8
   164          5
   165         32
   166         18
   167         12
   168          7
   169          4
   173          3
   174          3
   175        258
   176         88
   177         21
   179         14
   180         11
   181         11
   182          4
   185          3
   189          8
   190        177
   191        187
   192         27
   193          8
   194         25
   195          7
   203         48
   204          9
   205          2
   206          2
   207         16
   208          3
   217          5
   218        115
   219         23
   220          3
   221          3
   235         74
   236         14
   250        331
   251         59
   252          6