##TITLE=Library Entry 8495
##JCAMP-DX=Revision 4.10 
##DATA TYPE=MASS SPECTRUM
##SAMPLE DESCRIPTION=Chemical Concepts
##NAMES=HP
##CAS NAME=1,5-Dimethyl-6-oxa-bicyclo[3.1.0]hexane
##MOLFORM=C7H12O
##CAS REGISTRY NO=82461-31-2
##MP= -300
##BP= -300
##MW= 112
##$RETENTION INDEX=0
##$CONDENSED SPECTRUM=NO
##NPOINTS= 87
##XYDATA=(XY..XY) 1 
    25          0
    26         12
    27         93
    28         22
    29         47
    30          2
    31          4
    33          0
    36          0
    37          5
    38         15
    39        169
    40         30
    41        304
    42         54
    43        999
    44         34
    45         12
    46          0
    47          0
    48          0
    49          1
    50         12
    51         23
    52          9
    53         51
    54         24
    55        201
    56         26
    57         65
    58        141
    59         14
    60          1
    61          1
    62          4
    63          7
    64          1
    65         12
    66          6
    67         36
    68         38
    69        313
    70         41
    71        263
    72         29
    73          6
    74          1
    75          0
    76          1
    77         17
    78          3
    79         37
    80          3
    81          9
    82          2
    83         30
    84         11
    85          2
    86          0
    87          0
    88          0
    89          0
    90          0
    91          8
    92          2
    93          7
    94         14
    95          8
    96          3
    97        194
    98         14
    99          0
   100          0
   101          0
   102          0
   103          0
   104          0
   105          0
   106          0
   107          0
   108          0
   109          1
   110          2
   111         54
   112        278
   113         24
   114          1