##TITLE=Library Entry 5616
##JCAMP-DX=Revision 4.10 
##DATA TYPE=MASS SPECTRUM
##SAMPLE DESCRIPTION=Chemical Concepts
##NAMES=HP
##CAS NAME=Acetamide, N-(3-methyl-2-oxobutyl)-
##MOLFORM=C7H13NO2
##CAS REGISTRY NO=82479-25-2
##MP= -300
##BP= -300
##MW= 143
##$RETENTION INDEX=0
##$CONDENSED SPECTRUM=NO
##NPOINTS= 44
##XYDATA=(XY..XY) 1 
    26         25
    27        151
    28         60
    29         96
    30        926
    31         61
    38         10
    39         77
    40         15
    41        153
    42        101
    43        999
    44         34
    45        119
    53          6
    54          7
    55         20
    56         10
    57         15
    58         21
    59          6
    60         70
    61         39
    67          4
    68          5
    69          7
    70         38
    71        142
    72        346
    73        282
    74         37
    82          5
    83          5
    84         10
    85          4
    86         15
    88         15
   100        331
   101         17
   102          4
   110          3
   128          3
   143          4
   144          6