##TITLE=Library Entry 96763
##JCAMP-DX=Revision 4.10 
##DATA TYPE=MASS SPECTRUM
##SAMPLE DESCRIPTION=J.LLOYD PFLUG, FRANK J. SEILER RES.LAB.; USAF ACADEMY,
 CO 80840
##NAMES=HP
##CAS NAME=1,2,4,5-Tetrazine, 3,6-bis(4-nitrophenyl)methyl]-
##MOLFORM=C16H12N6O4
##CAS REGISTRY NO=82481-30-9
##MP= -300
##BP= -300
##MW= 352
##$RETENTION INDEX=0
##$CONDENSED SPECTRUM=NO
##NPOINTS= 45
##XYDATA=(XY..XY) 1 
    30         69
    32         10
    39         33
    42          2
    44        200
    45         21
    50         46
    51         37
    52         19
    53         12
    59         12
    60         25
    64         57
    65         52
    66         19
    74         29
    75         38
    76         53
    77        133
    78         37
    79         30
    86          2
    87         14
    88         51
    91         14
    92         34
   102         20
   103         23
   104        135
   106          2
   114         37
   115         49
   116        999
   117         95
   118         21
   129          3
   133         11
   135         37
   136         15
   145          6
   146         16
   162        451
   163         67
   164         12
   352         31