##TITLE=Library Entry 89604
##JCAMP-DX=Revision 4.10 
##DATA TYPE=MASS SPECTRUM
##SAMPLE DESCRIPTION=Exported from NIST MS Search
##NAMES=HP
##CAS NAME=1,3-Cyclopentanedione, 2-butyl-
##MOLFORM=C9H14O2
##CAS REGISTRY NO=825-31-0
##MP= -300
##BP= -300
##MW= 154
##$RETENTION INDEX=0
##$CONDENSED SPECTRUM=NO
##NPOINTS= 50
##XYDATA=(XY..XY) 1 
    39        160
    40         30
    41        210
    42         40
    43        150
    44         60
    51         20
    52         20
    53         60
    54         50
    55        320
    56        110
    57         70
    63         10
    65         60
    66         10
    67         50
    68         30
    69        130
    70         80
    71         10
    77         30
    79         30
    81         20
    82         20
    83        200
    84         70
    85         10
    91         10
    93         10
    94         10
    95         20
    96         10
    97         50
    98        130
    99        160
   109         10
   110         10
   111        660
   112        999
   113         80
   114         10
   125        200
   126         40
   137         30
   138         10
   139        120
   153         10
   154        300
   155         30