##TITLE=Library Entry 31996
##JCAMP-DX=Revision 4.10 
##DATA TYPE=MASS SPECTRUM
##SAMPLE DESCRIPTION=NIST Mass Spectrometry Data Center, 1994
##NAMES=HP
##CAS NAME=2-Methylbicyclo[2.2.1]-5-heptene-2-carboxylic acid
##MOLFORM=C9H12O2
##CAS REGISTRY NO=825-03-6
##MP= -300
##BP= -300
##MW= 152
##$RETENTION INDEX=0
##$CONDENSED SPECTRUM=NO
##NPOINTS= 85
##XYDATA=(XY..XY) 1 
    12          1
    14          1
    15         11
    16          0
    17          1
    18          1
    19          1
    25          1
    26         11
    27         64
    28         12
    29         13
    30          0
    32          0
    37          9
    38         24
    39        184
    40         53
    41         68
    42          4
    43         14
    44          0
    45         44
    46          2
    47          0
    48          0
    49          1
    50         19
    51         42
    52         13
    53         25
    54          4
    55          9
    56          1
    57          1
    58          1
    59          4
    60          1
    61          2
    62          7
    63         20
    64          0
    65         98
    66        999
    67         60
    68          3
    69          8
    70          0
    71          0
    73          0
    74          2
    75          1
    77         47
    78         12
    79         43
    80          4
    81          3
    82          1
    83          1
    84          0
    86          5
    87         16
    88          1
    89          2
    90          0
    91         56
    92         11
    93          2
    95          1
    96          0
    97          1
    98          1
   102          0
   103          3
   104          1
   105          9
   106          2
   107         12
   108          1
   109          0
   111          2
   119          0
   133          0
   152         12
   153          1