##TITLE=Library Entry 80520
##JCAMP-DX=Revision 4.10 
##DATA TYPE=MASS SPECTRUM
##SAMPLE DESCRIPTION=B.WEBSTER ICI PHARMACEUTICALS DIVISION, ALDERLEY PARK C
HESHIRE
##NAMES=HP
##CAS NAME=Benzenecarboximidic acid, ethyl ester
##MOLFORM=C9H11NO
##CAS REGISTRY NO=825-60-5
##MP= -300
##BP= -300
##MW= 149
##$RETENTION INDEX=0
##$CONDENSED SPECTRUM=NO
##NPOINTS= 25
##XYDATA=(XY..XY) 1 
    43         15
    44         55
    45         30
    46         13
    50        150
    51        275
    52         60
    63         18
    64         10
    65         18
    73         10
    74         40
    75         50
    76        155
    77        550
    78         90
   103        300
   104        655
   105        999
   106         85
   121        500
   122         50
   134         15
   148        185
   149         45