##TITLE=Library Entry 78767
##JCAMP-DX=Revision 4.10 
##DATA TYPE=MASS SPECTRUM
##SAMPLE DESCRIPTION=Japan AIST/NIMC Database- Spectrum MS-NW-7023
##NAMES=HP
##CAS NAME=4,5-Bis(benzoylthio)-1,2-dithiole-3-thione
##MOLFORM=C17H10O2S5
##CAS REGISTRY NO=82504-65-2
##MP= -300
##BP= -300
##MW= 406
##$RETENTION INDEX=0
##$CONDENSED SPECTRUM=NO
##NPOINTS= 98
##XYDATA=(XY..XY) 1 
    27          7
    28          2
    32          2
    33          1
    34          1
    37          2
    38          5
    39         10
    40          1
    41          2
    43          2
    44          2
    45          3
    49          2
    50         38
    51        117
    52          7
    55          1
    56          2
    57          2
    60          2
    61          1
    62          2
    63          3
    64          5
    65          5
    69          5
    71          1
    73          1
    74         10
    75          9
    76         14
    77        390
    78         25
    79          1
    81          1
    82          2
    83          1
    85          1
    88          9
    89          1
    90          1
    93          1
    94          1
    95          1
    97          2
    98          1
    99          1
   100         13
   102          1
   104          2
   105        999
   106         87
   107          8
   108          2
   109          9
   110          4
   111          2
   112          1
   113          1
   121          9
   122         11
   123          1
   124          1
   126          1
   138          1
   139          2
   142          1
   152          1
   153          1
   154          1
   164          3
   166          1
   182          1
   186          1
   187          1
   198          5
   222          1
   226          2
   228          2
   230          1
   242          1
   252          1
   264          3
   270          1
   274          1
   286          2
   287          1
   288          1
   301          1
   302          1
   304          1
   328          6
   329          1
   330          3
   406         11
   407          2
   408          2