##TITLE=Library Entry 53182
##JCAMP-DX=Revision 4.10 
##DATA TYPE=MASS SPECTRUM
##SAMPLE DESCRIPTION=P. Vainiotalo, Dep. Chem., Joensuu Univ., Joensuu, Finl
and
##NAMES=HP
##CAS NAME=Bicyclo[2.2.1]heptan-2-one, 4-ethynyl-1,7,7-trimethyl-
##MOLFORM=C12H16O
##CAS REGISTRY NO=82508-64-3
##MP= -300
##BP= -300
##MW= 176
##$RETENTION INDEX=0
##$CONDENSED SPECTRUM=NO
##NPOINTS= 81
##XYDATA=(XY..XY) 1 
    15         12
    26         15
    27        167
    29        101
    31         23
    38         16
    39        323
    40         49
    41        589
    42         38
    43        105
    44         40
    45         11
    50         37
    51        135
    52         45
    53        145
    54         28
    55        667
    56         35
    57        210
    58         18
    59         17
    62         14
    63         57
    64         33
    65        146
    66         26
    67        104
    68         11
    69        147
    70         48
    74         18
    75         10
    77        182
    78         53
    79        104
    80         26
    81         99
    82         47
    83        999
    84         85
    89         16
    90         23
    91        511
    92        887
    93        160
    94         42
    95         49
    96         14
    97         21
    98         22
   102         12
   103         52
   104         29
   105        307
   106        165
   107         57
   108         28
   109         14
   110         11
   111         37
   115         55
   116         24
   117         90
   118         31
   119        539
   120        134
   121         25
   131         26
   132        241
   133        993
   134        328
   135         36
   147        134
   148        192
   149         24
   161         89
   162         12
   176        666
   177        100