##TITLE=Library Entry 30887
##JCAMP-DX=Revision 4.10 
##DATA TYPE=MASS SPECTRUM
##SAMPLE DESCRIPTION=Chemical Concepts
##NAMES=HP
##CAS NAME=1-Propanol, (2)-2-[(tert.butyloxycarbonyl-(R)-alanyl)amino]-3-phe
nyl-
##MOLFORM=C17H26N2O4
##CAS REGISTRY NO=82527-18-2
##MP= -300
##BP= -300
##MW= 322
##$RETENTION INDEX=0
##$CONDENSED SPECTRUM=NO
##NPOINTS= 198
##XYDATA=(XY..XY) 1 
    25          0
    26          2
    27         31
    28         18
    29        126
    30         29
    31         41
    33          0
    37          0
    38          1
    39         35
    40         27
    41        163
    42         59
    43         30
    44        913
    45         25
    46          1
    49          0
    50          1
    51          9
    52          3
    53          4
    54          4
    55         21
    56         48
    57        837
    58         33
    59         43
    60        999
    61         33
    62          3
    63          3
    64          1
    65         36
    66          3
    67          1
    68          1
    69         27
    70         49
    71          4
    72          3
    73          1
    74         38
    75          1
    76          0
    77         24
    78         17
    79         13
    80          1
    81          0
    82          1
    83          6
    84          2
    85          7
    86          8
    87         16
    88        298
    89        142
    90         18
    91        308
    92        104
    93         10
    94          0
    95          0
    96          1
    97          2
    98          5
    99         10
   100          4
   101          0
   102          3
   103         22
   104         11
   105         49
   106          7
   107          1
   108          0
   109          0
   110          0
   111          0
   112          1
   113         16
   114          2
   115         39
   116         98
   117         63
   118         14
   119          2
   120        349
   121         33
   122          1
   123          0
   124          0
   126          0
   127          0
   128          3
   129          2
   130          1
   131         26
   132         10
   133        181
   134        119
   135         13
   136          0
   139          1
   140          0
   141          0
   142          1
   143          5
   144         37
   145         13
   146          4
   147          3
   148          2
   149          0
   150          4
   152          6
   153          0
   154          0
   155          0
   156          0
   157         65
   158          6
   159          1
   160          6
   161          1
   162          1
   171          0
   172         75
   173          8
   174          2
   175        146
   176         15
   177          2
   178         42
   179         11
   180          3
   186          0
   187          0
   188          0
   189         59
   190          6
   191          9
   192          1
   193          0
   194          0
   196          0
   197          0
   202          0
   203          0
   204          1
   205          0
   206          0
   207          0
   208          0
   213          0
   214          0
   216          0
   217          1
   218          0
   221          0
   223          2
   224          4
   225          0
   230          0
   231        170
   232         21
   233          2
   234          0
   235          8
   236         20
   237          3
   238          0
   240          0
   243          0
   246          0
   247          0
   248          1
   249         74
   250         11
   251          0
   255          0
   266         19
   267          5
   268          0
   290          1
   291          5
   292         14
   293          1
   294          0
   295          0
   304          0
   320          0
   321          0
   322          9
   323          3
   324          0