##TITLE=Library Entry 28124
##JCAMP-DX=Revision 4.10 
##DATA TYPE=MASS SPECTRUM
##SAMPLE DESCRIPTION=J.N. PIRL, DEP. PUBL. HEALTH, DIV. LAB., CHICAGO, ILL.,
 USA
##NAMES=HP
##CAS NAME=1-(2-Methoxyethyl)-5-methylpyrazole-3,4-dicarboxylic acid
##MOLFORM=C9H12N2O5
##CAS REGISTRY NO=82581-96-2
##MP= -300
##BP= -300
##MW= 228
##$RETENTION INDEX=0
##$CONDENSED SPECTRUM=NO
##NPOINTS= 25
##XYDATA=(XY..XY) 1 
    36        130
    43        158
    44        408
    45        789
    58        999
    59        120
    66        184
    68         91
    69        197
    79         90
    80        145
    81        138
    84        118
   109         79
   121        103
   135        217
   152        150
   153         90
   165        145
   180        671
   182        223
   210        191
   211        158
   228         92
   229        105