##TITLE=Library Entry 12032
##JCAMP-DX=Revision 4.10 
##DATA TYPE=MASS SPECTRUM
##SAMPLE DESCRIPTION=A. Brossi, LC, NIDDK, NIH, Bethesda, MD 20892
##NAMES=HP
##CAS NAME=Dihydroartemisinin, 5-deshydroxy-6-deshydro-
##MOLFORM=C15H22O4
##CAS REGISTRY NO=82596-30-3
##MP= -300
##BP= -300
##MW= 266
##$RETENTION INDEX=0
##$CONDENSED SPECTRUM=NO
##NPOINTS= 190
##XYDATA=(XY..XY) 1 
    41        268
    43        999
    44         53
    45         24
    46          1
    47          0
    48          1
    49          1
    50          2
    51         15
    52          6
    53         85
    55        325
    56         48
    57         52
    58         42
    59         28
    60          2
    61          2
    62          1
    63          4
    65         35
    66         14
    67        105
    68         18
    69        167
    70          4
    71        257
    72         13
    73          6
    74          3
    75          1
    77         58
    78         12
    79        101
    80         21
    81        239
    82         44
    83        134
    84        161
    85         55
    86          5
    87          7
    88          1
    89          8
    91         86
    92         15
    93        233
    94         25
    95        175
    96         24
    97        174
    98         21
    99         21
   100          3
   101          5
   102          1
   103          6
   105        106
   106         18
   107        132
   108         28
   109        157
   110         26
   111        113
   112         13
   113         13
   114          2
   115         11
   116          3
   117         12
   118          4
   119         42
   120          8
   121        107
   122         24
   123         67
   124         38
   125         27
   126          3
   127          3
   128          3
   129         19
   130          4
   131         40
   132          4
   133        364
   134         50
   135         55
   136          9
   137         21
   138          5
   139         18
   140          2
   141          3
   142          1
   143          7
   144          4
   145         26
   146          6
   147         51
   148          9
   149         84
   150         12
   151         84
   152         13
   153          5
   154          1
   155          1
   156          0
   157          4
   158          8
   159         15
   160          6
   161         39
   162        117
   163         83
   164         14
   165         11
   166          2
   167         10
   168          2
   169          1
   170          0
   171          1
   172          0
   173         48
   174          9
   175          8
   176         12
   177         24
   178          4
   179          8
   180          5
   181         25
   182          3
   183          3
   184          0
   185          0
   186          0
   187          3
   188          1
   189          2
   190          2
   191         12
   192          2
   193          2
   194         10
   195          6
   196          1
   197          0
   199          0
   201         13
   202          2
   203          1
   204          0
   205          4
   206          2
   207          1
   208          0
   209          1
   210          0
   213          0
   215          1
   216          1
   217          0
   218          1
   219         18
   220          3
   221          1
   222          1
   223          1
   224          0
   230          0
   231          0
   233          2
   234          7
   235          1
   237          7
   238          1
   239          0
   247          0
   249          1
   250          0
   262          1
   263          0
   266        280
   267         43
   268          5
   269          0