##TITLE=Library Entry 4927
##JCAMP-DX=Revision 4.10 
##DATA TYPE=MASS SPECTRUM
##SAMPLE DESCRIPTION=NIST Mass Spectrometry Data Center, 1994
##NAMES=HP
##CAS NAME=4-Piperidinone, 2,2,6,6-tetramethyl-
##MOLFORM=C9H17NO
##CAS REGISTRY NO=826-36-8
##MP= -300
##BP= -300
##MW= 155
##$RETENTION INDEX=0
##$CONDENSED SPECTRUM=NO
##NPOINTS= 69
##XYDATA=(XY..XY) 1 
     4         38
    13          3
    14         20
    15        183
    16          1
    18         29
    26         27
    27        170
    28         80
    29        154
    30         72
    31          5
    37          4
    39        225
    40         58
    41        387
    42        999
    43        196
    44         15
    47          2
    49          3
    50          6
    51         13
    52         12
    53         42
    54         39
    55        230
    56        155
    57        103
    58        559
    59         21
    60          1
    63          6
    65          3
    66          3
    67         13
    68         17
    69          1
    70         35
    71         23
    72          6
    77          3
    78          1
    79          6
    80         14
    81         15
    82          1
    83        841
    84        242
    85         11
    93          2
    94          8
    95         12
    96         22
    97          2
    98        209
    99         24
   108          1
   110          2
   112         50
   113          4
   122          7
   123         16
   124         14
   140        740
   141         64
   142          4
   155         41
   156          4