##TITLE=Library Entry 94587
##JCAMP-DX=Revision 4.10 
##DATA TYPE=MASS SPECTRUM
##SAMPLE DESCRIPTION=Chemical Concepts
##NAMES=HP
##CAS NAME=9-Methoxybicyclo[6.1.0]nona-2,4,6-triene
##MOLFORM=C10H12O
##CAS REGISTRY NO=826-14-2
##MP= -300
##BP= -300
##MW= 148
##$RETENTION INDEX=0
##$CONDENSED SPECTRUM=NO
##NPOINTS= 89
##XYDATA=(XY..XY) 1 
    26         12
    27         83
    29         90
    30          8
    31         79
    37          6
    38         25
    39        179
    40         38
    41         93
    42         42
    43         17
    44         48
    45         39
    50         66
    51        149
    52         54
    53         47
    54          9
    55        120
    56         11
    57         21
    58         15
    61         10
    62         38
    63        116
    64         23
    65        104
    66         19
    67          8
    68          7
    69         52
    70         11
    71         84
    74         31
    75         36
    76         33
    77        297
    78        126
    79        134
    80         12
    81         15
    82          7
    83          9
    84         16
    85         11
    86         18
    87         18
    88         12
    89         80
    90         29
    91        266
    92         33
    93         11
    94         11
    95         10
    96         12
    97          8
    98          7
   101         12
   102         57
   103        209
   104         96
   105        369
   106         38
   107         15
   108         15
   109          9
   113         18
   114         32
   115        999
   116        557
   117        552
   118        159
   119         34
   120         16
   121        145
   122         19
   130          9
   131        117
   132         36
   133        199
   145          9
   146         65
   147        543
   148        704
   149         81
   150         10
   151          2