##TITLE=Library Entry 97339
##JCAMP-DX=Revision 4.10 
##DATA TYPE=MASS SPECTRUM
##SAMPLE DESCRIPTION=D.HENNEBERG, MAX-PLANCK INSTITUTE, MULHEIM, WEST GERMAN
Y
##NAMES=HP
##CAS NAME=Benzene, 1-pentenyl-
##MOLFORM=C11H14
##CAS REGISTRY NO=826-18-6
##MP= -300
##BP= -300
##MW= 146
##$RETENTION INDEX=1131
##$CONDENSED SPECTRUM=NO
##NPOINTS= 104
##XYDATA=(XY..XY) 1 
    23          0
    25          2
    26          8
    27         79
    28         24
    29         21
    32          2
    37          4
    38         10
    39        153
    40         10
    41         48
    42          4
    43          2
    44          2
    45          1
    46          1
    48          1
    49          2
    50         38
    51        107
    52         26
    53         20
    54          0
    55          9
    56          1
    58          3
    59          2
    60          1
    61          4
    62         17
    63         64
    64         18
    65         89
    66          7
    67         10
    68         31
    69          4
    70          3
    71          4
    72          1
    73          2
    74         13
    75         15
    76         19
    77         79
    78         59
    79          7
    80          0
    82          0
    84          0
    85          1
    86          4
    87          6
    88          4
    89         37
    90          9
    91        291
    92         26
    93          4
    94          3
    95          2
    96          1
    98          1
    99          1
   100          1
   101          5
   102         28
   103         36
   104        307
   105         35
   106          1
   108          0
   109          0
   110          2
   111          2
   112          4
   113         25
   114         13
   115        374
   116         90
   117        999
   118         94
   119          4
   120          0
   123          0
   125          0
   126          2
   127         11
   128         34
   129         27
   130          7
   131         20
   132          2
   139          1
   140          0
   141          2
   142          1
   143          2
   144          2
   145          7
   146        206
   147         26
   148          2