##TITLE=Library Entry 40774
##JCAMP-DX=Revision 4.10 
##DATA TYPE=MASS SPECTRUM
##SAMPLE DESCRIPTION=Chemical Concepts
##NAMES=HP
##CAS NAME=3-(1-Ethoxy-ethoxy)-butan-1-ol
##MOLFORM=C8H18O3
##CAS REGISTRY NO=82614-87-7
##MP= -300
##BP= -300
##MW= 162
##$RETENTION INDEX=0
##$CONDENSED SPECTRUM=NO
##NPOINTS= 58
##XYDATA=(XY..XY) 1 
    26          3
    27         35
    29         73
    30          2
    31         43
    39         13
    40          3
    41         27
    42         26
    43        144
    44         30
    45        947
    46         24
    47         80
    48          1
    51          2
    53          4
    54          3
    55        399
    56         20
    57         25
    58          2
    59          4
    61         30
    63          2
    69          5
    70          2
    71         11
    72         21
    73        999
    74         52
    75        222
    76          7
    77          7
    85          4
    87          5
    89         30
    90          1
    99         31
   100          3
   101          6
   103         48
   104          3
   105         17
   106         13
   115          4
   116          2
   117        150
   118         10
   119          1
   120          2
   129         13
   130          1
   134         29
   135          3
   147         51
   148          6
   161          1