##TITLE=Library Entry 29190
##JCAMP-DX=Revision 4.10 
##DATA TYPE=MASS SPECTRUM
##SAMPLE DESCRIPTION=D.HENNEBERG, MAX-PLANCK INSTITUTE, MULHEIM, WEST GERMAN
Y
##NAMES=HP
##CAS NAME=1,3,5-Triazine-2,4,6(1H,3H,5H)-trione, 1,3,5-trimethyl-
##MOLFORM=C6H9N3O3
##CAS REGISTRY NO=827-16-7
##MP= -300
##BP= -300
##MW= 171
##$RETENTION INDEX=0
##$CONDENSED SPECTRUM=NO
##NPOINTS= 68
##XYDATA=(XY..XY) 1 
    27         50
    28        195
    29        151
    30         38
    31         19
    32          0
    36          1
    38          0
    39          3
    40          3
    41          6
    42         41
    43         15
    44          5
    45          0
    49          0
    50          2
    51          1
    55          6
    56        356
    57        155
    58        999
    59         56
    60          2
    68          1
    69          9
    70         44
    71          2
    72          0
    73          0
    75          0
    77          1
    78          0
    79          0
    81          1
    83          2
    84          2
    85         63
    86         44
    87          2
    95          1
    96          3
    97          0
    99          5
   102          0
   104          0
   106          0
   112          0
   113         40
   114         13
   115          2
   120          1
   126          0
   127          0
   128          1
   141          0
   142         90
   143        278
   144         16
   145          3
   149          1
   150          0
   167          0
   169          3
   170         12
   171        873
   172         68
   173          8