##TITLE=Library Entry 77515
##JCAMP-DX=Revision 4.10 
##DATA TYPE=MASS SPECTRUM
##SAMPLE DESCRIPTION=Japan AIST/NIMC Database- Spectrum MS-NW-3826
##NAMES=HP
##CAS NAME=Benzene, cyclohexyl-
##MOLFORM=C12H16
##CAS REGISTRY NO=827-52-1
##MP= -300
##BP= -300
##MW= 160
##$RETENTION INDEX=1318
##$CONDENSED SPECTRUM=NO
##NPOINTS= 94
##XYDATA=(XY..XY) 1 
    14          1
    15          3
    26          5
    27         53
    28          5
    29         32
    37          1
    38          6
    39         78
    40          8
    41        104
    42          7
    43          6
    44          2
    50         19
    51         57
    52         17
    53         27
    54         28
    55         29
    56          7
    57          6
    58          2
    61          1
    62          6
    63         27
    64         10
    65         55
    66          6
    67         68
    68         23
    69         51
    70          3
    71          3
    73          1
    74          7
    75          8
    76          9
    77         74
    78         88
    79         28
    80          5
    81         15
    82         55
    83          5
    86          2
    87          4
    88          1
    89         15
    90          6
    91        516
    92        214
    93         18
    94          1
    95          1
    98          1
    99          1
   101          3
   102         15
   103         68
   104        999
   105        140
   106         11
   107          1
   111          2
   113          2
   114          2
   115        103
   116         34
   117        799
   118        151
   119         16
   120          1
   126          1
   127          8
   128         17
   129         22
   130         11
   131         82
   132         27
   133          3
   135          1
   137          1
   141          2
   142          1
   143          3
   144          1
   145         13
   146          2
   158          1
   159          8
   160        697
   161         93
   162          6