##TITLE=Library Entry 89599
##JCAMP-DX=Revision 4.10 
##DATA TYPE=MASS SPECTRUM
##SAMPLE DESCRIPTION=M. VANDEWALLE
##NAMES=HP
##CAS NAME=1,3-Cyclopentanedione, 2-isopentyl-
##MOLFORM=C10H16O2
##CAS REGISTRY NO=827-03-2
##MP= -300
##BP= -300
##MW= 168
##$RETENTION INDEX=0
##$CONDENSED SPECTRUM=NO
##NPOINTS= 23
##XYDATA=(XY..XY) 1 
    41        220
    42         20
    43        100
    53         30
    56         60
    57         50
    65         30
    67         20
    68         20
    69         70
    70         50
    84         40
    98         70
    99        150
   111        380
   112        999
   113         70
   125        100
   139         10
   151         20
   153         50
   168        160
   169         20