##TITLE=Library Entry 34341
##JCAMP-DX=Revision 4.10 
##DATA TYPE=MASS SPECTRUM
##SAMPLE DESCRIPTION=NIST Mass Spectrometry Data Center
##NAMES=HP
##CAS NAME=6-Octenoic acid, 3,7-dimethyl-, 3,7-dimethyl-6-octenyl ester
##MOLFORM=C20H36O2
##CAS REGISTRY NO=82766-40-3
##MP= -300
##BP= -300
##MW= 308
##$RETENTION INDEX=2040
##$CONDENSED SPECTRUM=NO
##NPOINTS= 64
##XYDATA=(XY..XY) 1 
    27         17
    29         29
    39         43
    40         12
    41        435
    42         48
    43         94
    53         48
    54         16
    55        257
    56         63
    57         93
    58          7
    65         12
    66          7
    67        189
    68         94
    69        999
    70         90
    71         44
    79         25
    80         61
    81        418
    82        263
    83        183
    84         16
    85         10
    91          9
    92         10
    94         66
    95        290
    96         67
    97         43
    99          6
   101          7
   107         15
   108         17
   109        284
   110        120
   111         30
   113         19
   114         12
   115         14
   121         34
   122          8
   123        296
   124         33
   125          6
   135         17
   136         41
   137         23
   138        254
   139         29
   152         44
   153         54
   154          9
   155          5
   169          5
   170         16
   171          8
   307          1
   308         15
   309          4
   310          1