##TITLE=Library Entry 75928
##JCAMP-DX=Revision 4.10 
##DATA TYPE=MASS SPECTRUM
##SAMPLE DESCRIPTION=J.N. PIRL, DEP. PUBL. HEALTH, DIV. LAB., CHICAGO, ILL.,
 USA
##NAMES=HP
##CAS NAME=Ethyl N-(2-methoxyethyl)alaninate
##MOLFORM=C8H17NO3
##CAS REGISTRY NO=82772-78-9
##MP= -300
##BP= -300
##MW= 175
##$RETENTION INDEX=0
##$CONDENSED SPECTRUM=NO
##NPOINTS= 13
##XYDATA=(XY..XY) 1 
    42        164
    43        107
    44        157
    45         80
    56        565
    57         79
    58        103
    59        263
    70        500
   102        999
   103        116
   130        237
   175         10