##TITLE=Library Entry 44909
##JCAMP-DX=Revision 4.10 
##DATA TYPE=MASS SPECTRUM
##SAMPLE DESCRIPTION=A.A.Kutin, Moscow, Russia
##NAMES=HP
##CAS NAME=1,3,4-Thiadiazol-2-amine, 5-(2-chlorophenyl)-
##MOLFORM=C8H6ClN3S
##CAS REGISTRY NO=828-81-9
##MP= -300
##BP= -300
##MW= 211
##$RETENTION INDEX=0
##$CONDENSED SPECTRUM=NO
##NPOINTS= 139
##XYDATA=(XY..XY) 1 
    33          6
    34          3
    35          3
    36         11
    37         19
    38         24
    39         40
    40          6
    41          8
    42         26
    43          7
    44         10
    45         30
    46          7
    47         41
    48          5
    49         17
    50         68
    51         47
    52          8
    53          1
    54          0
    55          0
    56          1
    57          3
    58          8
    59         19
    60        106
    61         24
    62         45
    63         43
    64         11
    65          2
    66          1
    67          1
    69         52
    70         10
    71          5
    74        999
    75        139
    76         73
    77         13
    79         10
    81         12
    82          6
    83          3
    84          9
    85         16
    86         14
    87         17
    88         14
    89         67
    90         25
    91          4
    92          4
    93         26
    94         15
    95          3
    96          3
    97          8
    98          3
    99          7
   100          7
   102         84
   103         11
   104          3
   105         15
   106          7
   108          8
   109          2
   111         68
   112          7
   113         19
   114          2
   115          1
   116          3
   117          9
   118          3
   119         18
   120         49
   121          8
   122          4
   123         14
   124          9
   125         24
   126          4
   127          7
   128          1
   129          1
   130          0
   131          0
   133         11
   134         24
   135          3
   137         62
   138        200
   139         34
   140         63
   141          5
   142          2
   143          1
   144          1
   145          0
   146          0
   147          0
   148          0
   149          1
   150          0
   152         29
   153          4
   154         16
   155        118
   156         12
   157         41
   158          3
   159          1
   160          0
   167          1
   169         62
   170          6
   171         20
   172          2
   173          0
   176          0
   177          0
   178          0
   195          1
   196          0
   197          0
   199          0
   205          0
   206          0
   207          0
   211        420
   212         48
   213        139
   214         13
   215          6
   216          0