##TITLE=Library Entry 97293
##JCAMP-DX=Revision 4.10 
##DATA TYPE=MASS SPECTRUM
##SAMPLE DESCRIPTION=Chemical Concepts
##NAMES=HP
##CAS NAME=Hex-1-enylbenzene
##MOLFORM=C12H16
##CAS REGISTRY NO=828-15-9
##MP= -300
##BP= -300
##MW= 160
##$RETENTION INDEX=0
##$CONDENSED SPECTRUM=NO
##NPOINTS= 84
##XYDATA=(XY..XY) 1 
    26          2
    27         33
    28          4
    29         14
    37          1
    38          4
    39         57
    40          5
    41         36
    42          2
    43          9
    44          3
    50         16
    51         47
    52         13
    53         16
    54          2
    55          7
    56          1
    57          3
    58          1
    61          1
    62          7
    63         30
    64          8
    65         46
    66          4
    67         14
    68          7
    69         13
    70          2
    71          2
    73          1
    74          6
    75          9
    76         13
    77         51
    78         35
    79          8
    81          2
    82         15
    83          2
    85          1
    86          2
    87          4
    88          2
    89         27
    90          5
    91        226
    92         38
    93          2
    94          2
    95          1
    98          1
   101          4
   102         24
   103         33
   104        494
   105         53
   106          3
   107          1
   110          1
   113          5
   114          5
   115        230
   116         73
   117        999
   118         97
   119          7
   126          2
   127         13
   128         31
   129         31
   130         11
   131         43
   132         10
   133          1
   142          2
   143          1
   145          3
   159          1
   160        271
   161         36
   162          2