##TITLE=Library Entry 86596
##JCAMP-DX=Revision 4.10 
##DATA TYPE=MASS SPECTRUM
##SAMPLE DESCRIPTION=NIST Mass Spectrometry Data Center, 1994
##NAMES=HP
##CAS NAME=Phenol, 4-(trifluoromethoxy)-
##MOLFORM=C7H5F3O2
##CAS REGISTRY NO=828-27-3
##MP= -300
##BP= -300
##MW= 178
##$RETENTION INDEX=0
##$CONDENSED SPECTRUM=NO
##NPOINTS= 66
##XYDATA=(XY..XY) 1 
    17          2
    18          2
    19          2
    25         24
    26        164
    27        263
    28         11
    29         67
    30          4
    31         20
    32          3
    36          4
    37         45
    38         79
    39        118
    40          7
    41          3
    42         17
    43          0
    46          9
    47         23
    48          3
    49         22
    50        116
    51        117
    52        135
    53        411
    54        102
    55         75
    56          4
    57         28
    60          7
    61         41
    62         62
    63         92
    64         37
    65         74
    66         14
    67          9
    68          4
    69        441
    70          5
    73          6
    74          6
    75         12
    77          4
    79         18
    81        750
    82         55
    83         45
    84          7
    91          2
    92          8
    93        128
    94          8
    95          7
   101         17
   109        999
   110         64
   111         11
   112          5
   149         15
   159          8
   178        875
   179         77
   180          5