##TITLE=Library Entry 62399
##JCAMP-DX=Revision 4.10 
##DATA TYPE=MASS SPECTRUM
##SAMPLE DESCRIPTION=Japan AIST/NIMC Database- Spectrum MS-IW-3154
##NAMES=HP
##CAS NAME=dl-.beta.-Phenyllactic acid
##MOLFORM=C9H10O3
##CAS REGISTRY NO=828-01-3
##MP= -300
##BP= -300
##MW= 166
##$RETENTION INDEX=0
##$CONDENSED SPECTRUM=NO
##NPOINTS= 58
##XYDATA=(XY..XY) 1 
    17          1
    18          4
    19          2
    27          6
    28          4
    29          9
    37          1
    38          4
    39         32
    40          3
    41          9
    43          6
    44          2
    45          6
    46          1
    50         12
    51         35
    52          7
    53          4
    55          1
    60          1
    61          2
    62          6
    63         20
    64          5
    65         85
    66          6
    74          4
    75          4
    76          3
    77         51
    78         21
    79         13
    86          1
    87          1
    89         15
    90          8
    91        999
    92         95
    93          9
   102          6
   103         81
   104          9
   105          1
   107          1
   119          2
   120          9
   121         52
   122          5
   130          1
   131          4
   132          1
   147         35
   148        183
   149         17
   150          1
   166         79
   167          8