##TITLE=Library Entry 44653
##JCAMP-DX=Revision 4.10 
##DATA TYPE=MASS SPECTRUM
##SAMPLE DESCRIPTION=AP-2136
##NAMES=HP
##CAS NAME=1,3,5-Trithiane, 2,2,4,4,6,6-hexamethyl-
##MOLFORM=C9H18S3
##CAS REGISTRY NO=828-26-2
##MP= -300
##BP= -300
##MW= 222
##$RETENTION INDEX=0
##$CONDENSED SPECTRUM=NO
##NPOINTS= 54
##XYDATA=(XY..XY) 1 
    31         14
    32         15
    34          4
    35          1
    37          3
    38          7
    39         23
    40          3
    41         32
    42          8
    43         15
    44          4
    45         65
    46          6
    47         30
    55          5
    56          1
    57         17
    58         33
    59        213
    60         26
    61         27
    64         20
    66         17
    67         13
    69          4
    71          6
    72          1
    73         27
    74        999
    75        117
    76         51
    77          6
    83         13
    99          1
   101          5
   106          4
   113          3
   115          5
   116         43
   117         10
   118          2
   133          7
   138         47
   139          2
   140          6
   148        184
   149         17
   150         19
   151          1
   157          4
   222        139
   223         13
   224          2