##TITLE=Library Entry 66972
##JCAMP-DX=Revision 4.10 
##DATA TYPE=MASS SPECTRUM
##SAMPLE DESCRIPTION=CARL DJERASSI DEPT OF CHEM STANFORD UNIV STANFORD CALIF
 94305
##NAMES=HP
##CAS NAME=Methane, isopropoxyphenoxy-
##MOLFORM=C10H14O2
##CAS REGISTRY NO=828-12-6
##MP= -300
##BP= -300
##MW= 166
##$RETENTION INDEX=0
##$CONDENSED SPECTRUM=NO
##NPOINTS= 24
##XYDATA=(XY..XY) 1 
    40         49
    41        118
    42         29
    43        316
    44         19
    45         19
    50         39
    51        118
    55         19
    63         29
    65         99
    66         99
    73         79
    77        158
    78         29
    79         29
    94        999
    95         69
   107        118
   108          9
   136         59
   137          9
   166         69
   167          9