##TITLE=Library Entry 6834
##JCAMP-DX=Revision 4.10 
##DATA TYPE=MASS SPECTRUM
##SAMPLE DESCRIPTION=RADIAN CORP
##NAMES=HP
##CAS NAME=Dimethoxane
##MOLFORM=C8H14O4
##CAS REGISTRY NO=828-00-2
##MP= -300
##BP= -300
##MW= 174
##$RETENTION INDEX=0
##$CONDENSED SPECTRUM=NO
##NPOINTS= 61
##XYDATA=(XY..XY) 1 
    15         22
    19          3
    26         10
    27         46
    29        104
    30          3
    31          7
    37          3
    38          7
    39         71
    40         17
    41        120
    42        223
    43        999
    44         62
    45        333
    46          8
    47          6
    50          2
    51          3
    53          1
    54          1
    55          6
    57          7
    58          4
    59          2
    60          5
    61         71
    62          2
    67          2
    68          2
    69         28
    70         18
    71        194
    72         12
    73         10
    81          1
    84          2
    85          2
    86         73
    87         92
    88          6
    89         22
   102          1
   103          2
   105         10
   113        124
   114         39
   115         80
   116          6
   117         58
   118          3
   129          3
   130          2
   131         48
   132          3
   133         12
   159         83
   160          7
   173         16
   174          1