##TITLE=Library Entry 13167
##JCAMP-DX=Revision 4.10 
##DATA TYPE=MASS SPECTRUM
##SAMPLE DESCRIPTION=A.A.Kutin, Moscow, Russia
##NAMES=HP
##CAS NAME=Thieno[3,4-d]-1,3-dioxole, tetrahydro-2,2-dimethyl-, 5,5-dioxide
##MOLFORM=C7H12O4S
##CAS REGISTRY NO=82813-85-2
##MP= -300
##BP= -300
##MW= 192
##$RETENTION INDEX=0
##$CONDENSED SPECTRUM=NO
##NPOINTS= 126
##XYDATA=(XY..XY) 1 
    33          2
    34          2
    35          0
    36          0
    37          2
    39        111
    40         26
    41         97
    43        999
    44         38
    45         20
    46          5
    47          3
    48         11
    49          2
    50          4
    51          6
    52          4
    53         36
    54         17
    55         44
    56          6
    57         41
    59        185
    61         15
    62          2
    63          4
    64          7
    65          5
    66          1
    67          2
    68          2
    69          8
    70          8
    71         38
    72          5
    73          1
    74          0
    75          1
    76          0
    77          2
    78          1
    79          1
    80          1
    81          1
    82          1
    83          2
    85        135
    86          7
    87          1
    89          2
    90          0
    91          1
    92          0
    93          0
    94          0
    95          1
    96          0
    97          6
    98          1
    99          2
   100          0
   101          0
   102          0
   103          0
   105          0
   106          0
   107          1
   108          0
   109          0
   110          0
   111          0
   112          1
   113          2
   114          0
   115          0
   117          4
   118          0
   119          0
   120          0
   121          0
   122          0
   123          1
   124          0
   125          0
   126          0
   127          0
   128          0
   129          0
   133          0
   134          0
   135          1
   136          0
   137          0
   138          0
   139          0
   140          0
   141          0
   142          0
   143          0
   144          0
   145          0
   147          0
   149          0
   150          0
   151          0
   152          0
   153          0
   155          0
   156          0
   157          0
   161          0
   162          0
   163          0
   170          0
   171          1
   172          0
   177        304
   178         23
   179         15
   180          1
   181          0
   183          0
   189          0
   193          0
   199          0