##TITLE=Library Entry 84035
##JCAMP-DX=Revision 4.10 
##DATA TYPE=MASS SPECTRUM
##SAMPLE DESCRIPTION=V.A.Korolev, Moscow, Russia
##NAMES=HP
##CAS NAME=1-[(2-Bromoethane)sulfonyl]butane
##MOLFORM=C6H13BrO2S
##CAS REGISTRY NO=82811-10-7
##MP= -300
##BP= -300
##MW= 228
##$RETENTION INDEX=0
##$CONDENSED SPECTRUM=NO
##NPOINTS= 87
##XYDATA=(XY..XY) 1 
    29        214
    30         18
    35          4
    36          2
    37         13
    39        232
    41        423
    42         11
    43        307
    44         14
    45        105
    46         35
    47         40
    48        114
    49         31
    50         34
    51         29
    52         12
    53         59
    55        298
    56        422
    57        120
    58        379
    59          3
    60         11
    61          9
    63         85
    64         48
    65         95
    66         25
    67          6
    69         10
    71          4
    73          2
    75         10
    76          8
    77          9
    79         24
    80        132
    81         26
    82         24
    83         14
    84          5
    85         34
    86          1
    89          4
    91          3
    92          1
    93         53
    95         16
   106         47
   107        999
   108         18
   109        989
   110         17
   121        453
   122         29
   123         25
   127         12
   129         12
   135         12
   136          3
   137         11
   138          1
   145         13
   147         14
   149        409
   150         31
   151         20
   155         15
   157         15
   171          5
   172        148
   173         15
   174        153
   175         16
   176          8
   177          5
   186          2
   188          2
   213         25
   215         26
   228        108
   229          8
   230        111
   231          8
   232          5