##TITLE=Library Entry 81437
##JCAMP-DX=Revision 4.10 
##DATA TYPE=MASS SPECTRUM
##SAMPLE DESCRIPTION=Chemical Concepts
##NAMES=HP
##CAS NAME=Cyclopentanecarboxylic acid, 3-methylene-5-prop-2-enoic acid, dim
ethyl ester-
##MOLFORM=C12H16O4
##CAS REGISTRY NO=82823-81-2
##MP= -300
##BP= -300
##MW= 224
##$RETENTION INDEX=0
##$CONDENSED SPECTRUM=NO
##NPOINTS= 109
##XYDATA=(XY..XY) 1 
    26         20
    27        210
    28         55
    29         41
    30          7
    31         27
    33         10
    38         19
    39        230
    40         49
    41        120
    42          9
    43         33
    44          5
    45         62
    50         44
    51        141
    52         94
    53        174
    54         30
    55        243
    56         11
    57          7
    58          5
    59        268
    60          8
    61          6
    62          9
    63         34
    64         13
    65        104
    66         73
    67         44
    68         26
    69         21
    71         10
    74          8
    75         13
    76          8
    77        256
    78        169
    79        301
    80         40
    81         61
    82         15
    83         17
    85         16
    87         36
    89          8
    90          8
    91        240
    92         51
    93         47
    94         13
    95         14
    96          7
    97         21
    98         28
   101          9
   102         10
   103        116
   104        258
   105        999
   106        119
   107         50
   108          9
   109         13
   110          8
   111         56
   112         17
   113         10
   115         14
   117          9
   118         15
   119         32
   120          8
   121         35
   122         19
   123         19
   124          7
   125         12
   130          7
   131        155
   132        450
   133        332
   134         36
   135         11
   136         32
   137         19
   138          8
   139         12
   140          6
   141          7
   145          5
   147         17
   149         62
   150         34
   151          9
   159         10
   160         71
   161         12
   162          5
   163         45
   164        785
   165        205
   166         22
   192        337
   193        110
   194         14