##TITLE=Library Entry 82074
##JCAMP-DX=Revision 4.10 
##DATA TYPE=MASS SPECTRUM
##SAMPLE DESCRIPTION=Z.H. HUANG, CHIN. ACAD. SCI., SHANGHAI, CHINA
##NAMES=HP
##CAS NAME=12-Acetoxydaphnetoxin
##MOLFORM=C29H32O10
##CAS REGISTRY NO=82870-43-7
##MP= -300
##BP= -300
##MW= 540
##$RETENTION INDEX=0
##$CONDENSED SPECTRUM=NO
##NPOINTS= 20
##XYDATA=(XY..XY) 1 
   105        999
   253        540
   271        360
   281        710
   289        180
   299        260
   311        270
   317        330
   322        190
   327        200
   340        150
   358        140
   359         80
   418         20
   449         30
   480         20
   481         20
   491        110
   509         90
   540        280