##TITLE=Library Entry 16688
##JCAMP-DX=Revision 4.10 
##DATA TYPE=MASS SPECTRUM
##SAMPLE DESCRIPTION=A.Pleshkova, Nesmeyanov Inst.Org.Elem.Cpds, Moscow
##NAMES=HP
##CAS NAME=Bis-(ethoxycarbonyl)methoxymethyloxyiminomethane
##MOLFORM=C9H15NO6
##CAS REGISTRY NO=82874-81-5
##MP= -300
##BP= -300
##MW= 233
##$RETENTION INDEX=0
##$CONDENSED SPECTRUM=NO
##NPOINTS= 19
##XYDATA=(XY..XY) 1 
    28         81
    29        132
    30         12
    31         24
    45        999
    46         32
    59         48
    86         16
    89         17
   115         12
   129         18
   133         15
   143          8
   147         14
   161          4
   175         13
   188         15
   203          8
   233          6