##TITLE=Library Entry 58685
##JCAMP-DX=Revision 4.10 
##DATA TYPE=MASS SPECTRUM
##SAMPLE DESCRIPTION=Leung Pu, NIH, Bethesda, Maryland, U.S.
##NAMES=HP
##CAS NAME=4-[4-Nitrophenyl]-1,2,3-thiadiazole
##MOLFORM=C8H5N3O2S
##CAS REGISTRY NO=82894-98-2
##MP= -300
##BP= -300
##MW= 207
##$RETENTION INDEX=0
##$CONDENSED SPECTRUM=NO
##NPOINTS= 65
##XYDATA=(XY..XY) 1 
    44          3
    45        118
    46        103
    47          4
    49          4
    50        125
    51         90
    52          6
    53          5
    57         26
    58         10
    59          4
    61         43
    62        105
    63        262
    64         20
    65         10
    66         13
    69        118
    70         13
    71         14
    73         13
    74         87
    75         81
    76         27
    77         97
    78          5
    81         54
    82         80
    83         21
    84          5
    85         19
    86         36
    87         42
    89        999
    90         60
    92          1
    93        108
    94         14
    95         29
    97          7
    98         20
    99         10
   101         16
   105         18
   106         37
   107         14
   117          5
   120          1
   121        227
   122         14
   123         15
   132         50
   133        211
   134         21
   135         11
   149        478
   150         41
   151         23
   179        545
   180         47
   181         28
   207        143
   208         17
   209          8