##TITLE=Library Entry 15673
##JCAMP-DX=Revision 4.10 
##DATA TYPE=MASS SPECTRUM
##SAMPLE DESCRIPTION=V.A.Korolev, Moscow, Russia
##NAMES=HP
##CAS NAME=Levonordefrin
##MOLFORM=C9H13NO3
##CAS REGISTRY NO=829-74-3
##MP= -300
##BP= -300
##MW= 183
##$RETENTION INDEX=0
##$CONDENSED SPECTRUM=NO
##NPOINTS= 98
##XYDATA=(XY..XY) 1 
    34          3
    37          4
    38         23
    39        148
    40         59
    41         69
    42        214
    43        112
    44        999
    45        106
    46         10
    48          1
    50         20
    51         50
    52         29
    53         66
    54         17
    55         70
    56         17
    57         21
    58          5
    59          7
    60          5
    61          7
    62         18
    63         51
    64         47
    65        254
    66         32
    67         10
    68          5
    69          7
    70          6
    71          2
    72          6
    73          5
    74          1
    75          4
    76          4
    77         23
    78          8
    79         13
    80          7
    81         51
    82         22
    83          3
    85          1
    89          5
    91         23
    92         13
    93        194
    94         22
    95          6
    96          2
    97          2
    98          1
   101          1
   102          2
   103          6
   104          5
   105          5
   106          2
   107          8
   108          3
   109         24
   110         30
   111         50
   112          4
   113          1
   116          1
   117          2
   118          9
   119          5
   120          4
   121          3
   122          8
   123         15
   124          1
   125          2
   127          1
   130          1
   132          6
   133          1
   134          1
   136          2
   137         64
   138         21
   139         35
   140         15
   144          1
   146          8
   147          2
   149          4
   150          3
   151          2
   166          2
   183         68
   184          6