##TITLE=Library Entry 60625
##JCAMP-DX=Revision 4.10 
##DATA TYPE=MASS SPECTRUM
##SAMPLE DESCRIPTION=F. TURECEK,HEYROVSKY INST PHYS CHEM & ELECTROCHEM,PRAGU
E,CZECH
##NAMES=HP
##CAS NAME=(7R)-cis-bicyclo[4.3.0]-3-nonen-7-ol
##MOLFORM=C9H14O
##CAS REGISTRY NO=82934-92-7
##MP= -300
##BP= -300
##MW= 138
##$RETENTION INDEX=0
##$CONDENSED SPECTRUM=NO
##NPOINTS= 52
##XYDATA=(XY..XY) 1 
    27        110
    29         70
    38         20
    39        180
    41        150
    42         20
    43         40
    50         30
    51         70
    52         70
    53         80
    54         70
    55         90
    56         20
    57         70
    58         20
    63         20
    65         70
    66        120
    67        100
    68         20
    69         30
    77        210
    78        230
    79        740
    80        100
    81        100
    82         20
    83         80
    84         10
    90         30
    91        999
    92        980
    93        130
    94         50
    95         30
    96         20
   103         10
   105        220
   106         20
   107         20
   108         20
   109         20
   117         40
   118         50
   119         90
   120        970
   121        100
   136        120
   137         20
   138         20
   139          3