##TITLE=Library Entry 37784
##JCAMP-DX=Revision 4.10 
##DATA TYPE=MASS SPECTRUM
##SAMPLE DESCRIPTION=A.Pleshkova, Nesmeyanov Inst.Org.Elem.Cpds, Moscow
##NAMES=HP
##CAS NAME=2-(4-Methoxyphenyl)-1-(4-methylpiperazin-1-yl)-ethanone
##MOLFORM=C14H20N2O2
##CAS REGISTRY NO=82966-20-9
##MP= -300
##BP= -300
##MW= 248
##$RETENTION INDEX=0
##$CONDENSED SPECTRUM=NO
##NPOINTS= 61
##XYDATA=(XY..XY) 1 
    50         44
    51         99
    52         65
    53         32
    56        395
    57        190
    58        496
    59         85
    60         12
    61         52
    62         77
    63         60
    64         34
    65         72
    66          7
    70        999
    71        216
    72         53
    73          5
    77        172
    78        185
    79         26
    83        340
    84         25
    87        135
    88         38
    98         66
    99        467
   100         61
   101         73
   121        719
   122         79
   123          9
   126         13
   127        209
   128         22
   129          6
   134         47
   135        169
   136         19
   140         17
   148        125
   149        238
   150         26
   151          6
   161         14
   162         15
   190         26
   191         99
   192         19
   199         24
   200          3
   204         15
   205         14
   206          8
   207          1
   217          2
   218          2
   233          2
   248         97
   249         17