##TITLE=Library Entry 14239
##JCAMP-DX=Revision 4.10 
##DATA TYPE=MASS SPECTRUM
##SAMPLE DESCRIPTION=Asinex Ltd, Moscow, Russia
##NAMES=HP
##CAS NAME=2,4,6-Triisopropyl-benzenesulfonic acid phenyl ester
##MOLFORM=C21H28O3S
##CAS REGISTRY NO=82965-06-8
##MP= -300
##BP= -300
##MW= 360
##$RETENTION INDEX=0
##$CONDENSED SPECTRUM=NO
##NPOINTS= 82
##XYDATA=(XY..XY) 1 
    35         17
    37          6
    39         34
    40          8
    41        296
    42         79
    43        999
    44        307
    50          2
    53          6
    55         52
    56          2
    64          5
    65        230
    66         65
    69          8
    70          0
    73          1
    77         52
    79          2
    82          0
    83          7
    84          0
    86         23
    91        256
    92         97
    93         63
    94         51
    95          1
   103          1
   104          2
   105         94
   106         30
   115         30
   116          2
   117         75
   118         58
   119        173
   120         82
   127          2
   128         56
   129         49
   130         28
   131         14
   132          2
   133        155
   134         48
   135          0
   141          7
   142          4
   143          9
   144          0
   145         64
   146         11
   147         61
   149          9
   150          3
   159         32
   160          7
   161         12
   162          6
   173         63
   174          4
   175        294
   176        105
   187          7
   188          8
   189         34
   191          0
   203        100
   204         49
   217          0
   221          0
   232          1
   249          6
   250          3
   267        451
   268        170
   269         21
   270          3
   360         49
   361         12