##TITLE=Library Entry 70616
##JCAMP-DX=Revision 4.10 
##DATA TYPE=MASS SPECTRUM
##SAMPLE DESCRIPTION=W.ONKENHOUT,DEP. PHARM.,GORLAEUS LABS.,STATE UNIV. LEID
EN,NETH
##NAMES=HP
##CAS NAME=N-Acetyl-S-(4-oxocyclohexyl)-L-cysteine methyl ester
##MOLFORM=C12H19NO4S
##CAS REGISTRY NO=82971-47-9
##MP= -300
##BP= -300
##MW= 273
##$RETENTION INDEX=0
##$CONDENSED SPECTRUM=NO
##NPOINTS= 93
##XYDATA=(XY..XY) 1 
    42         70
    43        450
    44        100
    45         20
    47         10
    49         10
    54         10
    55        260
    56         30
    57         30
    59         30
    60        220
    61         10
    67         40
    68         40
    69        570
    70         40
    71         10
    73         10
    74         40
    75         10
    76         60
    79         40
    81         40
    83         10
    84         10
    85         40
    86        360
    87        110
    88        470
    89         30
    91        300
    92         20
    93         10
    95         30
    96        210
    97        999
    98         80
    99         30
   100         50
   101         70
   102         50
   107         20
   111         20
   112         20
   113         50
   115         10
   116         10
   117        200
   118        150
   119         20
   120         10
   121         20
   125         20
   126         30
   127         20
   129         20
   130         50
   131         40
   134        100
   135         10
   136         10
   137         10
   143        230
   144        160
   145        160
   148         20
   149         60
   152         10
   153         10
   154         70
   155        140
   156         20
   158         20
   162         10
   164         10
   166         10
   176        130
   177         50
   178        100
   180        310
   181        400
   182        200
   183         30
   185        100
   193         50
   196         30
   210         20
   214        980
   215        100
   216         40
   242        100
   243         10