##TITLE=Library Entry 8420
##JCAMP-DX=Revision 4.10 
##DATA TYPE=MASS SPECTRUM
##SAMPLE DESCRIPTION=Chemical Concepts
##NAMES=HP
##CAS NAME=1H-Imidazolecarboxylic acid-, (1-methylethyl) ester
##MOLFORM=C7H10N2O2
##CAS REGISTRY NO=82998-18-3
##MP= -300
##BP= -300
##MW= 154
##$RETENTION INDEX=0
##$CONDENSED SPECTRUM=NO
##NPOINTS= 92
##XYDATA=(XY..XY) 1 
    25          1
    26         13
    27        122
    28         12
    29         20
    30          1
    31         10
    36          3
    37          3
    38         11
    39         76
    40        184
    41        354
    42         46
    43        999
    44         39
    45         14
    50          2
    51          3
    52          4
    53          3
    54          4
    55         15
    56          8
    57         24
    58          3
    59         19
    60          2
    61          2
    62          1
    65          2
    66          4
    67         30
    68        574
    69         53
    70          7
    71          9
    73          2
    75          1
    76          2
    77          3
    78          2
    79          4
    80          2
    81          7
    82          5
    83          9
    84          3
    85          5
    87          3
    88          1
    89          1
    91          6
    92          2
    93          3
    94          2
    95        210
    96         13
    97          7
    98          2
    99          2
   103          1
   104          1
   105          2
   107          1
   108          1
   109          6
   110         18
   111          4
   112         12
   113          4
   115          2
   119          1
   121          1
   123          2
   124          1
   125          1
   128          1
   129          1
   130          1
   133          1
   134          1
   135          1
   137          1
   139          6
   143          0
   150          1
   152          1
   153          1
   154        137
   155         18
   156          2