##TITLE=Library Entry 22618
##JCAMP-DX=Revision 4.10 
##DATA TYPE=MASS SPECTRUM
##SAMPLE DESCRIPTION=Japan AIST/NIMC Database- Spectrum MS-NW-2902
##NAMES=HP
##CAS NAME=Ampyrone
##MOLFORM=C11H13N3O
##CAS REGISTRY NO=83-07-8
##MP= -300
##BP= -300
##MW= 203
##$RETENTION INDEX=1954
##$CONDENSED SPECTRUM=NO
##NPOINTS= 90
##XYDATA=(XY..XY) 1 
    14          1
    15        106
    16          1
    17          1
    18          4
    26          6
    27         22
    28         26
    29         25
    30         15
    31          1
    36          6
    37          5
    38         15
    39         26
    40          9
    41         19
    42        418
    43         19
    44          2
    45          2
    50         12
    51         55
    52         15
    53          9
    54         42
    55         27
    56        999
    57        643
    58         24
    61          1
    62          3
    63         15
    64         22
    65         20
    66          8
    67          6
    68          3
    69         10
    70          6
    71          2
    74          2
    75          3
    76          5
    77        103
    78          9
    79          1
    81          1
    82          7
    83        230
    84        712
    85         35
    86          1
    90          2
    91         24
    92         13
    93         45
    94          7
    97          2
    98          1
    99          1
   101          1
   103          2
   104          3
   105          5
   106          4
   109          7
   110          3
   111          2
   117          1
   118          4
   119         16
   120         11
   121          4
   130          1
   131          1
   132          1
   133          1
   145          2
   147          9
   148          4
   173          1
   174          2
   175          1
   188          1
   201          2
   202         32
   203        421
   204         53
   205          5