##TITLE=Library Entry 22630
##JCAMP-DX=Revision 4.10 
##DATA TYPE=MASS SPECTRUM
##SAMPLE DESCRIPTION=Japan AIST/NIMC Database- Spectrum MS-NW-6153
##NAMES=HP
##CAS NAME=Acetamide, N-antipyrinyl-
##MOLFORM=C13H15N3O2
##CAS REGISTRY NO=83-15-8
##MP= -300
##BP= -300
##MW= 245
##$RETENTION INDEX=2278
##$CONDENSED SPECTRUM=NO
##NPOINTS= 150
##XYDATA=(XY..XY) 1 
    13          1
    14          4
    15         75
    16          2
    26          6
    27         23
    28         32
    29         23
    30         21
    35          2
    36         10
    37          3
    38          9
    39         19
    40          8
    41         15
    42         92
    43        166
    44          9
    45          1
    46          1
    47          2
    49         12
    50          9
    51         37
    52         15
    53          9
    54         30
    55         30
    56        999
    57        287
    58         24
    61          1
    62          3
    63         11
    64         26
    65         21
    66          6
    67          9
    68          7
    69          8
    70          7
    71          4
    72          2
    73          2
    74          3
    75          3
    76          8
    77         70
    78         11
    79          3
    80          3
    81          5
    82         12
    83        301
    84        612
    85         32
    86         47
    87          3
    90          3
    91         36
    92         14
    93         37
    94          7
    95          2
    96          2
    97          3
    98          3
    99          2
   100          4
   101         12
   103          9
   104          8
   105          7
   106          7
   107          2
   108          3
   109         11
   110          7
   111          5
   115          1
   117          4
   118          9
   119         22
   120         13
   121          5
   123          1
   124          3
   125          2
   126         12
   127          3
   128          2
   129          2
   130          3
   131          3
   132          4
   133          2
   134          2
   135          2
   136          2
   137          9
   143          2
   144          3
   145          3
   146          2
   147          6
   148          6
   149          4
   152          3
   153          2
   154          1
   157          1
   158          2
   159          3
   160          2
   168          3
   169          2
   171          1
   172          1
   173          2
   174          4
   175          2
   176          2
   184          3
   185          2
   186          1
   187          1
   188          5
   196          2
   198          1
   200          2
   201          3
   202         76
   203        248
   204         30
   205          3
   215          2
   216          2
   225          1
   226          3
   227          3
   228          2
   229          9
   230         13
   231          3
   244          5
   245        581
   246         95
   247          9
   248          2