##TITLE=Library Entry 77573
##JCAMP-DX=Revision 4.10 
##DATA TYPE=MASS SPECTRUM
##SAMPLE DESCRIPTION=Japan AIST/NIMC Database- Spectrum MS-NW-3663
##NAMES=HP
##CAS NAME=1H-Inden-1-one, 2,3-dihydro-
##MOLFORM=C9H8O
##CAS REGISTRY NO=83-33-0
##MP= -300
##BP= -300
##MW= 132
##$RETENTION INDEX=1289
##$CONDENSED SPECTRUM=NO
##NPOINTS= 65
##XYDATA=(XY..XY) 1 
    14          2
    15          2
    18          1
    25          1
    26          9
    27         36
    28          5
    29          1
    36          2
    37         15
    38         25
    39         67
    40          4
    41          2
    42          3
    43          3
    44          1
    48          1
    49         13
    50        124
    51        207
    52         48
    53         12
    54          1
    55          6
    60          2
    61         14
    62         31
    63         83
    64         13
    65         14
    66          8
    72          1
    73         11
    74         57
    75         51
    76        142
    77        237
    78        300
    79         18
    84          1
    85          4
    86          7
    87          9
    88          2
    89         38
    90          9
    91          4
    97          2
    98          7
    99          2
   100          1
   101         11
   102         74
   103        421
   104        999
   105        100
   106          5
   115          3
   116          1
   130          2
   131        232
   132        975
   133         97
   134          7