##TITLE=Library Entry 15678
##JCAMP-DX=Revision 4.10 
##DATA TYPE=MASS SPECTRUM
##SAMPLE DESCRIPTION=A.A.Kutin, Moscow, Russia
##NAMES=HP
##CAS NAME=Imidazole-4,5-dicarboxamide
##MOLFORM=C5H6N4O2
##CAS REGISTRY NO=83-39-6
##MP= -300
##BP= -300
##MW= 154
##$RETENTION INDEX=0
##$CONDENSED SPECTRUM=NO
##NPOINTS= 63
##XYDATA=(XY..XY) 1 
    33          4
    35          5
    36         37
    38        157
    39        442
    40        366
    41        241
    42        122
    44        999
    45        118
    51         25
    52         29
    53         53
    54         66
    55        220
    56         61
    57         75
    64         37
    65        107
    66        229
    67        604
    68        526
    69         81
    70         21
    71         38
    72          5
    77         11
    80         24
    81         32
    82         28
    83         47
    84         62
    85         35
    91         14
    92         31
    94        445
    95        283
    96         25
    97         20
    99          6
   108         11
   109         72
   110         67
   111        154
   112        389
   113         12
   118          6
   120        317
   121         84
   122          3
   123          6
   124          7
   125          4
   126          9
   135          3
   136         10
   137         26
   138         12
   141          3
   151         10
   154        485
   155         43
   156         28