##TITLE=Library Entry 20820
##JCAMP-DX=Revision 4.10 
##DATA TYPE=MASS SPECTRUM
##SAMPLE DESCRIPTION=NIST Mass Spectrometry Data Center
##NAMES=HP
##CAS NAME=Stigmasterol
##MOLFORM=C29H48O
##CAS REGISTRY NO=83-48-7
##MP= -300
##BP= -300
##MW= 412
##$RETENTION INDEX=3170
##$CONDENSED SPECTRUM=NO
##NPOINTS= 293
##XYDATA=(XY..XY) 1 
    15          4
    25          1
    26          4
    27         38
    28          9
    29         74
    30          2
    31          6
    37          2
    38          3
    39         39
    40         10
    41        350
    42         25
    43        431
    44         19
    45          7
    50          3
    51          8
    52          4
    53         79
    54         20
    55        999
    56         57
    57        191
    58         11
    59          7
    61          1
    62          1
    63          4
    64          1
    65         42
    66         17
    67        342
    68         52
    69        636
    70         58
    71         98
    72          7
    73          9
    75          3
    77        145
    78         34
    79        392
    80         58
    81        638
    82        113
    83        692
    84         92
    85         65
    86          5
    87          2
    89          3
    91        427
    92         82
    93        384
    94         91
    95        398
    96        111
    97        394
    98         39
    99          7
   100          4
   102          3
   103         29
   104         24
   105        427
   106         81
   107        366
   108         76
   109        249
   110         99
   111         55
   112         10
   113          3
   114          5
   115         51
   116         25
   117        162
   118         53
   119        300
   120        113
   121        217
   122         79
   123        264
   124         74
   125         26
   126          8
   127         13
   128         52
   129         97
   130         51
   131        223
   132         67
   133        444
   134         86
   135        178
   136         28
   137        127
   138         36
   139         55
   140          9
   141         34
   142         31
   143        158
   144         70
   145        397
   146         89
   147        306
   148         54
   149        102
   150         18
   151        156
   152         25
   153         10
   154          8
   155         32
   156         25
   157        125
   158         90
   159        418
   160         87
   161        175
   162         40
   163        136
   164         27
   165         24
   166         37
   167         11
   168          7
   169         30
   170         14
   171         79
   172         27
   173        125
   174         35
   175         88
   176         35
   177         60
   178         22
   179          8
   180         10
   181          7
   182          5
   183         27
   184         11
   185         78
   186         27
   187         74
   188         23
   189         44
   190         11
   191         24
   192          5
   193          4
   194          1
   195          3
   196          3
   197         36
   198         13
   199         87
   200         24
   201         42
   202         11
   203         25
   204          6
   205         15
   206          3
   209          3
   210          2
   211         41
   212         19
   213        125
   214         30
   215         70
   216         17
   217         35
   218          9
   219          7
   220          2
   223          2
   224          1
   225         25
   226          9
   227         33
   228         21
   229         54
   230         23
   231         42
   232         12
   233          7
   234          3
   235          1
   237          2
   238          2
   239         34
   240         17
   241         39
   242         12
   243         24
   244          7
   245         14
   246         10
   247          4
   248          1
   251          2
   253         49
   254         25
   255        240
   256         50
   257         30
   258         49
   259         13
   260          4
   266          1
   267         45
   268         12
   269         11
   270         45
   271        222
   272        125
   273         59
   274         10
   275          1
   281         26
   282         31
   283         34
   284         10
   285         48
   286         15
   287          3
   288          1
   289          1
   293          1
   294          1
   295          8
   296          8
   297          3
   298          2
   299         46
   300        147
   301         44
   302          9
   303          1
   309         15
   310          5
   311          3
   312          3
   313         12
   314         43
   315         11
   316          2
   323          1
   326          1
   327         15
   328          6
   329          2
   335          1
   336          1
   339          2
   340          2
   342          1
   349          1
   350          1
   351         91
   352         29
   353          6
   354          2
   365          5
   366          2
   367          1
   368          2
   369         47
   370         16
   371          2
   379         36
   380         12
   381          3
   383          4
   384          1
   392          1
   393          1
   394         24
   395          9
   396          3
   397         29
   398          8
   399          2
   410          2
   411          1
   412        283
   413         92
   414         14