##TITLE=Library Entry 7212
##JCAMP-DX=Revision 4.10 
##DATA TYPE=MASS SPECTRUM
##SAMPLE DESCRIPTION=Chemical Concepts
##NAMES=HP
##CAS NAME=.gamma.-Sitosterol
##MOLFORM=C29H50O
##CAS REGISTRY NO=83-47-6
##MP= -300
##BP= -300
##MW= 414
##$RETENTION INDEX=3321
##$CONDENSED SPECTRUM=NO
##NPOINTS= 297
##XYDATA=(XY..XY) 1 
    26          7
    27         66
    28          5
    29        193
    30          5
    31          8
    38          2
    39         47
    40          9
    41        507
    42         40
    43        999
    44         29
    45          4
    50          2
    51          6
    52          3
    53         66
    54         13
    55        667
    56         45
    57        563
    58         23
    59          5
    60          2
    61          1
    63          3
    64          2
    65         28
    66         14
    67        281
    68         39
    69        362
    70         26
    71        292
    72         17
    73         17
    74          3
    75          5
    76          2
    77         91
    78         24
    79        267
    80         41
    81        481
    82         55
    83        187
    84         24
    85        225
    86         16
    87          4
    88          2
    89          3
    90          3
    91        267
    92         67
    93        290
    94         91
    95        449
    96         44
    97        147
    98         17
    99         40
   100          5
   101          3
   102          3
   103         16
   104         19
   105        313
   106         90
   107        440
   108        110
   109        220
   110         37
   111        110
   112         13
   113         12
   114          5
   115         22
   116         15
   117         89
   118         55
   119        227
   120        185
   121        223
   122         62
   123        120
   124         58
   125         81
   126         10
   127         12
   128         21
   129         48
   130         28
   131        146
   132         54
   133        213
   134         83
   135        195
   136         54
   137         64
   138         31
   139         24
   140          4
   141         16
   142         15
   143        105
   144         49
   145        321
   146         74
   147        181
   148         55
   149        124
   150         25
   151         47
   152         14
   153          7
   154          3
   155         11
   156          8
   157         71
   158         95
   159        215
   160        136
   161        227
   162         51
   163        189
   164         34
   165         26
   166          6
   167          4
   168          2
   169          9
   170          5
   171         65
   172         28
   173        113
   174         43
   175         56
   176         28
   177         61
   178         92
   179         31
   180          7
   181          3
   182          2
   183          9
   184          6
   185         65
   186         31
   187         71
   188         19
   189         36
   190         12
   191         58
   192         15
   193         11
   194          2
   197         14
   198          7
   199         80
   200         25
   201         43
   202         12
   203         21
   204          7
   205         43
   206          9
   207         27
   208          6
   209          5
   210          2
   211          9
   212          7
   213        239
   214         67
   215         53
   216         14
   217         25
   218         10
   219         22
   220          6
   221         16
   222          4
   225          4
   226          3
   227         38
   228         60
   229         65
   230         17
   231        143
   232         44
   233         26
   234         21
   235         12
   236          4
   238          5
   239          9
   240          4
   241         28
   242          8
   243          5
   244          3
   245         15
   246         29
   247         25
   248         14
   249          3
   253          5
   254          7
   255        165
   256         36
   257         12
   258          3
   259         11
   260          8
   261         13
   262          5
   263          2
   267          2
   269          6
   270          2
   271         10
   272         11
   273        127
   274         35
   275         55
   276         17
   277          3
   281         10
   282          3
   283         14
   284          4
   285          4
   287          9
   288         16
   289         17
   290          9
   296          2
   297          3
   299          4
   300          3
   301         12
   302         59
   303        245
   304         58
   305          7
   313          3
   314         12
   315         11
   316          6
   317          2
   325          1
   327          5
   328         17
   329        178
   330         48
   331          7
   339          7
   341         13
   342         13
   343          5
   344          4
   353          7
   354         30
   355         20
   356         10
   357         18
   358          5
   359          3
   364          6
   365          4
   366          3
   367         10
   368          8
   369          4
   370          7
   371          9
   372          4
   379          9
   381        150
   382         48
   383          9
   384          4
   385          7
   386          4
   393          3
   394          4
   396        199
   397         65
   399        145
   400         43
   401          8
   412          9
   414        354
   415        105
   416          1