##TITLE=Library Entry 46819
##JCAMP-DX=Revision 4.10 
##DATA TYPE=MASS SPECTRUM
##SAMPLE DESCRIPTION=NIST Mass Spectrometry Data Center, 1998.
##NAMES=HP
##CAS NAME=Benzene, 1,2-dimethyl-3-nitro-
##MOLFORM=C8H9NO2
##CAS REGISTRY NO=83-41-0
##MP= -300
##BP= -300
##MW= 151
##$RETENTION INDEX=1222
##$CONDENSED SPECTRUM=NO
##NPOINTS= 81
##XYDATA=(XY..XY) 1 
    15          2
    26          7
    27         65
    29          8
    30         43
    31          1
    37         10
    38         30
    39        194
    40         18
    41         34
    42          5
    43         10
    44          1
    46         20
    47          1
    49          8
    50        120
    51        281
    52         94
    53        124
    54         12
    55         10
    56          1
    60          2
    61         19
    62         62
    63        183
    64         42
    65        161
    66         37
    67         17
    68          2
    73          6
    74         49
    75         42
    76         47
    77        999
    78        334
    79        984
    80         78
    81          6
    82          1
    84          1
    85          4
    86         12
    87         13
    88          3
    89         70
    90         24
    91        167
    92         38
    93         16
    94          6
    95          2
    97          2
    98          8
    99          3
   100          1
   101          9
   102         72
   103        428
   104        132
   105        200
   106        443
   107         65
   108          5
   116          5
   117          4
   118          5
   119          6
   120          6
   121         12
   122          2
   132          2
   134        905
   135         87
   136          6
   151        177
   152         17
   153          1