##TITLE=Library Entry 21019
##JCAMP-DX=Revision 4.10 
##DATA TYPE=MASS SPECTRUM
##SAMPLE DESCRIPTION=D.HENNEBERG, MAX-PLANCK INSTITUTE, MULHEIM, WEST GERMAN
Y
##NAMES=HP
##CAS NAME=Hyodeoxycholic acid
##MOLFORM=C24H40O4
##CAS REGISTRY NO=83-49-8
##MP= -300
##BP= -300
##MW= 392
##$RETENTION INDEX=0
##$CONDENSED SPECTRUM=NO
##NPOINTS= 301
##XYDATA=(XY..XY) 1 
    27         87
    28         40
    29        322
    31         59
    39         68
    41        615
    42         42
    43        334
    45         66
    53        154
    54         39
    55        999
    56         64
    57        182
    59         93
    60        118
    65         46
    66         32
    67        545
    68        196
    69        275
    70         38
    71         55
    73         42
    77        144
    78         33
    79        417
    80         88
    81        577
    82         95
    83        211
    84         27
    85         75
    91        275
    92         61
    93        420
    94        187
    95        781
    96         94
    97         87
    99         23
   101         34
   105        269
   106         89
   107        305
   108        119
   109        191
   110         41
   111         34
   115         21
   117         66
   118         57
   119        170
   120         82
   121        177
   122         95
   123         98
   124         30
   125         38
   127         25
   128         19
   129         32
   130         16
   131        119
   132         49
   133        152
   134         73
   135        129
   136         34
   137         34
   138         18
   140         24
   141         23
   142         13
   143         66
   144         29
   145        157
   146         57
   147        127
   148         61
   149         75
   150         25
   151         23
   152         10
   155         11
   156          9
   157         61
   158         37
   159        142
   160         70
   161        103
   162         39
   163         45
   164         22
   165         14
   167          6
   168          4
   169         11
   170          5
   171         63
   172         54
   173        125
   174         59
   175         56
   176         21
   177         32
   178         16
   179         10
   180          5
   181         15
   182          5
   183         10
   184          6
   185         51
   186         28
   187         66
   188         35
   189         39
   190         16
   191         22
   192         10
   193          7
   194         15
   195         13
   196          8
   197         17
   198         10
   199         76
   200         31
   201         50
   202         18
   203         25
   204         13
   205          6
   206          3
   207          7
   208          6
   209          6
   210          4
   211         22
   212         12
   213        303
   214         99
   215         85
   216         44
   217         50
   218         17
   219         12
   220          4
   221          6
   222          7
   223          8
   224          3
   225          6
   226          6
   227         41
   228        132
   229         60
   230         14
   231        204
   232         83
   233         30
   234         23
   235         33
   236         17
   237          6
   238          6
   239          5
   240          3
   241         14
   242         11
   243          7
   244          8
   245         27
   246        142
   247         41
   248         27
   249         32
   250         12
   251          6
   252          3
   253          8
   254          5
   255         88
   256         21
   257          6
   258          2
   259          5
   260         13
   261         14
   262         26
   263         10
   264         14
   265          7
   266          3
   267          2
   268          1
   269          2
   270          1
   271         10
   272          4
   273         43
   274         15
   275         13
   276         12
   277          5
   278          7
   279          3
   280          8
   281          5
   282          1
   283         11
   284          3
   285          4
   286          2
   287          6
   288          6
   289          9
   290          7
   291          4
   292          1
   293          1
   294          0
   295          1
   296          1
   297          3
   298          1
   299         10
   300          7
   301         43
   302         30
   303          9
   304          2
   305          2
   306          3
   307          0
   308          0
   309          0
   311          1
   312          1
   313          7
   314          8
   315         38
   316         11
   317         10
   318          3
   319          9
   320          2
   321          1
   322          0
   323          7
   324          5
   325          2
   326          3
   327          6
   328          8
   329          5
   330          5
   331          4
   332          2
   333          1
   334          0
   335          0
   336          0
   337          3
   339         28
   341        114
   342         28
   343          8
   345          5
   346          5
   348          1
   349          1
   350          1
   351          1
   353          2
   354         14
   355         14
   356        323
   357         97
   358         18
   359        100
   360         25
   361          5
   362          1
   363          1
   364          0
   366          0
   368          0
   370          1
   371          1
   372         36
   373         11
   374        375
   375         98
   376         15
   377          1
   390         10
   391          2
   392          8
   393          1