##TITLE=Library Entry 7083
##JCAMP-DX=Revision 4.10 
##DATA TYPE=MASS SPECTRUM
##SAMPLE DESCRIPTION=Div. of Experiment Therapeutics WRAIR, WRAMC, Washingto
n DC 20307
##NAMES=HP
##CAS NAME=.beta.-Sitosterol
##MOLFORM=C29H50O
##CAS REGISTRY NO=83-46-5
##MP= -300
##BP= -300
##MW= 414
##$RETENTION INDEX=3200
##$CONDENSED SPECTRUM=NO
##NPOINTS= 184
##XYDATA=(XY..XY) 1 
    41        331
    43        999
    44         35
    45         28
    49          4
    51          9
    53         67
    55        355
    57        311
    59        101
    65         23
    67        187
    69        239
    70          8
    71        156
    72         12
    73         11
    77         83
    78          9
    79        233
    81        276
    83        110
    84         25
    85        115
    86         11
    87          4
    88          4
    91        186
    92         13
    93        192
    95        271
    96         10
    97        100
    98          5
    99         48
   101         23
   103         20
   105        248
   107        300
   108         55
   109        109
   110         23
   111         52
   113         33
   115         37
   117         89
   118         11
   119        154
   120         79
   121        123
   122         33
   123         68
   124         39
   125         36
   127         50
   128          8
   129         61
   131        131
   133        179
   134         31
   135        121
   136         27
   137         38
   138         17
   139         18
   141         28
   143        107
   145        194
   146         25
   147        112
   149         97
   151         44
   152         15
   155         30
   157         71
   158         35
   159        160
   160         22
   161        179
   163        117
   164         13
   165         22
   167         10
   169         24
   171         60
   173         82
   174         24
   175         39
   176          6
   177         46
   178         54
   179         19
   181          4
   183         16
   185         51
   186          6
   187         66
   188          4
   189         42
   191         44
   197         21
   199         56
   200          4
   201         38
   203         23
   205         31
   207          5
   211         19
   213        137
   214         23
   215         43
   217         24
   219          5
   221          7
   225          4
   227         27
   228         30
   229         37
   231         85
   232         16
   233         19
   234         10
   235          5
   239         19
   241         26
   243         13
   245         12
   246         16
   247         11
   253         15
   255         90
   256         18
   257         22
   259         11
   260          5
   261          5
   262          7
   269         14
   271         39
   272         12
   273         84
   274         15
   275         33
   277          5
   283         23
   285         10
   287          7
   288          9
   289         17
   298          6
   299         10
   300          9
   301         17
   302         38
   303        108
   304         19
   313          5
   314         22
   315         19
   316         20
   317          5
   318          4
   328         15
   329        102
   330         31
   341         10
   354         22
   355          6
   357         12
   359          5
   373          7
   381         62
   382         22
   386          6
   387          8
   396        103
   397         41
   399         81
   400         32
   412         28
   413         10
   414        273
   415         84
   416         15