##TITLE=Library Entry 3
##JCAMP-DX=Revision 4.10 
##DATA TYPE=MASS SPECTRUM
##SAMPLE DESCRIPTION=NIST Mass Spectrometry Data Center, 1990.
##NAMES=HP
##CAS NAME=Theobromine
##MOLFORM=C7H8N4O2
##CAS REGISTRY NO=83-67-0
##MP= -300
##BP= -300
##MW= 180
##$RETENTION INDEX=1910
##$CONDENSED SPECTRUM=NO
##NPOINTS= 49
##XYDATA=(XY..XY) 1 
    14         37
    15         97
    16          7
    26         18
    28         98
    29         10
    30          9
    38         21
    39         27
    40         73
    41         66
    42         71
    43         25
    44         11
    51         20
    52         34
    53         44
    54         57
    55        289
    56         26
    65         13
    66         62
    67        343
    68         43
    69         17
    70         64
    74          9
    77          6
    79         13
    80         23
    81         54
    82        230
    83         24
    94         30
    95         11
   107          7
   108         34
   109        241
   110         42
   111         36
   135         10
   136         46
   137        132
   138         18
   150          8
   151         14
   180        999
   181         95
   182         11