##TITLE=Library Entry 81484
##JCAMP-DX=Revision 4.10 
##DATA TYPE=MASS SPECTRUM
##SAMPLE DESCRIPTION=NIST Mass Spectrometry Data Center, 1990.
##NAMES=HP
##CAS NAME=1,4-Naphthalenedione, 2-hydroxy-
##MOLFORM=C10H6O3
##CAS REGISTRY NO=83-72-7
##MP= -300
##BP= -300
##MW= 174
##$RETENTION INDEX=1640
##$CONDENSED SPECTRUM=NO
##NPOINTS= 70
##XYDATA=(XY..XY) 1 
    13          6
    14         22
    25          3
    26          5
    27         10
    28          7
    29         16
    36          5
    37         31
    38         41
    39         45
    40         10
    41         38
    42         47
    43          7
    44          2
    45          9
    48          3
    49         34
    50        248
    51         91
    52         20
    53         37
    55          3
    59         76
    60          4
    61         27
    62         48
    63         94
    64         22
    65          7
    66         13
    69         99
    70          7
    71          2
    72          2
    73         41
    74        119
    75        106
    76        277
    77        327
    78         31
    79          3
    84          5
    85          9
    86         13
    87         12
    88         16
    89        160
    90         91
    91          9
    92          4
    97          2
    98         10
    99          4
   100          5
   101         48
   102          6
   105        999
   106         67
   107          2
   118         98
   119          9
   129         18
   130          2
   146        190
   147         20
   174        771
   175         89
   176         11