##TITLE=Library Entry 28554
##JCAMP-DX=Revision 4.10 
##DATA TYPE=MASS SPECTRUM
##SAMPLE DESCRIPTION=Tox21 Consortium/NIST Mass Spectrometry Data Center, 20
12
##NAMES=HP
##CAS NAME=Orphenadrine
##MOLFORM=C18H23NO
##CAS REGISTRY NO=83-98-7
##MP= -300
##BP= -300
##MW= 269
##$RETENTION INDEX=1943
##$CONDENSED SPECTRUM=NO
##NPOINTS= 92
##XYDATA=(XY..XY) 1 
    15          1
    27          1
    28          2
    29          3
    30          9
    39          4
    40          1
    41          3
    42         32
    43         10
    44         16
    45         51
    46         18
    50          2
    51          9
    52          2
    53          3
    54          1
    55          1
    56         14
    57         15
    58        999
    59         38
    62          1
    63          6
    64          2
    65         11
    66          1
    70          5
    71          5
    72         12
    73        192
    74         17
    75          2
    76          4
    77         21
    78          5
    79          2
    82          2
    86          3
    87          1
    88          5
    89         11
    90          3
    91         16
    92          2
   101          1
   102          4
   103          6
   104          3
   105          6
   106          1
   113          1
   114          1
   115         14
   116          2
   119          5
   120          1
   126          2
   127          4
   128          6
   129          2
   138          1
   139          6
   140          1
   141          7
   142          1
   146          1
   150          2
   151          6
   152         18
   153          9
   154          2
   160          1
   163          5
   164          7
   165        116
   166         66
   167         12
   168          1
   176          7
   177          6
   178         41
   179         36
   180         17
   181         32
   182          7
   183          1
   195          2
   196          4
   197          2
   241          1