##TITLE=Library Entry 28382
##JCAMP-DX=Revision 4.10 
##DATA TYPE=MASS SPECTRUM
##SAMPLE DESCRIPTION=Japan AIST/NIMC Database- Spectrum MS-NW-4529
##NAMES=HP
##CAS NAME=Cyclododecanone
##MOLFORM=C12H22O
##CAS REGISTRY NO=830-13-7
##MP= -300
##BP= -300
##MW= 182
##$RETENTION INDEX=1524
##$CONDENSED SPECTRUM=NO
##NPOINTS= 132
##XYDATA=(XY..XY) 1 
    14          1
    15         14
    16          1
    17          4
    18         18
    26         13
    27        248
    28         96
    29        324
    30          7
    31         11
    32          4
    34          2
    36          1
    37          1
    38          6
    39        238
    40         54
    41        915
    42        317
    43        415
    44         15
    45         12
    46          2
    47          4
    48          6
    49          1
    50          6
    51         15
    52          9
    53         89
    54        169
    55        939
    56        370
    57        175
    58        999
    59        302
    60         12
    61          1
    62          1
    63          4
    64          1
    65         17
    66         25
    67        228
    68        235
    69        435
    70        240
    71        964
    72         95
    73          9
    74          1
    75          1
    76          1
    77         16
    78         15
    79        102
    80        114
    81        241
    82        422
    83        349
    84        297
    85        113
    86         34
    87          4
    88          1
    89          1
    91         10
    92          7
    93         90
    94         79
    95        154
    96        200
    97        339
    98        577
    99         85
   100         58
   101          5
   104          1
   105          3
   106          2
   107         69
   108         73
   109         56
   110         34
   111        424
   112        138
   113         38
   114         50
   115          5
   116          1
   117          1
   119          1
   120          2
   121         70
   122        141
   123         33
   124        189
   125        248
   126         69
   127         33
   128          6
   129          1
   133          1
   134          1
   135         80
   136         19
   137          5
   138          9
   139        154
   140         28
   141         12
   142          1
   149         32
   150          4
   151          1
   153         28
   154         18
   155          2
   162          1
   163          2
   164         22
   165          3
   166          1
   167         26
   168          4
   169          1
   180          1
   181          2
   182        341
   183         49
   184          5