##TITLE=Library Entry 12234
##JCAMP-DX=Revision 4.10 
##DATA TYPE=MASS SPECTRUM
##SAMPLE DESCRIPTION=Japan AIST/NIMC Database- Spectrum MS-NW-3587
##NAMES=HP
##CAS NAME=Acetic acid, 4-nitrophenyl ester
##MOLFORM=C8H7NO4
##CAS REGISTRY NO=830-03-5
##MP= -300
##BP= -300
##MW= 181
##$RETENTION INDEX=1430
##$CONDENSED SPECTRUM=NO
##NPOINTS= 52
##XYDATA=(XY..XY) 1 
    14          6
    15         36
    26          6
    27          4
    28          9
    29          2
    30         24
    37          5
    38         22
    39         36
    40          1
    41          1
    42         17
    43        999
    44         21
    45          2
    49          1
    50         15
    51          8
    52          6
    53          7
    54          3
    55          1
    61          5
    62         13
    63         45
    64         26
    65         66
    66          4
    68          1
    73          1
    74          7
    75          7
    76          6
    77          2
    79          1
    80          1
    81         18
    82          1
    92          5
    93         38
    94          3
   107          3
   109         60
   110          4
   122          4
   123         25
   124          2
   139         86
   140          6
   181         38
   182          4