##TITLE=Library Entry 7536
##JCAMP-DX=Revision 4.10 
##DATA TYPE=MASS SPECTRUM
##SAMPLE DESCRIPTION=Zaikin V.G., TIPS RAS, Moscow, Russia
##NAMES=HP
##CAS NAME=Dichloroacetic acid, nonyl ester
##MOLFORM=C11H20Cl2O2
##CAS REGISTRY NO=83004-99-3
##MP= -300
##BP= -300
##MW= 254
##$RETENTION INDEX=1584
##$CONDENSED SPECTRUM=NO
##NPOINTS= 92
##XYDATA=(XY..XY) 1 
    25          2
    26         17
    27         91
    28          4
    29        189
    30          6
    31          4
    35          6
    36         50
    37          4
    38         22
    39         88
    40         24
    41        561
    42        246
    43        999
    44         56
    45          4
    47          6
    48         23
    49         11
    50         13
    51         10
    52          6
    53         35
    54         70
    55        855
    56        979
    57        718
    58         25
    59          2
    63          1
    65          7
    66          5
    67         71
    68        217
    69        713
    70        828
    71        644
    72         28
    73          4
    75          1
    76         71
    77         13
    78         26
    79         17
    80          3
    81         24
    82        153
    83        623
    84        393
    85        434
    86         22
    87         14
    91          4
    92          1
    93          6
    94          8
    95         15
    96         36
    97        343
    98        371
    99         25
   101          1
   105          1
   106          1
   107          1
   109          1
   110          3
   111         30
   112          4
   113         16
   114          1
   115          4
   124          4
   125          8
   126         67
   127          7
   128          2
   129         16
   130          1
   131         10
   133          1
   135          3
   141          3
   143          2
   155          1
   157          1
   169          3
   171         15
   172          1
   196          1