##TITLE=Library Entry 23995
##JCAMP-DX=Revision 4.10 
##DATA TYPE=MASS SPECTRUM
##SAMPLE DESCRIPTION=V.G.Zaikin, Petrochem. Synth. Inst., Moscow
##NAMES=HP
##CAS NAME=Acetic acid, dichloro-, heptyl ester
##MOLFORM=C9H16Cl2O2
##CAS REGISTRY NO=83004-97-1
##MP= -300
##BP= -300
##MW= 226
##$RETENTION INDEX=1375
##$CONDENSED SPECTRUM=NO
##NPOINTS= 53
##XYDATA=(XY..XY) 1 
    26         21
    27        138
    28         24
    29        226
    30          6
    31          7
    35          6
    36         39
    38         27
    39        135
    40         35
    41        518
    42        225
    43        528
    44        102
    45         11
    47         13
    48         35
    49         11
    50         22
    51         18
    52         11
    53         39
    54         46
    55        325
    56        449
    57        999
    58         42
    59          8
    65         11
    67         19
    68         77
    69        222
    70        403
    71         48
    72          7
    73          7
    75          6
    76         68
    77         10
    78         21
    79          6
    81         13
    82          8
    83        151
    84         11
    85         85
    86          6
    87          9
    97         15
    98         56
   111         15
   113         12