##TITLE=Library Entry 7734
##JCAMP-DX=Revision 4.10 
##DATA TYPE=MASS SPECTRUM
##SAMPLE DESCRIPTION=V.G.Zaikin, Petrochem. Synth. Inst., Moscow
##NAMES=HP
##CAS NAME=Dichloroacetic acid, tetradecyl ester
##MOLFORM=C16H30Cl2O2
##CAS REGISTRY NO=83005-02-1
##MP= -300
##BP= -300
##MW= 324
##$RETENTION INDEX=2085
##$CONDENSED SPECTRUM=NO
##NPOINTS= 85
##XYDATA=(XY..XY) 1 
    26         17
    27        121
    28         48
    29        275
    30          6
    31         11
    35         17
    36         29
    37         12
    38         12
    39        193
    40         42
    41        829
    42        239
    43        999
    44         49
    45         12
    47         16
    48         47
    49         21
    50         31
    51         31
    52         11
    53         75
    54        118
    55        911
    56        489
    57        930
    58         44
    62          3
    63          7
    65         20
    66         20
    67        139
    68        205
    69        707
    70        438
    71        465
    72         29
    76         79
    77         13
    78         29
    79         27
    80          6
    81         81
    82        248
    83        715
    84        288
    85        275
    86         18
    87         16
    91          9
    93          9
    94         28
    95         46
    96        105
    97        495
    98        144
    99         81
   100         11
   109         16
   110         48
   111        272
   112        111
   113         58
   124         27
   125        121
   126         65
   127         32
   128          6
   129          6
   131          8
   133          8
   138         12
   139         43
   140         38
   141         19
   153          8
   154         16
   155         11
   168         49
   169          8
   195         13
   196         31
   197          7