##TITLE=Library Entry 7730
##JCAMP-DX=Revision 4.10 
##DATA TYPE=MASS SPECTRUM
##SAMPLE DESCRIPTION=V.G.Zaikin, Petrochem. Synth. Inst., Moscow
##NAMES=HP
##CAS NAME=Dichloroacetic acid, dodecyl ester
##MOLFORM=C14H26Cl2O2
##CAS REGISTRY NO=83005-01-0
##MP= -300
##BP= -300
##MW= 296
##$RETENTION INDEX=1885
##$CONDENSED SPECTRUM=NO
##NPOINTS= 85
##XYDATA=(XY..XY) 1 
    26         19
    27        119
    28         54
    29        243
    30          9
    31          6
    35         12
    36         52
    37          8
    38         41
    39        168
    40         45
    41        708
    42        251
    43        999
    44        115
    45         11
    47          8
    48         29
    49         18
    50         25
    51         22
    52          8
    53         53
    54        106
    55        844
    56        589
    57        914
    58         59
    59          9
    63         12
    64          9
    65         12
    66         17
    67        102
    68        225
    69        719
    70        546
    71        431
    72         33
    73         12
    76         61
    77         18
    78         27
    79         16
    80          6
    81         55
    82        235
    83        647
    84        375
    85        252
    86         16
    87         19
    88          9
    91          8
    92          6
    93          8
    94         18
    95         31
    96         85
    97        421
    98        215
    99         83
   100         14
   101          6
   103          6
   104          6
   105          9
   109         15
   110         28
   111        235
   112        112
   113         61
   114          7
   115          8
   124         13
   125         61
   126         35
   127         18
   139         11
   140         80
   141         13
   167         11
   168         70
   169          7