##TITLE=Library Entry 7729
##JCAMP-DX=Revision 4.10 
##DATA TYPE=MASS SPECTRUM
##SAMPLE DESCRIPTION=V.G.Zaikin, Petrochem. Synth. Inst., Moscow
##NAMES=HP
##CAS NAME=Dichloroacetic acid, decyl ester
##MOLFORM=C12H22Cl2O2
##CAS REGISTRY NO=83005-00-9
##MP= -300
##BP= -300
##MW= 268
##$RETENTION INDEX=1684
##$CONDENSED SPECTRUM=NO
##NPOINTS= 58
##XYDATA=(XY..XY) 1 
    26         16
    27        135
    28         44
    29        259
    30          8
    36         33
    38         18
    39        163
    40         39
    41        661
    42        291
    43        999
    44         69
    45          9
    47          9
    48         41
    49         12
    50         17
    51         22
    52          9
    53         52
    54         82
    55        829
    56        667
    57        849
    58         35
    65         15
    66          8
    67         81
    68        216
    69        618
    70        691
    71        404
    72         25
    76         72
    77         13
    78         21
    81         26
    82        195
    83        571
    84        361
    85        329
    86         26
    87         13
    94         15
    95         15
    96         39
    97        271
    98        159
    99         57
   110         21
   111        122
   112        199
   113         17
   129         16
   131         11
   140         81
   141         16