##TITLE=Library Entry 37343
##JCAMP-DX=Revision 4.10 
##DATA TYPE=MASS SPECTRUM
##SAMPLE DESCRIPTION=V.Zaikin,Topchiev Inst.Petrochem.Synth.,Moscow
##NAMES=HP
##CAS NAME=Bromoacetic acid, 3-methylbutyl ester
##MOLFORM=C7H13BrO2
##CAS REGISTRY NO=83004-92-6
##MP= -300
##BP= -300
##MW= 208
##$RETENTION INDEX=1125
##$CONDENSED SPECTRUM=NO
##NPOINTS= 68
##XYDATA=(XY..XY) 1 
    26          9
    27         45
    28         16
    29         60
    30          2
    31          6
    35          2
    36         17
    37          2
    38          5
    39         46
    40          9
    41        129
    42        101
    43        258
    44         13
    45         10
    49          2
    50         11
    54          8
    55        385
    56         32
    57         64
    58          4
    59          2
    60          4
    67          3
    68          2
    69         61
    70        999
    71         99
    72         20
    73          7
    75          1
    81          3
    82          5
    83          9
    85          5
    86          2
    87         11
    91          1
    92          3
    93         52
    94         10
    95         51
    96          6
   107          3
   109          3
   115         11
   120          8
   121        169
   122         12
   123        170
   124          4
   129          7
   138         16
   139         40
   140         16
   141         37
   151         12
   152          8
   153         14
   154          8
   155          2
   165         26
   166         11
   167         27
   168         10