##TITLE=Library Entry 87321
##JCAMP-DX=Revision 4.10 
##DATA TYPE=MASS SPECTRUM
##SAMPLE DESCRIPTION=T. Jones, LC, NHLBI, NIH, Bethesda, MD 20892
##NAMES=HP
##CAS NAME=2-Methyl-6-tridecyl-2-piperidiene
##MOLFORM=C19H37N
##CAS REGISTRY NO=83019-12-9
##MP= -300
##BP= -300
##MW= 279
##$RETENTION INDEX=0
##$CONDENSED SPECTRUM=NO
##NPOINTS= 170
##XYDATA=(XY..XY) 1 
    41        123
    42         89
    43        108
    44         31
    45          0
    47          1
    50          0
    51          1
    52          2
    53         22
    54         36
    55        200
    56         35
    57         55
    58         21
    59          2
    61          0
    62          0
    63          0
    64          1
    65          7
    66          6
    67         53
    68         61
    69         75
    70         67
    71         13
    72          2
    74          2
    76          0
    77          7
    78          1
    79         21
    80         13
    81         40
    82        151
    83         90
    84         15
    85          4
    89          0
    90          2
    91          4
    92          1
    93         11
    94         31
    95         31
    96        523
    97        895
    98         87
    99          4
   100          1
   103          1
   105          3
   106          2
   107         14
   108         17
   109         24
   110        999
   111        255
   112         18
   114          1
   115          1
   116          1
   117          0
   118          0
   120          3
   121          5
   122          7
   123         10
   124         96
   125         33
   126          3
   130          1
   132          1
   133          1
   134          3
   135          1
   136          6
   137          6
   138        136
   139         30
   140          3
   141          2
   143          1
   144          0
   146          0
   147          0
   148          1
   150          5
   151          7
   152        278
   153         39
   154          3
   155          1
   159          0
   161          1
   163          2
   164          4
   165          1
   166         80
   167         16
   168          2
   171          1
   172          0
   176          2
   178          4
   179          1
   180         51
   181         12
   182          2
   185          0
   186          0
   188          0
   191          0
   192          2
   193          0
   194         41
   195         10
   196          3
   198          0
   200          0
   201          0
   202          1
   203          0
   206          1
   208         56
   209         13
   210          2
   212          1
   213          0
   214          0
   215          1
   217          0
   219          1
   220          0
   221          1
   222         38
   223          8
   224          3
   230          0
   232          1
   233          1
   234          1
   236         33
   238         13
   239          1
   240          1
   243          0
   245          0
   248          1
   250         45
   251          9
   252          2
   257          1
   260          1
   261          1
   262          1
   263          1
   264         26
   265          6
   268          1
   269          0
   270          0
   274          2
   275          0
   276          4
   278         48
   279        218
   280         48
   281          5