##TITLE=Library Entry 899
##JCAMP-DX=Revision 4.10 
##DATA TYPE=MASS SPECTRUM
##SAMPLE DESCRIPTION=James Little,Eastman Chem.Co.,Kingsport,TN
##NAMES=HP
##CAS NAME=Methyl (2-aminoethyl)amino sulfone
##MOLFORM=C3H10N2O2S
##CAS REGISTRY NO=83019-89-0
##MP= -300
##BP= -300
##MW= 138
##$RETENTION INDEX=0
##$CONDENSED SPECTRUM=NO
##NPOINTS= 32
##XYDATA=(XY..XY) 1 
    27         14
    28        193
    29         41
    30        999
    31         53
    41         16
    42         44
    44         51
    45         14
    46          7
    48         16
    57         24
    58         24
    59         36
    63         19
    64         11
    65         25
    79         53
    80         10
    81          6
    94        129
    95          5
    96          8
   108         14
   109        175
   110          9
   111         10
   122         18
   123         12
   139        102
   140          5
   141          5