##TITLE=Library Entry 9398
##JCAMP-DX=Revision 4.10 
##DATA TYPE=MASS SPECTRUM
##SAMPLE DESCRIPTION=Div. of Experiment Therapeutics WRAIR, WRAMC, Washingto
n DC 20307
##NAMES=HP
##CAS NAME=.alpha.-[2-Pyridyl]-.alpha.-acetoxy-2-trifluoromethyl-6,8-dichlor
olepidine
##MOLFORM=C18H11Cl2F3N2O2
##CAS REGISTRY NO=83012-23-1
##MP= -300
##BP= -300
##MW= 414
##$RETENTION INDEX=0
##$CONDENSED SPECTRUM=NO
##NPOINTS= 231
##XYDATA=(XY..XY) 1 
    42         36
    43        999
    44         23
    45          6
    47         10
    48          4
    49         41
    50         41
    51        172
    52        106
    53         25
    54          3
    55          3
    57          4
    60          2
    61          5
    62         11
    63         21
    64          8
    65          4
    67          4
    69        101
    70          2
    73          6
    74         19
    75         19
    76         11
    77          6
    78        341
    79        224
    80         43
    81          8
    82          2
    83          4
    84         28
    85          7
    86         23
    87         12
    88         10
    89          5
    91          2
    92          4
    93         10
    94         10
    95          5
    96          2
    97          6
    98         18
    99         30
   100          8
   101          2
   104          2
   106         39
   107          2
   108        119
   109         16
   110          7
   111         11
   112         10
   113          6
   114          3
   115          2
   117          3
   119          3
   121          3
   122          4
   123          7
   124         14
   125         11
   126          7
   127          2
   129          2
   133         20
   134         12
   135         14
   136          6
   137          5
   138          4
   142          3
   143          7
   144          5
   145          3
   147          3
   148          3
   149          3
   150          4
   151          2
   152          2
   158          2
   159          2
   160         13
   161         14
   162          9
   163          9
   164          4
   165          2
   167          4
   168          8
   169          3
   170          2
   171          5
   172          4
   173          3
   174          4
   175          5
   176          5
   177         27
   178         19
   179         10
   180          6
   181          3
   182          3
   185          3
   186          4
   187          5
   188         17
   189         10
   190          5
   194          6
   195          5
   196         17
   197          6
   198         14
   199          4
   200          4
   201          2
   202          2
   203          5
   208          2
   210         11
   211          3
   212          4
   213          5
   214         16
   215         19
   216         28
   217          5
   218          2
   222          3
   223          3
   224          6
   225          4
   226          3
   230         11
   231          2
   232          5
   233          3
   234          3
   237          3
   238          2
   239          4
   244          6
   245          2
   246          6
   247          2
   248          3
   249          5
   250         18
   251          6
   252          7
   253          3
   258          4
   264         10
   265         20
   266         10
   267         13
   268          6
   269          3
   273          7
   274          3
   275          3
   276          2
   281          3
   283          4
   284         13
   285          8
   286         20
   287          7
   288         14
   289          3
   290          3
   292          5
   293          2
   294          6
   296          3
   299          2
   300          2
   301          4
   302          2
   303          4
   304          3
   305          3
   307          6
   308          2
   309          2
   318          2
   319         26
   320         39
   321         15
   322         13
   323          4
   335          7
   336         13
   337         11
   338          6
   339          3
   341          5
   343          8
   345          3
   351          5
   353         11
   354        128
   355        111
   356        111
   357         82
   358         29
   359         14
   360          2
   371        108
   372         67
   373         88
   374         50
   375         20
   376          8
   395          7
   397          4
   414         33
   415          8
   416         22
   417          5
   418          4