##TITLE=Library Entry 24223
##JCAMP-DX=Revision 4.10 
##DATA TYPE=MASS SPECTRUM
##SAMPLE DESCRIPTION=Chemical Concepts
##NAMES=HP
##CAS NAME=Benzene, 1-(dodecyloxy)-2-nitro-
##MOLFORM=C18H29NO3
##CAS REGISTRY NO=83027-71-8
##MP= -300
##BP= -300
##MW= 307
##$RETENTION INDEX=0
##$CONDENSED SPECTRUM=NO
##NPOINTS= 111
##XYDATA=(XY..XY) 1 
    26          5
    27         65
    28         10
    29        188
    30         12
    38          5
    39         70
    40         11
    41        422
    42         91
    43        845
    44         33
    50          8
    51         26
    52         14
    53         28
    54         31
    55        443
    56        240
    57        999
    58         49
    63         20
    64         26
    65         40
    66         13
    67         56
    68         41
    69        353
    70        253
    71        516
    72         32
    75          3
    76          7
    77         17
    78         37
    79         25
    80         12
    81         45
    82         65
    83        283
    84        194
    85        280
    86         22
    91          8
    92         26
    93         22
    94         37
    95         24
    96         45
    97        265
    98        136
    99         62
   100          4
   104          2
   105          5
   106         40
   107         11
   108         12
   109        132
   110         30
   111        182
   112         86
   113         39
   114          3
   115          2
   119          2
   120         12
   121          4
   122         43
   123        133
   124         29
   125         92
   126         53
   127         19
   132          3
   133          9
   134          3
   135         10
   136          2
   137          9
   138          4
   139        175
   140         56
   141         15
   142          2
   143          2
   146          4
   147          2
   148          3
   149          8
   150          3
   160          3
   163          6
   164          2
   165          3
   166          2
   167          6
   168        148
   169         30
   172          2
   175          2
   183          4
   188          1
   272          4
   273          2
   277         17
   278          3
   289          2
   290          2
   307         20
   308          4