##TITLE=Library Entry 87783
##JCAMP-DX=Revision 4.10 
##DATA TYPE=MASS SPECTRUM
##SAMPLE DESCRIPTION=Dmitri Zagorevskii, Scientific Instruments & Applicatio
ns
##NAMES=HP
##CAS NAME=1-[(2-Thienylcarbonyl)oxy]-2,5-pyrrolidinedione
##MOLFORM=C9H7NO4S
##CAS REGISTRY NO=83039-60-5
##MP= -300
##BP= -300
##MW= 225
##$RETENTION INDEX=0
##$CONDENSED SPECTRUM=NO
##NPOINTS= 19
##XYDATA=(XY..XY) 1 
    27         25
    28          4
    39        160
    40         20
    42         16
    45         18
    55         16
    56         37
    57         35
    70         23
    81          9
    82         15
    83         49
    84          7
    98         18
   111        999
   112        138
   113         54
   225         14