##TITLE=Library Entry 82559
##JCAMP-DX=Revision 4.10 
##DATA TYPE=MASS SPECTRUM
##SAMPLE DESCRIPTION=Dmitri Zagorevskii, Scientific Instruments & Applicatio
ns
##NAMES=HP
##CAS NAME=1-[(2-Pyridinylcarbonyl)oxy]-2,5-pyrrolidinedione
##MOLFORM=C10H8N2O4
##CAS REGISTRY NO=83039-59-2
##MP= -300
##BP= -300
##MW= 220
##$RETENTION INDEX=0
##$CONDENSED SPECTRUM=NO
##NPOINTS= 14
##XYDATA=(XY..XY) 1 
    51         53
    52         16
    55         25
    56         30
    67         20
    70         27
    78        899
    79         62
    95         33
    98         19
   106        999
   107         70
   220         36
   221         12