##TITLE=Library Entry 99222
##JCAMP-DX=Revision 4.10 
##DATA TYPE=MASS SPECTRUM
##SAMPLE DESCRIPTION=Dmitri Zagorevskii, Scientific Instruments & Applicatio
ns
##NAMES=HP
##CAS NAME=2,5-Pyrrolidinedione, 1-[(4-methylbenzoyl)oxy]-
##MOLFORM=C12H11NO4
##CAS REGISTRY NO=83039-57-0
##MP= -300
##BP= -300
##MW= 233
##$RETENTION INDEX=0
##$CONDENSED SPECTRUM=NO
##NPOINTS= 37
##XYDATA=(XY..XY) 1 
    40          8
    41         21
    42         23
    45          1
    50         19
    51         31
    52          7
    53          4
    55          6
    56         39
    61          1
    62         11
    63         40
    64         11
    65        183
    66          9
    70         17
    74          2
    75          2
    76          2
    77          8
    78          1
    79          1
    84          2
    86          1
    87          1
    89         38
    90         24
    91        342
    92         26
   105          7
   117          1
   119        999
   120         74
   121          5
   133          2
   233          1