##TITLE=Library Entry 23691
##JCAMP-DX=Revision 4.10 
##DATA TYPE=MASS SPECTRUM
##SAMPLE DESCRIPTION=Chemical Concepts
##NAMES=HP
##CAS NAME=3-(6,6-Dimethyl-5-oxohept-2-enyl)-cycloheptanone
##MOLFORM=C16H26O2
##CAS REGISTRY NO=83040-97-5
##MP= -300
##BP= -300
##MW= 250
##$RETENTION INDEX=0
##$CONDENSED SPECTRUM=NO
##NPOINTS= 173
##XYDATA=(XY..XY) 1 
    26          3
    27         49
    28         16
    29        151
    30          3
    31          3
    38          2
    39         84
    40         17
    41        323
    42         41
    43         79
    44          5
    45          5
    50          2
    51          9
    52          7
    53         58
    54         56
    55        221
    56         26
    57        999
    58         70
    59          7
    63          2
    64          1
    65         17
    66         15
    67        107
    68         37
    69         55
    70         17
    71         37
    72          3
    73          3
    76          1
    77         33
    78         13
    79         96
    80         32
    81        127
    82         24
    83         73
    84         33
    85        248
    86         17
    87          3
    91         53
    92         14
    93         69
    94         23
    95         61
    96         20
    97         42
    98         43
    99          9
   100          3
   101          2
   102          1
   103          3
   104          3
   105         41
   106         21
   107         57
   108         89
   109         70
   110         16
   111        216
   112         33
   113          7
   114          1
   115          3
   116          1
   117          7
   118          3
   119         32
   120         10
   121         31
   122         19
   123         69
   124         42
   125         14
   126          7
   127          5
   128          2
   129          5
   130          1
   131         12
   132          7
   133         45
   134          7
   135         17
   136          5
   137         46
   138         12
   139         20
   140         11
   141          7
   142          2
   143          5
   144          1
   145          9
   146          4
   147         63
   148         38
   149         20
   150         44
   151         39
   152          6
   153          5
   154          1
   155          2
   156          1
   157         11
   158          2
   159          4
   160          1
   161          5
   162          2
   163         16
   164          8
   165         33
   166         54
   167          9
   168          1
   169          1
   171          1
   172          2
   173          4
   174          1
   175         68
   176         10
   177          3
   178          1
   179          5
   180          2
   181          3
   187          1
   189          3
   190          4
   191         12
   192          5
   193         64
   194          9
   195          3
   196          1
   197          1
   199          3
   200          1
   203          1
   205          1
   207          3
   208          9
   209          3
   210          1
   215          1
   217          3
   218          1
   219          1
   221          1
   222          1
   223          1
   230          1
   231          1
   232          7
   233          6
   234          1
   235          1
   248          2
   249          1
   250         60
   251         15
   252          2