##TITLE=Library Entry 25934
##JCAMP-DX=Revision 4.10 
##DATA TYPE=MASS SPECTRUM
##SAMPLE DESCRIPTION=Chemical Concepts
##NAMES=HP
##CAS NAME=8-Hydroxy-2,2-dimethyl-8-phenyl-oct-5-en-3-one
##MOLFORM=C16H22O2
##CAS REGISTRY NO=83040-88-4
##MP= -300
##BP= -300
##MW= 246
##$RETENTION INDEX=0
##$CONDENSED SPECTRUM=NO
##NPOINTS= 143
##XYDATA=(XY..XY) 1 
    26          4
    27         56
    28         12
    29        184
    30          5
    31          5
    37          2
    38          5
    39         94
    40         13
    41        285
    42         35
    43         61
    44          7
    45          8
    49          2
    50         20
    51         81
    52         22
    53         40
    54         35
    55         97
    56         25
    57        999
    58         76
    59         11
    62          4
    63         13
    64          4
    65         24
    66         47
    67         21
    68         11
    69         44
    70         29
    71         59
    72          5
    73          3
    74          6
    75          8
    76         13
    77        323
    78         76
    79        356
    80         31
    81         18
    82         23
    83        142
    84         49
    85        549
    86        148
    87         18
    88          2
    89         12
    90          7
    91        204
    92         18
    93          9
    94          2
    95          7
    96          2
    97          8
    98         10
    99          4
   100          3
   101          2
   102          6
   103         17
   104         86
   105        451
   106         55
   107        460
   108         78
   109         16
   110          2
   111         23
   112          3
   113          3
   114          2
   115         40
   116         14
   117         44
   118         29
   119          8
   120         63
   121         14
   122          3
   123          8
   124          4
   125          6
   126         33
   127         19
   128         66
   129        255
   130         33
   131         11
   132          3
   133         12
   134          3
   135          2
   137          4
   138          3
   139         12
   140        165
   141         31
   142        121
   143        207
   144        117
   145         26
   146         25
   147        142
   148         16
   153         11
   154          2
   155          4
   157          4
   158          2
   159         13
   160         22
   161          9
   162         11
   163          2
   167          3
   169          5
   170          2
   171         68
   172         11
   173          2
   179          2
   180          2
   185          3
   186          3
   187          4
   189         68
   190         10
   191          4
   195          3
   213          2
   228          7
   229          6
   244          2
   246          4
   247          2