##TITLE=Library Entry 23713
##JCAMP-DX=Revision 4.10 
##DATA TYPE=MASS SPECTRUM
##SAMPLE DESCRIPTION=Chemical Concepts
##NAMES=HP
##CAS NAME=3-(6,6-Dimethyl-5-oxohept-2-enyl)-cyclohexanone
##MOLFORM=C15H24O2
##CAS REGISTRY NO=83040-95-3
##MP= -300
##BP= -300
##MW= 236
##$RETENTION INDEX=0
##$CONDENSED SPECTRUM=NO
##NPOINTS= 136
##XYDATA=(XY..XY) 1 
    26          3
    27         51
    28         15
    29        153
    30          4
    31          2
    37          1
    38          3
    39         98
    40         21
    41        355
    42         47
    43         46
    44          3
    45          2
    50          4
    51         11
    52          8
    53         50
    54         48
    55        129
    56         21
    57        999
    58         66
    59          4
    63          3
    65         17
    66         13
    67         76
    68         24
    69         90
    70         23
    71         10
    73          1
    75          1
    76          2
    77         30
    78          9
    79         72
    80         32
    81         72
    82         12
    83         26
    84         10
    85        232
    86         16
    87          2
    91         52
    92         13
    93         48
    94         36
    95         70
    96         14
    97        355
    98         38
    99          4
   100          3
   103          2
   104          2
   105         24
   106          6
   107         49
   108         17
   109         47
   110        110
   111         17
   112          2
   113          2
   115          3
   117          6
   118          3
   119         26
   120          7
   121         11
   122          3
   123         49
   124         13
   125          4
   126          7
   127          2
   128          2
   129          2
   130          1
   131          4
   132          2
   133         63
   134         47
   135         20
   136         39
   137         49
   138          6
   139         17
   140         20
   141          5
   142          1
   143          3
   144          1
   145          3
   147          5
   148          2
   149         14
   150          4
   151         52
   152         47
   153          6
   157          1
   159          2
   161         24
   162          4
   163          2
   165          3
   166          1
   167          3
   175          7
   176          2
   177          2
   178          3
   179        100
   180         14
   181          7
   182          1
   183          1
   185          1
   189          1
   190          3
   191          1
   193          3
   194          2
   195          1
   203          4
   218          7
   219          3
   220          1
   221          2
   236         11
   237          4