##TITLE=Library Entry 25523
##JCAMP-DX=Revision 4.10 
##DATA TYPE=MASS SPECTRUM
##SAMPLE DESCRIPTION=Chemical Concepts
##NAMES=HP
##CAS NAME=8-Hydroxy-2,2,8-trimethyldeca-5,9-dien-3-one
##MOLFORM=C13H22O2
##CAS REGISTRY NO=83040-92-0
##MP= -300
##BP= -300
##MW= 210
##$RETENTION INDEX=0
##$CONDENSED SPECTRUM=NO
##NPOINTS= 113
##XYDATA=(XY..XY) 1 
    26          3
    27         53
    28         16
    29        130
    30          3
    31          8
    38          2
    39         56
    40         10
    41        228
    42         26
    43        233
    44          8
    45         15
    49          1
    50          2
    51          8
    52          4
    53         38
    54         26
    55        127
    56         22
    57        999
    58         65
    59         11
    61          2
    63          1
    65          8
    66         13
    67         29
    68         15
    69         32
    70         13
    71        530
    72         26
    73          4
    75          1
    77         21
    78          7
    79         65
    80         48
    81         41
    82         29
    83        137
    84         41
    85        503
    86        120
    87          9
    88          1
    91         31
    92          6
    93        272
    94         25
    95         20
    96          3
    97         19
    98          4
    99          7
   100          5
   101          2
   103          6
   104          1
   105          6
   106          2
   107         78
   108         33
   109         28
   110         17
   111         27
   112          2
   113          2
   115          1
   117          3
   119          3
   121          8
   122          2
   123         12
   124          2
   125         14
   126          3
   127          6
   128          2
   129          1
   133          2
   135         18
   136          2
   137          5
   138          2
   139         13
   140         68
   141         10
   142          3
   143          1
   151          1
   152          3
   153         16
   154          2
   155          2
   159          1
   165          1
   167          1
   175          3
   177          2
   183          7
   184          1
   185          1
   192          2
   193         18
   194          2
   195          6
   196          1
   210          1
   211          1