##TITLE=Library Entry 24263
##JCAMP-DX=Revision 4.10 
##DATA TYPE=MASS SPECTRUM
##SAMPLE DESCRIPTION=Chemical Concepts
##NAMES=HP
##CAS NAME=2,2,9-Trimethyldec-5-ene-3,8-dione
##MOLFORM=C13H22O2
##CAS REGISTRY NO=83040-81-7
##MP= -300
##BP= -300
##MW= 210
##$RETENTION INDEX=0
##$CONDENSED SPECTRUM=NO
##NPOINTS= 96
##XYDATA=(XY..XY) 1 
    26          2
    27         81
    28         93
    29        108
    30          4
    31          3
    38          2
    39         85
    40         16
    41        280
    42         35
    43        552
    44         23
    45          3
    50          3
    51          8
    52          5
    53         40
    54         42
    55         81
    56         20
    57        999
    58         47
    59         16
    63          2
    65          8
    66          3
    67         25
    68         23
    69         33
    70         19
    71        412
    72         23
    73          4
    77         10
    79         17
    80          3
    81         58
    82         20
    83         98
    84         12
    85        163
    86         22
    87          4
    91         10
    92          2
    93         14
    94          5
    95         22
    96          6
    97         23
    98          9
    99          8
   100          3
   104          2
   105          4
   106          2
   107         91
   108         12
   109         27
   110         17
   111         52
   112         15
   113          9
   114          2
   115          3
   119          4
   121         31
   122          6
   123         13
   124         22
   125         81
   126         32
   127          6
   128          3
   129          2
   130          2
   133          2
   135          6
   137          6
   138          2
   139         31
   140          9
   141         11
   142          2
   143          2
   153         51
   154          9
   155          3
   163          2
   167         23
   168          5
   192          2
   193          2
   210         92
   211         16