##TITLE=Library Entry 25925
##JCAMP-DX=Revision 4.10 
##DATA TYPE=MASS SPECTRUM
##SAMPLE DESCRIPTION=Chemical Concepts
##NAMES=HP
##CAS NAME=2-Butanone, 3,3-dimethyl-1-[5-(1-methylethyl)tetrahydrofuran-2-yl
]-
##MOLFORM=C13H24O2
##CAS REGISTRY NO=83041-29-6
##MP= -300
##BP= -300
##MW= 212
##$RETENTION INDEX=0
##$CONDENSED SPECTRUM=NO
##NPOINTS= 98
##XYDATA=(XY..XY) 1 
    26          3
    27         48
    28         13
    29        132
    30          2
    31          5
    39         61
    40         12
    41        269
    42         45
    43        130
    44          7
    45          6
    50          2
    51          4
    52          2
    53         21
    54         10
    55        123
    56         72
    57        999
    58         56
    59         15
    65          6
    66          3
    67         38
    68         13
    69        183
    70         30
    71         40
    72          2
    73         13
    77          7
    79          7
    80          3
    81         19
    82          7
    83         59
    84         33
    85        521
    86         41
    87          8
    91          6
    92          1
    93         11
    94          5
    95        441
    96         41
    97         15
    98          2
    99          9
   100         13
   101          2
   104          2
   105          3
   107          5
   108          1
   109         42
   110          8
   111         14
   112          8
   113        193
   114         15
   115          2
   119          3
   120          2
   121          3
   123         17
   124          2
   125          3
   126          6
   127         12
   128          3
   129          5
   133          1
   137         34
   138          4
   139          2
   140          3
   141          5
   142         93
   143         10
   155        166
   156         18
   157          2
   167          5
   168          3
   169        126
   170         18
   171          2
   186          2
   194          6
   195          1
   197          2
   210          1
   211          2
   212          5
   213          2