##TITLE=Library Entry 8214
##JCAMP-DX=Revision 4.10 
##DATA TYPE=MASS SPECTRUM
##SAMPLE DESCRIPTION=Chemical Concepts
##NAMES=HP
##CAS NAME=3-Heptene(dithioic) acid, 6-hydroxy-6-methyl-, 1-methylethyl este
r, (E)-
##MOLFORM=C11H20OS2
##CAS REGISTRY NO=83041-11-6
##MP= -300
##BP= -300
##MW= 232
##$RETENTION INDEX=0
##$CONDENSED SPECTRUM=NO
##NPOINTS= 183
##XYDATA=(XY..XY) 1 
    26          6
    27        120
    28          7
    29         92
    30          5
    31         97
    34          6
    35          7
    37          6
    38         11
    39        158
    40         22
    41        391
    42         43
    43        999
    44         44
    45         96
    46          8
    47         36
    48          4
    49          4
    50          8
    51         16
    52          9
    53         72
    54         38
    55        185
    56         79
    57         64
    58         89
    59        744
    60         33
    61         34
    62          4
    63          9
    64          5
    65         54
    66         11
    67         38
    68         10
    69        363
    70         59
    71         92
    72         13
    73         36
    74         27
    75        105
    76         43
    77         56
    78         10
    79         61
    80         13
    81        511
    82         61
    83         78
    84         51
    85         65
    86         11
    87         42
    88          6
    89         12
    90          6
    91         31
    92        134
    93         29
    94         13
    95        118
    96         66
    97        525
    98        145
    99        380
   100         42
   101         41
   102         11
   103         14
   104         17
   105         59
   106         15
   107         17
   108          4
   109          6
   110          9
   111         32
   112         17
   113         46
   114          9
   115         25
   116         89
   117         68
   118         14
   119        121
   120         11
   121         25
   122          7
   123         40
   124         11
   125         21
   126          5
   127         15
   128         20
   129        132
   130        114
   131        275
   132        187
   133         66
   134        137
   135         17
   136         14
   137         12
   138         16
   139         47
   140         12
   141        180
   142         19
   143         24
   144         11
   145         21
   146          7
   147         10
   148          3
   151          2
   152          3
   153          4
   154          6
   155         47
   156         53
   157         67
   158        111
   159         34
   160         13
   161          9
   162          3
   163          6
   164          2
   165          5
   166          3
   169          4
   170         22
   171        203
   172         63
   173         69
   174         63
   175         19
   176         23
   177          4
   178          3
   179          2
   180          3
   181          8
   182          4
   183          5
   184          4
   185          4
   186          5
   187          5
   188         28
   189        514
   190         86
   191         61
   192         10
   193          5
   194          4
   195          3
   196          3
   197          4
   198          3
   199         21
   200          4
   211          4
   212          3
   213          5
   214         58
   215         26
   216          8
   217         45
   218          8
   219          6
   230         23
   231          7
   232        324
   233         54
   234         38
   235          7