##TITLE=Library Entry 85348
##JCAMP-DX=Revision 4.10 
##DATA TYPE=MASS SPECTRUM
##SAMPLE DESCRIPTION=H. Fales, LC, NHLBI, NIH, Bethesda, MD 20892
##NAMES=HP
##CAS NAME=Tricyclo[3.3.3.0]undecan-3-one
##MOLFORM=C11H16O
##CAS REGISTRY NO=83043-47-4
##MP= -300
##BP= -300
##MW= 164
##$RETENTION INDEX=0
##$CONDENSED SPECTRUM=NO
##NPOINTS= 74
##XYDATA=(XY..XY) 1 
    41        270
    42         55
    43         32
    45          6
    47         24
    49         77
    50         21
    51         97
    52         54
    53        179
    54         47
    55         97
    56          4
    57          7
    58          7
    59          1
    62          5
    63         24
    64          4
    65        108
    66         57
    67        207
    68         74
    69         13
    70          2
    71          1
    74          2
    75          1
    77        215
    79        478
    80        306
    81         91
    82         25
    84         70
    86         47
    88          6
    89          4
    91        160
    93        317
    94        144
    95         92
    96         13
    97          1
   103         10
   105         40
   106         63
   107        340
   108        999
   109         60
   110          5
   115          5
   117          5
   118         11
   119          9
   120         18
   121        251
   122        184
   123         19
   131         16
   133          4
   135         41
   136        227
   137         19
   146         24
   147          6
   148          8
   149         69
   150         46
   151          4
   162          3
   163          4
   164        662
   165         89
   166         12