##TITLE=Library Entry 41012
##JCAMP-DX=Revision 4.10 
##DATA TYPE=MASS SPECTRUM
##SAMPLE DESCRIPTION=Chemical Concepts
##NAMES=HP
##CAS NAME=5-Hepten-3-one, 2,2-dimethyl-7-trimethylsilyl-
##MOLFORM=C12H24OSi
##CAS REGISTRY NO=83040-78-2
##MP= -300
##BP= -300
##MW= 212
##$RETENTION INDEX=0
##$CONDENSED SPECTRUM=NO
##NPOINTS= 135
##XYDATA=(XY..XY) 1 
    26          4
    27         31
    28         19
    29         93
    30          3
    31         10
    35          2
    37          2
    38          3
    39         44
    40          8
    41        124
    42         17
    43         65
    44         25
    45        108
    46          8
    47          7
    50          3
    51          6
    52          3
    53         15
    54         15
    55         31
    56         13
    57        517
    58         29
    59         43
    60          5
    61         10
    62          1
    63          2
    64          1
    65          4
    66          2
    67          8
    68          3
    69         10
    70          8
    71         13
    72         14
    73        999
    74         91
    75        168
    76         13
    77         11
    78          3
    79          7
    80          2
    81          9
    82          4
    83         16
    84          5
    85         28
    86          3
    87          2
    89          2
    91         13
    92          3
    93          5
    94          1
    95          8
    96          2
    97         22
    98         10
    99          6
   100          1
   101         10
   102          2
   103          4
   104          1
   105          3
   106          1
   107         12
   108          2
   109          3
   110          2
   111          7
   112          5
   113          6
   114          2
   115          6
   116          2
   117          3
   118          1
   119          2
   120          1
   121          4
   122          1
   123          4
   124          1
   125          3
   126          1
   127         16
   128          3
   129          3
   130          5
   131          2
   132          1
   133          1
   137          1
   138          1
   139          4
   140          2
   141         14
   142          4
   143         99
   144         14
   145          5
   146          1
   147          2
   148          1
   149          4
   150          1
   151          2
   152          1
   153          3
   154          4
   155        316
   156         52
   157         25
   158         80
   159         12
   160          4
   169         10
   170          4
   171          3
   183          4
   197         27
   198          6
   199          2
   211          2
   212         13
   213          4
   214          1