##TITLE=Library Entry 10904
##JCAMP-DX=Revision 4.10 
##DATA TYPE=MASS SPECTRUM
##SAMPLE DESCRIPTION=Chemical Concepts
##NAMES=HP
##CAS NAME=2-Propanone, 1-(tetrahydro-6-phenyl-2H-pyran-2-yl)-
##MOLFORM=C14H18O2
##CAS REGISTRY NO=83041-33-2
##MP= -300
##BP= -300
##MW= 218
##$RETENTION INDEX=0
##$CONDENSED SPECTRUM=NO
##NPOINTS= 119
##XYDATA=(XY..XY) 1 
    27         58
    28         24
    29         43
    39         88
    40         14
    41        108
    42         30
    43        999
    44         35
    45         10
    50         32
    51        108
    52         26
    53         37
    54         22
    55         92
    56         10
    57         20
    58        148
    59         19
    63         24
    64         12
    65         56
    66         10
    67         28
    68         25
    69         82
    70         19
    71         61
    72         11
    74         11
    75         13
    76         23
    77        372
    78        133
    79        197
    80         26
    81         22
    82         10
    83         62
    84         68
    85         52
    89         25
    90          8
    91        290
    92         33
    94         19
    95         21
    96         11
    97        180
    98         58
    99         10
   100        136
   101         17
   102         21
   103         93
   104        579
   105        681
   106         65
   107        610
   108         56
   109         12
   111         12
   112         68
   113        114
   114         13
   115         89
   116         33
   117        194
   118         54
   119          3
   120        144
   121         26
   122         43
   123         16
   127         22
   128         29
   129         54
   130         25
   131         35
   132         75
   133        195
   134         35
   135         14
   141         11
   142         78
   143         33
   144         10
   145         28
   146        149
   147         33
   148         18
   155         10
   157        229
   158         61
   159         28
   160        326
   161        157
   162         18
   167          8
   171          9
   172          1
   173          9
   174          0
   175         87
   176         20
   177          2
   182          9
   183          0
   184          0
   185         26
   186          2
   200        314
   201         53
   203         34
   204          3
   217          9
   218         26
   219          5