##TITLE=Library Entry 26843
##JCAMP-DX=Revision 4.10 
##DATA TYPE=MASS SPECTRUM
##SAMPLE DESCRIPTION=Chemical Concepts
##NAMES=HP
##CAS NAME=8-t-Butyl-8-hydroxy-2,2-dimethyldodeca-5,11-dien-3-one
##MOLFORM=C18H32O2
##CAS REGISTRY NO=83040-90-8
##MP= -300
##BP= -300
##MW= 280
##$RETENTION INDEX=0
##$CONDENSED SPECTRUM=NO
##NPOINTS= 181
##XYDATA=(XY..XY) 1 
    26          2
    27         33
    28         13
    29        227
    30          3
    31          6
    38          1
    39         63
    40          9
    41        337
    42         27
    43        420
    44         12
    45          8
    50          1
    51          4
    52          2
    53         31
    54         23
    55        301
    56         35
    57        999
    58         66
    59         65
    60          2
    62          0
    63          0
    64          7
    65          4
    66         35
    67         11
    68         50
    69         15
    70         38
    71          2
    72          2
    73          0
    74          0
    75          1
    76          0
    77         13
    78          3
    79         23
    80          5
    81         75
    82         21
    83        275
    84         29
    85        459
    86         61
    87         13
    88          0
    89          0
    90         11
    91          2
    92         18
    93          3
    94         28
    95         28
    96          6
    97         35
    98         10
    99          9
   100          2
   101         21
   102          1
   103          8
   104          1
   105          7
   106          2
   107         26
   108          4
   109         27
   110          3
   111         10
   112          1
   113          4
   114          0
   115          1
   116          0
   117          1
   118          0
   119          5
   120          1
   121         30
   122          9
   123         84
   124         14
   125         11
   126          3
   127          5
   128          1
   129          1
   131          1
   132          0
   133          2
   134          0
   135          6
   136          2
   137         42
   138          6
   139         48
   140         58
   141        491
   142         46
   143          5
   144          0
   145          1
   146          0
   147          9
   148          1
   149          2
   150          2
   151          5
   152          1
   153          2
   154          0
   155          2
   156          1
   157          1
   158          0
   159          1
   160          1
   161          1
   162          2
   163         10
   164          1
   165          4
   166          0
   167          6
   168          1
   169          0
   175          0
   176          0
   177          2
   178          1
   179          2
   180          1
   181          5
   182          1
   183          5
   184          0
   185          0
   186          1
   187          1
   189          1
   190          1
   191          1
   192          0
   193          1
   194          0
   195          0
   203          0
   204          0
   205          7
   206          1
   207          2
   208          1
   209          2
   210          1
   219          1
   220          1
   221          5
   222          3
   223        249
   224         38
   225         78
   226         12
   227          1
   236          0
   237          4
   238          1
   239          3
   240          0
   241          0
   247          0
   262          1
   263          1
   265          4
   279          0
   280          1