##TITLE=Library Entry 81715
##JCAMP-DX=Revision 4.10 
##DATA TYPE=MASS SPECTRUM
##SAMPLE DESCRIPTION=Chemical Concepts
##NAMES=HP
##CAS NAME=1-(5,5-Diphenyltetrahydrofuran-2-yl)propan-2-one
##MOLFORM=C19H20O2
##CAS REGISTRY NO=83041-27-4
##MP= -300
##BP= -300
##MW= 280
##$RETENTION INDEX=0
##$CONDENSED SPECTRUM=NO
##NPOINTS= 171
##XYDATA=(XY..XY) 1 
    27         17
    28          2
    29         17
    31          2
    38          2
    39         26
    40          5
    41         19
    42          6
    43        319
    44         13
    45          3
    50         13
    51         61
    52          8
    53          8
    54          2
    55         49
    56          5
    57          8
    58          3
    62          2
    63         15
    64          3
    65         19
    66          2
    67          3
    69          7
    70          3
    71          5
    74          6
    75          9
    76         20
    77        262
    78         29
    79          9
    81          5
    82          4
    83         23
    84          8
    85         17
    86          3
    87          6
    88          4
    89         19
    90          4
    91         84
    92          8
    93          2
    94          3
    95          4
    96          2
    97          5
    98         23
    99          4
   100         25
   101          6
   102         12
   103         28
   104          9
   105        999
   106         71
   107          6
   108          2
   109          2
   110          2
   111          2
   113          5
   114          3
   115        127
   116         33
   117         29
   118          5
   119          2
   120          1
   121          1
   122          2
   123          2
   125          2
   126          6
   127         14
   128         19
   129          8
   130          4
   131          5
   132          2
   133          3
   137          2
   138          2
   139         14
   140          3
   141          8
   142          2
   143         10
   144         25
   145         19
   146          3
   147          2
   149         13
   150          6
   151         12
   152         46
   153         25
   154         48
   155          9
   156          1
   157          2
   158          2
   159          5
   160          3
   161        356
   162         49
   163         14
   164         15
   165        143
   166         33
   167         28
   168          5
   169          2
   176         11
   177         12
   178         85
   179         80
   180        381
   181        138
   182        131
   183        181
   184         26
   185          8
   186          3
   187          1
   188          2
   189         12
   190         12
   191         17
   192         13
   193         56
   194         36
   195         20
   196        157
   197         36
   198          4
   201          8
   203        398
   204        165
   205         49
   206          6
   207          4
   209          5
   210          2
   217          3
   218          9
   219         29
   220          9
   221          5
   222         39
   223         18
   224          4
   235          2
   236          2
   237          7
   238         10
   239          2
   252          2
   253          1
   262        106
   263         22
   264          3
   279          4
   280         11
   281          3