##TITLE=Library Entry 25927
##JCAMP-DX=Revision 4.10 
##DATA TYPE=MASS SPECTRUM
##SAMPLE DESCRIPTION=Chemical Concepts
##NAMES=HP
##CAS NAME=7-(1-Hydroxy-cyclohexyl)-2,2-dimethyl-hept-5-en-3-one
##MOLFORM=C15H26O2
##CAS REGISTRY NO=83040-91-9
##MP= -300
##BP= -300
##MW= 238
##$RETENTION INDEX=0
##$CONDENSED SPECTRUM=NO
##NPOINTS= 149
##XYDATA=(XY..XY) 1 
    26          3
    27         52
    28          8
    29        179
    30          5
    31         14
    36          2
    38          3
    39         74
    40         15
    41        265
    42         57
    43        109
    44          9
    45          6
    50          3
    51          9
    52          5
    53         56
    54         47
    55        210
    56         33
    57        999
    58         69
    59         10
    60          1
    63          1
    64          2
    65         15
    66         10
    67         97
    68         27
    69         71
    70         29
    71         47
    72          3
    73          4
    74          1
    75          3
    76          3
    77         26
    78          7
    79         79
    80         28
    81        352
    82         98
    83        145
    84         42
    85        449
    86        115
    87          8
    91         21
    92          6
    93         49
    94         40
    95         75
    96         17
    97         25
    98         22
    99        403
   100         37
   101          4
   103          7
   104          4
   105          7
   106          3
   107         57
   108         12
   109         22
   110          8
   111         28
   112          7
   113          5
   114          1
   115          3
   117          3
   118          1
   119          9
   120          9
   121        104
   122         13
   123         11
   124          4
   125         10
   126          7
   127          4
   128          1
   129          4
   131          2
   132          1
   133          5
   134          3
   135         67
   136         60
   137         13
   138         51
   139         56
   140        106
   141         16
   142         74
   143         12
   144          2
   145         11
   146          2
   147          2
   149         32
   150          4
   151          2
   152          1
   153         31
   154          4
   155          3
   156          3
   157          2
   158          1
   159          2
   161          1
   163         28
   164          4
   165          2
   167          5
   168          1
   169          2
   170          1
   177          3
   178          1
   179          2
   181         28
   182          5
   183          4
   185          1
   186          1
   187          2
   191          1
   192          1
   193          1
   195         35
   196          6
   205          2
   209          3
   210          1
   220         10
   221          7
   222          1
   223          2
   236          2
   237          1
   238          9
   239          2