##TITLE=Library Entry 24153
##JCAMP-DX=Revision 4.10 
##DATA TYPE=MASS SPECTRUM
##SAMPLE DESCRIPTION=S. GRIFF, 5 OAKWOOD TERRACE, ROCKAWAY, N.J., USA
##NAMES=HP
##CAS NAME=Butyl pentyl carbonate
##MOLFORM=C10H20O3
##CAS REGISTRY NO=83073-03-4
##MP= -300
##BP= -300
##MW= 188
##$RETENTION INDEX=0
##$CONDENSED SPECTRUM=NO
##NPOINTS= 27
##XYDATA=(XY..XY) 1 
    27        230
    28         90
    29        470
    31         60
    39        140
    41        670
    42        320
    43        820
    44         60
    45         40
    55        400
    56        370
    57        999
    58         50
    63        700
    69        140
    70        400
    71        660
    72         40
    73         70
    87         30
    89         30
   103         30
   118         70
   119        130
   120         10
   133         20