##TITLE=Library Entry 31893
##JCAMP-DX=Revision 4.10 
##DATA TYPE=MASS SPECTRUM
##SAMPLE DESCRIPTION=A.A.Kutin, Moscow, Russia
##NAMES=HP
##CAS NAME=Benzenesulfonamide, 4-(3-indolylmethylenamino)-
##MOLFORM=C15H13N3O2S
##CAS REGISTRY NO=83088-98-6
##MP= -300
##BP= -300
##MW= 299
##$RETENTION INDEX=0
##$CONDENSED SPECTRUM=NO
##NPOINTS= 54
##XYDATA=(XY..XY) 1 
    33         34
    38         95
    39        293
    40         43
    41        100
    42         17
    44         19
    46         14
    48         72
    50         29
    51         47
    52        101
    53         95
    54         43
    61          8
    62         67
    63        168
    65        999
    66         40
    73          6
    75          9
    78          8
    79          6
    80        181
    81          5
    88         15
    89        147
    90         42
    91         48
    92        668
    93         78
    94          4
   108        510
   109         46
   114         12
   115         33
   116        145
   117          7
   130          4
   140         65
   142         67
   143         83
   144         37
   145         12
   156        400
   157         60
   158         25
   172        355
   173         10
   174          8
   208        226
   209         37
   235         21
   299         28