##TITLE=Library Entry 13989
##JCAMP-DX=Revision 4.10 
##DATA TYPE=MASS SPECTRUM
##SAMPLE DESCRIPTION=Chemical Concepts
##NAMES=HP
##CAS NAME=12-Oxotricyclo[5.3.1.1(2,6)]dodeca-3,8-diene, 11-acetoxy-4,5,9-tr
ichloro
##MOLFORM=C14H13Cl3O3
##CAS REGISTRY NO=83098-60-6
##MP= -300
##BP= -300
##MW= 334
##$RETENTION INDEX=0
##$CONDENSED SPECTRUM=NO
##NPOINTS= 258
##XYDATA=(XY..XY) 1 
    26          4
    27         26
    28          2
    29         12
    30          1
    31          3
    35          2
    36          2
    37          3
    38         11
    39         83
    40          8
    41         21
    42         11
    43        999
    44         29
    45          7
    47          3
    49         13
    50         27
    51        104
    52         20
    53         27
    54          5
    55         32
    56          6
    57         15
    58          2
    59          2
    60          4
    61         35
    62         15
    63         62
    64         20
    65        120
    66         17
    67         10
    68          7
    69         16
    70         18
    71          7
    72          3
    73         39
    74         18
    75         60
    76         19
    77        177
    78         31
    79         14
    80          5
    81         18
    82          5
    83          7
    84         12
    85         11
    86          9
    87         26
    88         10
    89         45
    90         10
    91         34
    92          7
    93         43
    94         35
    95         41
    96          5
    97          6
    98          5
    99         58
   100         96
   101         59
   102         66
   103         34
   104          8
   105         10
   106          4
   107          7
   108          3
   109          8
   110          4
   111         21
   112        104
   113        116
   114         47
   115        104
   116         21
   117         14
   118          6
   119          6
   120          3
   121          6
   122          2
   123          9
   124          4
   125         38
   126         20
   127         86
   128        241
   129        299
   130        103
   131         98
   132         14
   133          8
   134          8
   135          6
   136         11
   137         12
   138         14
   139         53
   140         23
   141         55
   142         14
   143          9
   144         15
   145          6
   146         10
   147         10
   148          6
   149         45
   150         11
   151         16
   152         12
   153          7
   154          5
   155          8
   156          4
   157         22
   158         12
   159          7
   160          3
   161          8
   162        113
   163         31
   164         76
   165         28
   166         16
   167         26
   168         87
   169         47
   170         15
   171         28
   172          6
   173         12
   174          5
   175        116
   176         25
   177         66
   178         13
   179         15
   180          7
   181          7
   182          4
   183          5
   184          3
   185          9
   186         23
   187          7
   188         10
   189          4
   190          3
   191         11
   192          6
   193         21
   194          5
   195          8
   196          4
   197          3
   198          3
   199          6
   200          2
   201          4
   202          7
   203         68
   204         91
   205         44
   206         33
   207          9
   208          3
   209          5
   210          8
   211         30
   212         10
   213         19
   214          6
   215          4
   216          2
   217          2
   218          2
   219          3
   220          5
   221         22
   222          7
   223         11
   224          4
   225          3
   226          2
   227          5
   228          3
   229          5
   230          2
   231          2
   236          2
   237          4
   238         31
   239        327
   240         72
   241        217
   242         37
   243         41
   244          7
   245          3
   246          2
   247          3
   248          2
   249          2
   255          3
   256          5
   257          9
   258          5
   259          5
   260          3
   261          2
   262          2
   263          3
   264          2
   265          2
   272          5
   273          8
   274         62
   275         14
   276         57
   277         10
   278         20
   279          4
   280          2
   281          2
   282          1
   283          2
   291          2
   292          3
   293          2
   294          3
   295          1
   296          1
   297          1
   298          3
   299          9
   300          4
   301          7
   302          2
   303          2
   334         47
   335          8
   336         45
   337          7
   338         16
   339          3
   340          2