##TITLE=Library Entry 93698
##JCAMP-DX=Revision 4.10 
##DATA TYPE=MASS SPECTRUM
##SAMPLE DESCRIPTION=ASES Database, Dalian Institute, P.R. China
##NAMES=HP
##CAS NAME=2-Phenylthioindan
##MOLFORM=C15H14S
##CAS REGISTRY NO=83094-63-7
##MP= -300
##BP= -300
##MW= 226
##$RETENTION INDEX=0
##$CONDENSED SPECTRUM=NO
##NPOINTS= 18
##XYDATA=(XY..XY) 1 
    39        137
    50         51
    51        155
    63        111
    65        277
    69         86
    77        139
    89        120
    91        338
   109        304
   110        138
   115        999
   116        891
   117        678
   118         52
   226        435
   227         70
   228         26