##TITLE=Library Entry 62901
##JCAMP-DX=Revision 4.10 
##DATA TYPE=MASS SPECTRUM
##SAMPLE DESCRIPTION=Chemical Concepts
##NAMES=HP
##CAS NAME=Bi-2,4,6-cycloheptatrien-1-yl
##MOLFORM=C14H14
##CAS REGISTRY NO=831-18-5
##MP= -300
##BP= -300
##MW= 182
##$RETENTION INDEX=0
##$CONDENSED SPECTRUM=NO
##NPOINTS= 93
##XYDATA=(XY..XY) 1 
    26          5
    27         48
    28          1
    29          3
    37          4
    38         12
    39        144
    40          4
    41         33
    43          5
    44          2
    50         36
    51         98
    52         30
    53         23
    61          6
    62         26
    63        104
    64         39
    65        164
    66         16
    67         71
    68          4
    69          2
    70          4
    71         15
    74         20
    75         29
    76         87
    77        142
    78         74
    79         25
    80          4
    81          2
    82         28
    83         34
    85          2
    86         10
    87         15
    88         14
    89        154
    90        116
    91        999
    92         83
    93          7
    98          6
    99          4
   101          9
   102         32
   103         89
   104        140
   105         32
   106          3
   110          2
   113          7
   114          6
   115        217
   116         76
   117         27
   118          2
   126         14
   127         37
   128        169
   129         48
   130          8
   139         31
   140          6
   141        150
   142         27
   143          4
   150          8
   151         33
   152        209
   153        127
   154         73
   155         35
   156          7
   163          9
   164         14
   165        416
   166        299
   167        576
   168        102
   169         11
   176         17
   177         14
   178         73
   179         68
   180         21
   181        200
   182        472
   183         78
   184         12