##TITLE=Library Entry 63469
##JCAMP-DX=Revision 4.10 
##DATA TYPE=MASS SPECTRUM
##SAMPLE DESCRIPTION=NIST Mass Spectrometry Data Center, 1990.
##NAMES=HP
##CAS NAME=Benzene, [(phenylmethyl)thio]-
##MOLFORM=C13H12S
##CAS REGISTRY NO=831-91-4
##MP= -300
##BP= -300
##MW= 200
##$RETENTION INDEX=0
##$CONDENSED SPECTRUM=NO
##NPOINTS= 85
##XYDATA=(XY..XY) 1 
    26          1
    27          5
    28          0
    36          0
    37          2
    38         11
    39         84
    40          5
    41         14
    42          0
    45         22
    46          0
    47          1
    49          1
    50         19
    51         48
    52          7
    53          1
    57          3
    58          3
    59          2
    61          2
    62         11
    63         38
    64          1
    65        187
    66         12
    69         21
    70          2
    71          2
    73          0
    74          5
    75          4
    76          3
    77         19
    78          6
    79          1
    81          3
    82          7
    83          3
    84          1
    85          1
    86          1
    87          1
    89         22
    91        999
    92         68
    93          3
    94          0
    95          0
    98          0
    99          0
   103          0
   105          0
   108          8
   109         50
   110          6
   111          3
   114          0
   115          2
   121         10
   122          1
   123          1
   126          0
   128          0
   134          0
   139          1
   151          1
   152          3
   153          1
   154          1
   163          1
   164          1
   165          9
   166          3
   167          1
   168          0
   171          1
   184          1
   186          0
   197          3
   200        211
   201         30
   202         11
   203          0