##TITLE=Library Entry 10395
##JCAMP-DX=Revision 4.10 
##DATA TYPE=MASS SPECTRUM
##SAMPLE DESCRIPTION=Chemical Concepts
##NAMES=HP
##CAS NAME=9,19-Cyclo-27-norlanostan-25-one, 3-(acetyloxy)-24-methyl-, (3.be
ta.,24R)-
##MOLFORM=C32H52O3
##CAS REGISTRY NO=83110-15-0
##MP= -300
##BP= -300
##MW= 484
##$RETENTION INDEX=0
##$CONDENSED SPECTRUM=NO
##NPOINTS= 378
##XYDATA=(XY..XY) 1 
    27         29
    29         99
    30          5
    31          7
    39         28
    40          7
    41        282
    42         43
    43        999
    44         34
    45         20
    50          5
    51          8
    52          3
    53         43
    54         20
    55        449
    56        111
    57        504
    58         28
    59         17
    60         13
    61          5
    62          2
    63          4
    64          2
    65         27
    66         12
    67        220
    68         83
    69        429
    70        100
    71        387
    72         61
    73         15
    74          3
    75          3
    76         13
    77         79
    78         20
    79        215
    80         23
    81        453
    82        113
    83        228
    84         59
    85        303
    86         25
    87          5
    88          2
    89          4
    90          2
    91        234
    92         67
    93        398
    94        128
    95        730
    96        111
    97        175
    98         51
    99        195
   100         18
   101          4
   102          3
   103         15
   104         29
   105        351
   106        102
   107        521
   108        138
   109        453
   110         70
   111        115
   112         38
   113         98
   114         12
   115         24
   116         15
   117        100
   118         49
   119        405
   120        166
   121        477
   122        287
   123        304
   124         52
   125         89
   126         32
   127        358
   128         52
   129         56
   130         29
   131        167
   132         85
   133        442
   134        320
   135        532
   136        176
   137        153
   138         32
   139         44
   140         19
   141         35
   142         15
   143         63
   144         31
   145        225
   146         86
   147        397
   148        199
   149        244
   150         52
   151         28
   152          7
   153         21
   154          6
   155         13
   156          7
   157         52
   158         27
   159        203
   160         74
   161        250
   162        105
   163        243
   164         39
   165         18
   166          7
   167         13
   168          7
   169         14
   170          9
   171         62
   172         24
   173        151
   174         64
   175        390
   176         78
   177        115
   178         21
   179          9
   180          3
   181          4
   182          2
   183          9
   184          4
   185         28
   186         23
   187        166
   188         79
   189        150
   190         45
   191         38
   192          9
   193         10
   194          6
   195          9
   196          6
   197         12
   198          6
   199         44
   200         22
   201        119
   202        134
   203        302
   204         83
   205         44
   206         11
   207         26
   208          7
   209          5
   210          5
   211         14
   212          8
   213         44
   214         21
   215         88
   216         33
   217         46
   218         27
   219         51
   220         74
   221        104
   222         22
   223         13
   224          5
   225          7
   226          4
   227         48
   228         14
   229         31
   230         36
   231         15
   232         16
   233         25
   234         29
   235         17
   236          5
   237          2
   238          3
   239          9
   240          3
   241         27
   242         11
   243         17
   244          4
   245         17
   246          8
   247         22
   248         11
   249          4
   250          6
   251          2
   252          3
   253          9
   254          4
   255         30
   256         10
   257         13
   258          4
   259         12
   260         42
   261         21
   262         10
   263          5
   264          3
   265          2
   266          4
   267          6
   268          3
   269         14
   270         20
   271         11
   272          3
   273         17
   274         16
   275         25
   276          9
   277          3
   278          2
   279          3
   280          4
   281         11
   282          4
   283         10
   284          4
   285          2
   286          1
   287         75
   288         28
   289         14
   290         12
   291          4
   292          1
   293          1
   294          2
   295          7
   296         11
   297        172
   298         46
   299         10
   300          5
   301         10
   302        169
   303         48
   304          7
   305          1
   306          1
   307          1
   308          1
   309          6
   310          3
   311          2
   312          2
   313          6
   314          2
   315         15
   316          5
   317          2
   320          2
   321          2
   322          1
   323          3
   324          2
   325         10
   326          7
   327          4
   328          1
   330          3
   333          1
   335          1
   336          3
   337         12
   338          4
   339          9
   340          4
   341          4
   342          5
   343          2
   344          1
   350          2
   351          4
   352         12
   353          6
   354          3
   355        120
   356         37
   357         66
   358         17
   359          2
   360          0
   363          1
   364          1
   365          3
   366          1
   367          2
   368          3
   369          6
   370          3
   371          1
   378          2
   379          2
   380          4
   381        101
   382         33
   383          5
   384          3
   385          3
   386          4
   387          1
   388          1
   389          1
   390          3
   391          8
   392          4
   393          1
   395          2
   396          4
   398          5
   399          2
   400          1
   401          4
   402          1
   403          1
   407          1
   408          3
   409        320
   410        101
   411         18
   412         21
   413          7
   414          2
   420          3
   421          2
   422          3
   423          5
   424        406
   425        142
   426         27
   427          4
   428          0
   429          0
   440          1
   441          3
   442          1
   443          0
   450          0
   451          2
   452          0
   466          3
   468          4
   469         48
   470         20
   471          4
   483          2
   484         61
   485         22
   486          5