##TITLE=Library Entry 32089
##JCAMP-DX=Revision 4.10 
##DATA TYPE=MASS SPECTRUM
##SAMPLE DESCRIPTION=Chemical Concepts
##NAMES=HP
##CAS NAME=Tricyclo[5.3.0.0(3,9)]decan-4-one
##MOLFORM=C10H14O
##CAS REGISTRY NO=83113-43-3
##MP= -300
##BP= -300
##MW= 150
##$RETENTION INDEX=0
##$CONDENSED SPECTRUM=NO
##NPOINTS= 58
##XYDATA=(XY..XY) 1 
    26         10
    27         97
    29         37
    38         13
    39        200
    40         46
    41        181
    42         25
    43         18
    44         16
    50         18
    51         52
    52         30
    53         98
    54         80
    55        158
    56         19
    57         13
    58          8
    61          8
    62         24
    63         12
    64         94
    65         97
    66        999
    67        365
    68        103
    69         16
    71         26
    77        149
    78         69
    79        351
    80        227
    81        101
    82         36
    83        257
    84         29
    91        139
    92         57
    93        208
    94        104
    95         99
    96        173
    97         17
   103          8
   104         20
   105         18
   106         63
   107         58
   108         87
   109         38
   117         27
   121         32
   122         59
   132         21
   135         14
   150        252
   151         36