##TITLE=Library Entry 5110
##JCAMP-DX=Revision 4.10 
##DATA TYPE=MASS SPECTRUM
##SAMPLE DESCRIPTION=Institute of Organic Chemistry, Novosibirsk, USSR 1988
##NAMES=HP
##CAS NAME=1-(4-Chlorobenzenesulfonyl)pyrrolidin-3-one
##MOLFORM=C10H10ClNO3S
##CAS REGISTRY NO=83132-99-4
##MP= -300
##BP= -300
##MW= 259
##$RETENTION INDEX=0
##$CONDENSED SPECTRUM=NO
##NPOINTS= 56
##XYDATA=(XY..XY) 1 
    40          3
    41         45
    42        999
    43         47
    44         10
    45          7
    49          3
    50         54
    51         31
    52          3
    54         10
    55         44
    56         88
    57         13
    60          3
    61          3
    63          3
    69          7
    71          3
    73          7
    74         20
    75        111
    76         26
    77          8
    81          3
    83          7
    84         73
    85         15
    87          4
    97          4
   110          8
   111        221
   112         24
   113         67
   114          3
   120          7
   125          3
   127          3
   132          4
   138          4
   139          9
   140          3
   141          3
   166         11
   168          3
   174          3
   175        162
   176         15
   177         62
   178          3
   231         44
   232          3
   233         17
   259         21
   260          3
   261          7