##TITLE=Library Entry 18643
##JCAMP-DX=Revision 4.10 
##DATA TYPE=MASS SPECTRUM
##SAMPLE DESCRIPTION=Chemical Concepts
##NAMES=HP
##CAS NAME=Cyclohexanol, 2-isocyano-, trans-
##MOLFORM=C7H11NO
##CAS REGISTRY NO=83152-97-0
##MP= -300
##BP= -300
##MW= 125
##$RETENTION INDEX=0
##$CONDENSED SPECTRUM=NO
##NPOINTS= 60
##XYDATA=(XY..XY) 1 
    26         31
    27        206
    28        240
    29        101
    30        156
    31         60
    37          8
    38         19
    39        206
    40         57
    41        585
    42        469
    43        114
    44        116
    45          8
    46         26
    50         13
    51         29
    52         29
    53         64
    54        999
    55        451
    56         98
    57        185
    58         12
    59          4
    63          5
    64          7
    65         15
    66         19
    67         77
    68        456
    69        553
    70        105
    71         20
    77         18
    78          7
    79         53
    80        120
    81         62
    82        101
    83        187
    84        102
    85         14
    91          3
    92          4
    93          3
    94          7
    95          9
    96        115
    97         55
    98         16
    99         12
   106         11
   107          3
   108          8
   110          8
   124         17
   125         14
   126          4