##TITLE=Library Entry 41459
##JCAMP-DX=Revision 4.10 
##DATA TYPE=MASS SPECTRUM
##SAMPLE DESCRIPTION=Chemical Concepts
##NAMES=HP
##CAS NAME=2-Isocyanocyclohexanol, TMS derivative
##MOLFORM=C10H19NOSi
##CAS REGISTRY NO=83152-87-8
##MP= -300
##BP= -300
##MW= 197
##$RETENTION INDEX=0
##$CONDENSED SPECTRUM=NO
##NPOINTS= 152
##XYDATA=(XY..XY) 1 
    26          9
    27         61
    28         10
    29         38
    30          2
    31         15
    37          1
    38          4
    39         75
    40         13
    41        160
    42         25
    43        105
    44         46
    45        179
    46         12
    47         71
    48          4
    49          3
    50          5
    51         14
    52         13
    53         56
    54         38
    55         49
    56         21
    57         38
    58         29
    59        101
    60         15
    61         45
    62          5
    63          4
    64          6
    65         11
    66         14
    67         41
    68         16
    69         38
    70         52
    71         15
    72         31
    73        999
    74         98
    75        955
    76         72
    77         79
    78         11
    79        100
    80         33
    81        561
    82         45
    83         20
    84        199
    85         32
    86         20
    87          8
    88          4
    89         48
    90          5
    91         10
    92          4
    93          3
    94         10
    95          8
    96          8
    97         12
    98         24
    99         24
   100         34
   101        133
   102         86
   103         19
   104          5
   105          3
   106         18
   107         22
   108         52
   109          8
   110          7
   111         13
   112          9
   113         75
   114        153
   115         25
   116        143
   117         24
   118         13
   119          3
   120          1
   121          1
   122          6
   123        106
   124         28
   125         18
   126         98
   127         42
   128         17
   129        290
   130         38
   131         18
   132          5
   133          2
   135          1
   137          3
   138          4
   139          6
   140         61
   141         28
   142         91
   143         17
   144          5
   147         27
   148          4
   149          6
   150          1
   151          3
   152          9
   153          8
   154         66
   155        718
   156        115
   157         35
   158          4
   159          1
   164          4
   165          3
   166          4
   167          5
   168         50
   169         34
   170         14
   171         15
   172          3
   173          1
   178          1
   179          2
   180          5
   181          2
   182        277
   183         44
   184         14
   185          3
   191          1
   192          1
   193          1
   195          3
   196        153
   197         67
   198         15
   199          3
   200          1