##TITLE=Library Entry 1553
##JCAMP-DX=Revision 4.10 
##DATA TYPE=MASS SPECTRUM
##SAMPLE DESCRIPTION=Japan AIST/NIMC Database- Spectrum MS-IW-7446
##NAMES=HP
##CAS NAME=3,3,4,4,5,5,6,6-Octafluoro-1,8-octanediol
##MOLFORM=C8H10F8O2
##CAS REGISTRY NO=83192-87-4
##MP= -300
##BP= -300
##MW= 290
##$RETENTION INDEX=0
##$CONDENSED SPECTRUM=NO
##NPOINTS= 205
##XYDATA=(XY..XY) 1 
    15          7
    17          3
    18         12
    19          2
    20         40
    26          5
    27         52
    28         58
    29        175
    30         51
    31        999
    32         24
    33         12
    37          2
    38          4
    39         12
    41          2
    42         54
    43         54
    44         55
    45         82
    46         11
    47         60
    48          1
    49         44
    50          5
    51         90
    52          2
    53          3
    54          1
    55         76
    56          8
    57         39
    58          3
    59         35
    60          2
    61         40
    62          5
    63         13
    64         86
    65        330
    66          8
    67         16
    68          3
    69        146
    70          5
    71          7
    72          9
    73         40
    74          6
    75        225
    76         21
    77        750
    78         76
    79          8
    80          2
    81          8
    82          4
    83         11
    84          2
    85          2
    86          2
    87          9
    88          8
    89         24
    90         16
    91         31
    92          2
    93        111
    94         43
    95        987
    96         48
    97         60
    98          4
    99          8
   100         24
   101         34
   102         12
   103         20
   104          5
   105         22
   106         13
   107         29
   108         81
   109        331
   110         17
   111         10
   112          4
   113         46
   114          8
   115         11
   117          4
   118          1
   119         27
   120         10
   121        294
   122         77
   123          9
   124          7
   125         32
   126        104
   127         80
   128         47
   129          3
   130          3
   131         24
   132         10
   133         52
   134          6
   135          8
   136          8
   137          8
   138          2
   139         63
   140          9
   141          5
   142          3
   143          3
   144          3
   145         19
   146          9
   147          6
   148          4
   149          1
   150         55
   151         28
   152         22
   153         49
   154          4
   155          4
   156         51
   157         14
   158         39
   159         18
   160          9
   161          6
   162          1
   163         38
   164          3
   165          2
   168          7
   169          7
   170        125
   171         29
   172         17
   173          9
   174          1
   175          3
   176          9
   177          5
   178          4
   179          1
   180          8
   181          5
   182          4
   183         66
   184          5
   185          1
   187          3
   189         14
   190        155
   191         14
   192          2
   193          2
   195          3
   199          2
   200         31
   201         28
   202          9
   203         65
   204          5
   205          1
   207          1
   208          1
   209          2
   210          1
   211          2
   213          1
   217          1
   219          4
   220        193
   221         21
   222          3
   223          5
   224          1
   227          2
   229          2
   230          2
   231          5
   233          5
   237          1
   239          3
   240        323
   241         31
   242          2
   247          3
   248          2
   249         53
   250          5
   251          5
   253          1
   260         64
   261          5
   273          1
   291          5