##TITLE=Library Entry 38188
##JCAMP-DX=Revision 4.10 
##DATA TYPE=MASS SPECTRUM
##SAMPLE DESCRIPTION=Chuck Anderson, Aldrich Chemical Co.
##NAMES=HP
##CAS NAME=Cyclotridecanone
##MOLFORM=C13H24O
##CAS REGISTRY NO=832-10-0
##MP= -300
##BP= -300
##MW= 196
##$RETENTION INDEX=1675
##$CONDENSED SPECTRUM=NO
##NPOINTS= 96
##XYDATA=(XY..XY) 1 
    15          6
    18          0
    26         15
    27        264
    28        141
    29        389
    30          8
    31         10
    38          2
    39        208
    40         49
    41        828
    42        274
    43        460
    44         18
    45          8
    48          0
    51          8
    52          5
    53         72
    54        107
    55        778
    56        209
    57        166
    58        667
    59        228
    60          8
    65         19
    66         25
    67        246
    68        216
    69        396
    70        264
    71        999
    72        105
    73         10
    77         20
    78         15
    79        106
    80         98
    81        253
    82        332
    83        349
    84        220
    85        117
    86         23
    91         11
    92          6
    93         82
    94        116
    95        169
    96        367
    97        353
    98        339
    99         64
   100         62
   101          4
   107         83
   108         88
   109         84
   110        108
   111        239
   112         66
   113         47
   114         55
   115          4
   121        113
   122         59
   123         27
   124         12
   125        199
   126         34
   127         27
   128         24
   135        100
   136         97
   137         16
   138        158
   139         74
   140         17
   141         20
   142          1
   149         83
   150         14
   151          1
   152          6
   153         47
   154         10
   155          9
   163         22
   167         12
   168          1
   178          7
   181         18
   196        151
   197         22