##TITLE=Library Entry 37874
##JCAMP-DX=Revision 4.10 
##DATA TYPE=MASS SPECTRUM
##SAMPLE DESCRIPTION=J. Daly, M. Garraffo, T. Spande, LBC, NIDDK, NIH, Bethe
sda, MD 20892
##NAMES=HP
##CAS NAME=(R,2E,6Z)-6-((8S,8aS)-8-Hydroxy-8-methylhexahydroindolizin-6(5H)-
ylidene)-2,5-dimethylhex-2-enal
##MOLFORM=C17H27NO2
##CAS REGISTRY NO=83218-36-4
##MP= -300
##BP= -300
##MW= 277
##$RETENTION INDEX=0
##$CONDENSED SPECTRUM=NO
##NPOINTS= 112
##XYDATA=(XY..XY) 1 
    51         14
    52         11
    53        104
    54         41
    55        196
    56         41
    57         17
    58         12
    59          3
    63          4
    65         45
    66         25
    67        104
    68         99
    69         61
    70        999
    71        178
    72         86
    77         71
    78         17
    79        123
    80         45
    81         84
    82         68
    83         71
    84        240
    85         18
    86          3
    91         66
    92         15
    93         51
    94         47
    95         52
    96        106
    97         33
    98         12
   103          7
   104          5
   105         35
   106         36
   107         49
   108         49
   109         48
   110         85
   111         24
   112         68
   113          6
   114         15
   115          8
   117         14
   118          8
   119         16
   120         46
   121         38
   122         46
   123         43
   124         23
   125          9
   126         14
   127          2
   128          3
   130          6
   131         16
   132         14
   133         17
   134         50
   135         26
   136         61
   137         25
   138         12
   144          4
   145         11
   146         13
   147         15
   148         54
   149         29
   150        144
   151         20
   153        627
   154         67
   158          6
   160         41
   161         20
   162         16
   164         44
   166        159
   167         18
   172          4
   174         29
   176        135
   177         20
   178         19
   179          7
   180          3
   188         12
   190         18
   193        450
   194        324
   195         43
   206        100
   207         20
   208          5
   232         10
   234         29
   235          5
   248          5
   249          5
   258          1
   260          9
   262          7
   276          9
   277          6