##TITLE=Library Entry 57115
##JCAMP-DX=Revision 4.10 
##DATA TYPE=MASS SPECTRUM
##SAMPLE DESCRIPTION=A.Clerici ET AL.Biomed. Mass Spectrom.,9,257(1982)
##NAMES=HP
##CAS NAME=(S)-N,N'-Bis-[2-acetoxy-1-(acetoxymethyl)ethyl]-5-[(2-acetoxy-1-o
xopropyl)acetylamino]-1,3-benzenedicarboxamide
##MOLFORM=C29H37N3O14
##CAS REGISTRY NO=83239-13-8
##MP= -300
##BP= -300
##MW= 651
##$RETENTION INDEX=0
##$CONDENSED SPECTRUM=NO
##NPOINTS= 87
##XYDATA=(XY..XY) 1 
    39         30
    40         24
    41        101
    42        215
    43        992
    44        148
    45        245
    55         53
    56        148
    57         73
    58         14
    59         32
    60        344
    61         53
    68         51
    70         14
    72         51
    73         71
    74         24
    83         10
    84        680
    85        148
    86         32
    87        999
    88         85
    96         14
    97        277
    98         45
   102        486
   103         65
   114         57
   115        213
   116         49
   132         34
   145        162
   146         53
   156        101
   157         71
   158         57
   159         30
   160         91
   161         14
   174         57
   175         14
   201         22
   202         18
   217         30
   218         12
   219         12
   230         16
   231          8
   255         16
   274         18
   284         18
   287         22
   296         26
   297         16
   300         18
   301         22
   302         57
   303         18
   344         32
   345         16
   356         29
   357         20
   369         40
   370         11
   375         39
   376         10
   402         29
   404         10
   417         49
   418         40
   419         10
   429         19
   434         20
   462         40
   463         11
   476         10
   477         20
   478          5
   487         20
   488          5
   522          5
   536          8
   609         10
   651          1