##TITLE=Library Entry 60375
##JCAMP-DX=Revision 4.10 
##DATA TYPE=MASS SPECTRUM
##SAMPLE DESCRIPTION=Chemical Concepts
##NAMES=HP
##CAS NAME=4-(Benzylamino)-3-(piperidinomethyl)coumarin
##MOLFORM=C22H24N2O2
##CAS REGISTRY NO=83233-99-2
##MP= -300
##BP= -300
##MW= 348
##$RETENTION INDEX=0
##$CONDENSED SPECTRUM=NO
##NPOINTS= 172
##XYDATA=(XY..XY) 1 
    39        113
    40         64
    41        187
    42        154
    43         80
    44         99
    45          4
    50         26
    51         76
    52         28
    53         30
    55        190
    56        142
    57         73
    61          3
    63         45
    65        209
    67         21
    68         21
    69         25
    70         38
    71          6
    72          2
    73          3
    74          9
    75         24
    77        127
    78         23
    79         13
    80          9
    82         45
    84        998
    85         22
    86        621
    87         14
    89         91
    91        999
    92         14
    93          1
    94          5
    95          5
    96         11
    98         81
    99          5
   101         14
   102         48
   103         45
   104         25
   105          9
   106         18
   107          5
   108          4
   109          8
   110          5
   111          3
   112          3
   113          5
   115         71
   116         25
   117         16
   118          9
   119         14
   120         35
   121          6
   126          2
   127          5
   128          9
   129          8
   131         65
   132         18
   133          6
   134          3
   135          2
   138          8
   139          3
   140          4
   141          4
   142          8
   143          6
   144          8
   145         17
   146         27
   147          7
   148          2
   149          3
   151          3
   152          6
   153          2
   154          1
   156          9
   157          6
   158          8
   159         14
   160         48
   161          9
   162          3
   163          7
   164          4
   165          9
   166          3
   167          1
   171         10
   172         21
   174        123
   175         10
   176          3
   177          3
   178          6
   179          3
   180          5
   183          1
   185         31
   186         57
   187         12
   188          4
   189         10
   190          7
   191          5
   192          3
   193          3
   198          6
   199          9
   201         59
   202          8
   203          4
   204          7
   206         13
   207          5
   208          3
   212          2
   213          3
   214          2
   216          5
   217         16
   218         14
   219          7
   220          9
   221          3
   222          1
   228          6
   229         12
   230          2
   232          2
   233          4
   234         48
   235         52
   236         13
   237          3
   240          9
   241          1
   246          8
   248         72
   249         12
   250          9
   251          6
   252          1
   255         13
   257        291
   258         43
   259          8
   262        180
   263        308
   264        116
   265         29
   266          4
   277          7
   305          8
   319          1
   347          5
   348        152
   349         31
   350          4