##TITLE=Library Entry 17689
##JCAMP-DX=Revision 4.10 
##DATA TYPE=MASS SPECTRUM
##SAMPLE DESCRIPTION=A.A.Kutin, Moscow, Russia
##NAMES=HP
##CAS NAME=2-[2-(2-Hydroxy-ethoxy)-4-nitro-phenoxy]-ethanol
##MOLFORM=C10H13NO6
##CAS REGISTRY NO=83257-95-8
##MP= -300
##BP= -300
##MW= 243
##$RETENTION INDEX=0
##$CONDENSED SPECTRUM=NO
##NPOINTS= 132
##XYDATA=(XY..XY) 1 
    33          1
    34          0
    36          0
    37          3
    38         12
    39         38
    40         21
    41         15
    42         19
    43        124
    45        999
    46         19
    47          1
    50         55
    51        141
    52         93
    53         88
    54         11
    55         36
    57          5
    58          0
    59          2
    60          0
    61          7
    62         34
    63         95
    64         36
    65         52
    66         20
    67          9
    68         12
    69         11
    70          1
    71          3
    72          0
    74         22
    75         27
    76         18
    77         32
    79        160
    80         40
    81         81
    82          6
    83          2
    84          0
    85          0
    86          0
    87          1
    88          0
    89          8
    90          3
    91         30
    92         30
    93         15
    94         26
    95          9
    96         11
    97         56
    98          3
    99          0
   102          0
   104          1
   105          5
   107         87
   108         50
   109         90
   110         15
   111          4
   112          1
   115          0
   118          1
   119          1
   120         14
   121         20
   122         13
   123         15
   125        279
   126         17
   127          4
   128          0
   132          0
   134          5
   135         14
   136          4
   137          5
   138          9
   139         24
   140          1
   141          0
   147          0
   149          2
   150          2
   151         23
   152          9
   153          7
   155        515
   156         38
   157          5
   158          0
   163          0
   165         10
   166         15
   167          2
   168          5
   169         16
   170          1
   171          0
   172          0
   177          0
   178          0
   179          0
   181         32
   182          9
   183          5
   184          0
   185          0
   195          1
   197          1
   198          3
   199         84
   200          7
   201          1
   212          0
   213          4
   225          0
   226          0
   227          0
   240          0
   241          1
   243        108
   244         12
   245          1