##TITLE=Library Entry 47084
##JCAMP-DX=Revision 4.10 
##DATA TYPE=MASS SPECTRUM
##SAMPLE DESCRIPTION=A.Mazepa, Phys.-Chem.Institute, Odessa, Ukraine
##NAMES=HP
##CAS NAME=5-Hydrazinocarbonyl-1H-imidazole-4-carboxylic acid (2-benzoyl-4-m
ethyl-phenyl)-amide
##MOLFORM=C19H17N5O3
##CAS REGISTRY NO=83273-23-8
##MP= -300
##BP= -300
##MW= 363
##$RETENTION INDEX=0
##$CONDENSED SPECTRUM=NO
##NPOINTS= 197
##XYDATA=(XY..XY) 1 
    50         39
    51        245
    52         84
    53         66
    54         35
    55         55
    56         13
    57         20
    58          4
    59          4
    62          8
    63         45
    64         24
    65         71
    66         39
    67        277
    68        485
    69         73
    70          8
    71          6
    75         17
    76         48
    77        999
    78        157
    79         71
    80         26
    81         42
    82         20
    83          8
    84          5
    85          4
    89         55
    90         26
    91         52
    92         14
    93         29
    94        168
    95        311
    96         27
    97          5
    98          5
    99          5
   102         22
   103         19
   104        165
   105        933
   106        217
   107         88
   108         13
   109          8
   112         18
   113          4
   114          7
   115         31
   116         33
   117         20
   118         13
   119          6
   120         57
   121         74
   122         30
   123         57
   124          5
   125          4
   126          9
   127         15
   128         41
   129         19
   130         12
   131          9
   132         19
   133         16
   134        220
   135         50
   136         11
   137          4
   138          6
   139         23
   140         10
   141         15
   142          5
   143         19
   144         15
   145          7
   146          5
   150          4
   151         17
   152        287
   153         64
   154         10
   155         17
   156         10
   157          6
   158         14
   159          4
   160         88
   161          9
   165         80
   166         38
   167         48
   168          9
   169          9
   170         19
   171         33
   172          5
   173          2
   178         11
   179         15
   180         78
   181         27
   182         41
   183         34
   184          9
   185          6
   186          1
   191          4
   192          8
   193         20
   194         60
   195         29
   196         11
   197          4
   198         26
   199         16
   200         23
   201          3
   207          3
   208         15
   209         56
   210        726
   211        800
   212        223
   213         26
   214          1
   218          4
   219          5
   220          4
   225          4
   226        104
   227         18
   228         12
   229          3
   230          2
   231          9
   232          6
   233          4
   234          1
   239          1
   240         14
   241          3
   242          3
   243         30
   244          5
   245          2
   246          4
   247          3
   248          2
   254         33
   255          3
   256          2
   257          2
   258         44
   259         11
   260          5
   261         77
   262         11
   268          8
   269          2
   270          1
   271          5
   272          2
   273          1
   274          7
   275          2
   285          1
   286         16
   287          5
   288         29
   289          4
   299          5
   300          1
   302          8
   303          2
   304          3
   314         35
   315          6
   316         17
   317          2
   332         17
   333          3
   347          6
   348          6
   349          2
   362          4
   363        519
   364        126
   365         13