##TITLE=Library Entry 54539
##JCAMP-DX=Revision 4.10 
##DATA TYPE=MASS SPECTRUM
##SAMPLE DESCRIPTION=A.Mazepa, Phys.-Chem.Institute, Odessa, Ukraine
##NAMES=HP
##CAS NAME=5-(Piperidine-1-carbonyl)-1H-imidazole-4-carboxylic acid (2-benzo
yl-4-methyl-phenyl)-amide
##MOLFORM=C24H24N4O3
##CAS REGISTRY NO=83273-24-9
##MP= -300
##BP= -300
##MW= 416
##$RETENTION INDEX=0
##$CONDENSED SPECTRUM=NO
##NPOINTS= 94
##XYDATA=(XY..XY) 1 
    51          2
    54          1
    55         14
    56         35
    57         10
    64          1
    65          1
    67         10
    68         23
    69          9
    70          2
    71          2
    75          1
    77         65
    78          4
    79          1
    82          8
    83         72
    84        999
    85         58
    86         11
    91          5
    94          5
    95         55
    96          2
   104          5
   105        111
   106         18
   107          2
   120          2
   121          8
   123         31
   127          1
   128          1
   134         26
   135          1
   140          7
   149          7
   150          2
   152          5
   160          8
   165          4
   166          1
   167          1
   171          2
   177         18
   178          4
   179          1
   180          3
   181          2
   182          4
   183          2
   193          1
   194         35
   195          6
   196          2
   197          4
   198          2
   199          2
   200         93
   201          7
   204          2
   205         16
   206         13
   207          2
   208          1
   209          4
   210        120
   211        182
   212         39
   213          2
   221          1
   226         22
   227          1
   228        128
   229         13
   254          2
   261          4
   274          1
   286          1
   288          1
   289          2
   297          1
   302          1
   304         23
   305          3
   311         18
   312          1
   314          1
   415          1
   416        203
   417         55
   418         13
   419          2