##TITLE=Library Entry 43105
##JCAMP-DX=Revision 4.10 
##DATA TYPE=MASS SPECTRUM
##SAMPLE DESCRIPTION=E. HENGGE, INST. ANORG. CHEM., GRAZ TECH. UNIV., AUSTRI
A
##NAMES=HP
##CAS NAME=2,3,4,5-Tetrakis(dimethyl)cyclothiatetrasilane
##MOLFORM=C8H24SSi4
##CAS REGISTRY NO=83272-65-5
##MP= -300
##BP= -300
##MW= 264
##$RETENTION INDEX=0
##$CONDENSED SPECTRUM=NO
##NPOINTS= 83
##XYDATA=(XY..XY) 1 
    41         35
    42         35
    43        189
    44         56
    45        221
    46         14
    47         12
    55         14
    57         18
    58         30
    59        182
    60         17
    61         12
    69         20
    71         23
    73        999
    74         82
    75         46
    83         15
    85         35
    87         24
    93         22
    99         51
   100         12
   101         74
   102         20
   103         23
   113         26
   115        106
   116        220
   117        125
   118         29
   129         71
   130         14
   131        334
   132         57
   133         46
   145         68
   146         14
   147         64
   149         12
   157         12
   159        111
   160         30
   161         19
   165         21
   171         12
   173        102
   174         77
   175        147
   176         65
   177         25
   187         52
   188         19
   189        456
   190        118
   191        224
   192         46
   193         36
   203         68
   204         15
   205        185
   206         49
   207         41
   209         92
   210         18
   211         41
   223         41
   231         18
   233        141
   234         34
   235         24
   238         24
   247         36
   248        161
   249        179
   250         73
   251         31
   262         30
   263         13
   264        189
   265         60
   266         42