##TITLE=Library Entry 29094
##JCAMP-DX=Revision 4.10 
##DATA TYPE=MASS SPECTRUM
##SAMPLE DESCRIPTION=Chemical Concepts
##NAMES=HP
##CAS NAME=Ethanamine, 2-(dicyclohexylphosphino)-N,N-dimethyl-
##MOLFORM=C16H32NP
##CAS REGISTRY NO=83286-44-6
##MP= -300
##BP= -300
##MW= 269
##$RETENTION INDEX=0
##$CONDENSED SPECTRUM=NO
##NPOINTS= 151
##XYDATA=(XY..XY) 1 
    26          1
    27          4
    28          2
    29         13
    30         14
    35          0
    39          5
    40          1
    41         55
    42         21
    43         15
    44         16
    45          8
    46          6
    47          1
    48          0
    49          4
    50          0
    51          0
    53          6
    54          5
    55        109
    56         19
    57         17
    58        999
    59         39
    60          4
    61         10
    62          6
    63         49
    64          1
    65          2
    66          1
    67         19
    68          1
    69          2
    70         16
    71        190
    72         57
    73         10
    74          3
    75          9
    76         21
    77          3
    78          1
    79         18
    80          4
    81         57
    82         12
    83         60
    84          3
    85          9
    86          2
    87         12
    88          5
    89          8
    90          3
    91          2
    93          1
    94          0
    95          6
    96          0
    97          1
    98          0
    99          4
   100          5
   101          3
   102         13
   103          5
   104         55
   105          5
   106          0
   107          0
   108          0
   109          0
   110          0
   111          1
   112          0
   113         13
   114          5
   115         35
   116         16
   117         47
   118          3
   120          0
   127          2
   128          2
   129         66
   130          6
   131          2
   132          0
   133          0
   139          0
   140          0
   141          9
   142          8
   143         17
   144        228
   145         52
   146          4
   147          0
   154          0
   155          1
   156          1
   157          2
   158          0
   159          0
   161          0
   163          0
   167          0
   168          0
   169          2
   170          0
   171          8
   172          1
   173          1
   181          0
   182          0
   183          4
   184          3
   185          1
   186         52
   187         16
   188          1
   195          4
   196          1
   197          7
   198         12
   199          7
   200          1
   202          0
   203          0
   207          0
   209          0
   210          0
   211         28
   212          4
   213          0
   215          0
   223          1
   224          1
   225          6
   226         29
   227          3
   254          8
   255          0
   267          0
   268          3
   269         38
   270          7
   271          0