##TITLE=Library Entry 59707
##JCAMP-DX=Revision 4.10 
##DATA TYPE=MASS SPECTRUM
##SAMPLE DESCRIPTION=A.A.Kutin, Moscow, Russia
##NAMES=HP
##CAS NAME=Benzyl phenyl sulfoxide
##MOLFORM=C13H12OS
##CAS REGISTRY NO=833-82-9
##MP= -300
##BP= -300
##MW= 216
##$RETENTION INDEX=0
##$CONDENSED SPECTRUM=NO
##NPOINTS= 144
##XYDATA=(XY..XY) 1 
    37          2
    38          8
    39         51
    40          3
    41          9
    42          0
    43          0
    45         10
    47          0
    48          1
    50         26
    51         74
    52          9
    53         12
    54          0
    55          0
    57          2
    58          2
    59          1
    60          0
    61          2
    62         10
    63         34
    65        174
    66         13
    67          1
    69         13
    70          2
    71          2
    72          0
    73          2
    74          8
    75          7
    77         92
    78         19
    79          4
    81          6
    82          4
    83          2
    84          2
    85          1
    86          1
    87          2
    89         33
    91        999
    92        133
    93          6
    94          1
    95          1
    97         43
    98          3
    99          2
   100          0
   101          0
   102          1
   103          1
   104          1
   105          4
   106          1
   107          3
   108          9
   109         48
   110         11
   111          3
   112          0
   113          0
   114          0
   115          3
   116          0
   117          0
   121          4
   122          1
   123          6
   125         52
   126          9
   127          4
   128          2
   129          0
   131          0
   132          0
   134          0
   135          0
   137          1
   138          0
   139          2
   140          1
   141          7
   142          1
   143          0
   147          0
   150          0
   151          1
   152          6
   153          2
   154          3
   155          0
   156          0
   157          0
   158          0
   159          0
   160          0
   163          1
   164          2
   165         13
   166          4
   167          5
   168          1
   169          0
   170          0
   171          1
   172          0
   173          0
   174          0
   176          0
   177          0
   178          1
   179          0
   180          0
   181          5
   182         14
   183          3
   184          4
   185          4
   186          2
   187          0
   188          0
   195          0
   197          2
   198          0
   199          2
   200         10
   201          1
   202          2
   203          0
   204          0
   211          0
   212          0
   213          0
   214          0
   216         89
   217         18
   218         14
   219          2
   220          1