##TITLE=Library Entry 99211
##JCAMP-DX=Revision 4.10 
##DATA TYPE=MASS SPECTRUM
##SAMPLE DESCRIPTION=Chemical Concepts
##NAMES=HP
##CAS NAME=Benzenepentanoic acid, 4-methyl-.delta.-oxo-
##MOLFORM=C12H14O3
##CAS REGISTRY NO=833-85-2
##MP= -300
##BP= -300
##MW= 206
##$RETENTION INDEX=0
##$CONDENSED SPECTRUM=NO
##NPOINTS= 148
##XYDATA=(XY..XY) 1 
    26          3
    27         26
    28         30
    29          9
    30          0
    31          9
    32          5
    35         12
    37          4
    38         28
    39         47
    40          5
    41         39
    42         12
    43         30
    44          3
    45         26
    46          2
    50          6
    51         18
    52          4
    53          4
    54          0
    55         32
    56          3
    57          9
    58          5
    59          5
    60          4
    61          0
    62          4
    63         23
    64          8
    65        105
    66          6
    67          3
    68          1
    69          8
    70          4
    71          5
    72          1
    73          3
    74          3
    75          3
    76          2
    77         10
    78          4
    79          6
    80          1
    81          3
    82          1
    83          5
    84          1
    85          2
    86          3
    87          7
    88          2
    89         29
    90         21
    91        305
    92         33
    93          3
    94          1
    95          3
    96          1
    97          3
    98          1
    99          1
   101          0
   102          1
   103          3
   104          2
   105         15
   106          2
   107          1
   108          0
   109          3
   110          1
   111          1
   112          1
   113          1
   114          1
   115          6
   116          2
   117          5
   118          6
   119        999
   120         88
   121          8
   122          1
   123          1
   124          0
   125          1
   126          0
   127          1
   128          2
   129          3
   130          1
   131          3
   132          1
   133          5
   134         66
   135          8
   136          2
   137          3
   138          0
   139          1
   141          1
   142          0
   143          1
   144          0
   145          4
   146          2
   147         10
   148          1
   149          3
   150          0
   151          3
   152          1
   153          0
   155          0
   159          2
   160          4
   161          3
   162          0
   163          0
   165          1
   167          1
   172          0
   173          0
   174          0
   175          0
   177          1
   178          0
   179          0
   180          0
   188          2
   189          3
   190          0
   191          6
   192          4
   193          0
   195          1
   204          0
   205          1
   206         78
   207         11
   208          1