##TITLE=Library Entry 84304
##JCAMP-DX=Revision 4.10 
##DATA TYPE=MASS SPECTRUM
##SAMPLE DESCRIPTION=A.A.Kutin, Moscow, Russia
##NAMES=HP
##CAS NAME=1,3-Dioxane, 2-(4-nitrophenyl)-
##MOLFORM=C10H11NO4
##CAS REGISTRY NO=833-64-7
##MP= -300
##BP= -300
##MW= 209
##$RETENTION INDEX=0
##$CONDENSED SPECTRUM=NO
##NPOINTS= 118
##XYDATA=(XY..XY) 1 
    33          0
    34          0
    37         10
    38         32
    39        142
    40         42
    41        261
    42        469
    43         28
    44          9
    46         17
    47          2
    50        227
    51        453
    52         39
    53         16
    54          2
    55         19
    57         70
    59        127
    61         11
    62         31
    63         78
    64         38
    65        112
    66         24
    67          3
    68          3
    69          4
    70          6
    71          1
    73          8
    74         64
    75        105
    76        224
    77        653
    78         99
    79         21
    80          1
    81          2
    82          1
    83          2
    84          1
    86        239
    87        469
    89         65
    90          9
    91         55
    92         88
    93         38
    94         43
    95          3
    96          0
    97          0
    98          0
    99          0
   100          0
   101          0
   103         31
   104        238
   105        256
   107        999
   108         55
   109          3
   110          0
   111          0
   114          0
   115          3
   116          1
   117          1
   118          3
   119         17
   120         64
   121         21
   122         21
   123          6
   124         19
   125          1
   126          0
   127          3
   128          1
   129          0
   131          1
   132          9
   133          9
   134         11
   135         41
   136         18
   137          2
   138          0
   139          0
   142          0
   145          0
   148          1
   150        965
   151        191
   152         62
   153          5
   154          0
   160          0
   162         87
   163         19
   164          2
   166          0
   168          2
   176          0
   177          0
   178          4
   179          5
   180          0
   192         82
   193         14
   194          1
   195          0
   208        474
   209        262
   210         30
   211          3