##TITLE=Library Entry 11557
##JCAMP-DX=Revision 4.10 
##DATA TYPE=MASS SPECTRUM
##SAMPLE DESCRIPTION=NIST Mass Spectrometry Data Center
##NAMES=HP
##CAS NAME=Benzeneethanol, 2-nitro-, acetate
##MOLFORM=C10H11NO4
##CAS REGISTRY NO=833-43-2
##MP= -300
##BP= -300
##MW= 209
##$RETENTION INDEX=1641
##$CONDENSED SPECTRUM=NO
##NPOINTS= 99
##XYDATA=(XY..XY) 1 
    15         12
    17          2
    26          2
    27          9
    28         14
    29         10
    30         11
    31          3
    37          4
    38          9
    39         47
    40          5
    41         10
    42         20
    43        999
    44         28
    45          6
    46          2
    50         34
    51         76
    52         23
    53         11
    54          2
    55          2
    59          2
    60          3
    61          4
    62         17
    63         59
    64         28
    65        100
    66         37
    67          6
    68          1
    73         23
    74         11
    75         11
    76         24
    77        130
    78         64
    79         14
    80          2
    81          1
    82          1
    83          1
    85          1
    86          3
    87          3
    89         89
    90         39
    91        165
    92        150
    93         78
    94         11
    95          1
    98          1
    99          1
   101          6
   102         21
   103         42
   104         55
   105         19
   106         15
   107         20
   108          4
   109          1
   110          1
   115          1
   116          2
   117         13
   118          8
   119         38
   120        548
   121         82
   122          4
   123          1
   130          3
   132        229
   133         27
   134         13
   135          2
   136         17
   137         79
   138          6
   139          1
   145          1
   146          1
   148          1
   149         35
   150         17
   151          2
   161          1
   162          2
   163          9
   164          1
   166          2
   167          1
   179          2
   180          1