##TITLE=Library Entry 86558
##JCAMP-DX=Revision 4.10 
##DATA TYPE=MASS SPECTRUM
##SAMPLE DESCRIPTION=Div. of Experiment Therapeutics WRAIR, WRAMC, Washingto
n DC 20307
##NAMES=HP
##CAS NAME=p-Fluorophenyl succinic acid
##MOLFORM=C10H9FO4
##CAS REGISTRY NO=833-18-1
##MP= -300
##BP= -300
##MW= 212
##$RETENTION INDEX=0
##$CONDENSED SPECTRUM=NO
##NPOINTS= 103
##XYDATA=(XY..XY) 1 
    42         28
    43         25
    44          9
    45        341
    46         22
    48          5
    49         53
    50         35
    51         73
    52          7
    53          7
    55         17
    56          6
    57         41
    59          7
    60         13
    61         10
    62         14
    63         34
    64          4
    65          5
    67          2
    68         11
    69         28
    70         29
    71          9
    73          6
    74         36
    75        122
    76         16
    77        135
    78         14
    79          5
    80          3
    81         24
    82          7
    83         37
    84         55
    85          5
    86         37
    87          8
    88          6
    89          8
    91         12
    92          5
    93          8
    94         25
    95        105
    96        148
    97        222
    98         22
    99         12
   100          7
   101        151
   102         35
   103        148
   104         18
   105          7
   106          3
   107         51
   108         32
   109        999
   110         71
   111          6
   112          7
   119          4
   120         59
   121        372
   122        496
   123         89
   125        607
   126         42
   127          4
   131          2
   133          2
   136          6
   137          5
   138          6
   139          3
   141          2
   143          2
   147          3
   148          9
   149         30
   150          8
   151          6
   152          2
   153         11
   165         22
   166        748
   167        118
   168        436
   169         46
   170          4
   176          6
   177          2
   180          3
   193          3
   194        397
   195         46
   196          5
   212         27
   213          6