##TITLE=Library Entry 44912
##JCAMP-DX=Revision 4.10 
##DATA TYPE=MASS SPECTRUM
##SAMPLE DESCRIPTION=A.A.Kutin, Moscow, Russia
##NAMES=HP
##CAS NAME=1,3,4-Thiadiazole, 2-amino-5-(p-nitrophenyl)-
##MOLFORM=C8H6N4O2S
##CAS REGISTRY NO=833-63-6
##MP= -300
##BP= -300
##MW= 222
##$RETENTION INDEX=0
##$CONDENSED SPECTRUM=NO
##NPOINTS= 67
##XYDATA=(XY..XY) 1 
    33         33
    37         73
    38        124
    39        128
    40         29
    41        156
    42        566
    43        150
    44         36
    45         91
    46        411
    47         98
    49         12
    50        232
    51        124
    52         22
    54         10
    58         47
    59        139
    60        713
    61         70
    62        177
    63        173
    64         64
    69        226
    70         34
    73         24
    74        999
    75        224
    76        250
    77         64
    78          6
    81         22
    82         59
    86         52
    87         60
    88         38
    89        104
    90         81
    91         20
    93        147
    94        158
    95         13
   100         12
   102         86
   103         40
   107         53
   108        130
   109         43
   117         17
   119         98
   120        393
   121         58
   122         60
   133         88
   134        154
   136         52
   150          7
   163         32
   166         71
   176         35
   177         10
   192         25
   206         13
   222        987
   223        124
   224         49