##TITLE=Library Entry 48211
##JCAMP-DX=Revision 4.10 
##DATA TYPE=MASS SPECTRUM
##SAMPLE DESCRIPTION=Chemical Concepts
##NAMES=HP
##CAS NAME=(4-Hydroxyphenyl)phenylmethanol
##MOLFORM=C13H12O2
##CAS REGISTRY NO=833-39-6
##MP= -300
##BP= -300
##MW= 200
##$RETENTION INDEX=0
##$CONDENSED SPECTRUM=NO
##NPOINTS= 112
##XYDATA=(XY..XY) 1 
    37         28
    38         59
    39        244
    40         22
    41        107
    42         24
    43        237
    44         12
    49         18
    50        174
    51        292
    52        191
    53         45
    54         11
    55        128
    56         32
    57        139
    58         50
    59         17
    60         13
    61         11
    62         22
    63         79
    64         33
    65        133
    66         40
    67         48
    68         16
    69         87
    70         37
    71         86
    72          9
    73         33
    74         64
    75         47
    76        117
    77        651
    78        999
    79        177
    80         19
    81         55
    82         35
    83         66
    84         22
    85         49
    86         21
    87         11
    89         19
    90          9
    91         56
    92         17
    93         83
    94        534
    95        555
    96         52
    97         51
    98         16
    99         18
   101         15
   102         14
   105        678
   106         76
   107         59
   108         13
   109         34
   110         17
   111         36
   112         13
   113         21
   115         44
   119         14
   120         12
   121        632
   122        142
   123        340
   124         31
   125         22
   126         16
   127         31
   128         35
   129         18
   131         10
   133         10
   137         14
   139         30
   141         29
   149         46
   150         15
   151         33
   152         89
   153        104
   154         34
   155         22
   163         11
   165         62
   166         15
   167         23
   168         11
   169         13
   171         17
   178         10
   179         11
   181         96
   182         78
   183        132
   184         33
   197         13
   198         15
   199        166
   200        400
   201         61
   202         12