##TITLE=Library Entry 4167
##JCAMP-DX=Revision 4.10 
##DATA TYPE=MASS SPECTRUM
##SAMPLE DESCRIPTION=V.G.Zaikin, TIPS, Russian Acad. Sci.
##NAMES=HP
##CAS NAME=cis,cis-2-Methyl-1-thiadecalin
##MOLFORM=C10H18S
##CAS REGISTRY NO=83349-26-2
##MP= -300
##BP= -300
##MW= 170
##$RETENTION INDEX=0
##$CONDENSED SPECTRUM=NO
##NPOINTS= 106
##XYDATA=(XY..XY) 1 
    39        635
    40        156
    41        999
    42        114
    43         84
    44        137
    45        380
    46         39
    47        136
    48          9
    49         19
    50         50
    51        121
    52         62
    53        304
    54        171
    55        423
    56         41
    57         33
    58         89
    59        237
    60        131
    61        182
    62         20
    63         33
    64         13
    65        123
    66         90
    67        606
    68        166
    69         93
    70         18
    71        120
    72         43
    73        121
    74        168
    75        106
    76         27
    77        189
    78         65
    79        434
    80        140
    81        537
    82         86
    83         18
    84         20
    85        110
    86         44
    87        146
    88         33
    89         24
    90          3
    91        105
    92         24
    93        257
    94        218
    95        294
    96         74
    97         79
    98         17
    99         97
   100         37
   101        418
   102         45
   103         30
   105         19
   107        109
   108         92
   109         68
   110         23
   111         15
   112          8
   113        142
   114        102
   115        113
   116         15
   117         11
   119         12
   120          8
   121        139
   122         17
   123         19
   125         11
   126         35
   127        885
   128        158
   129         49
   130          8
   135         11
   136         36
   137         37
   138          8
   140          6
   141        179
   142         31
   143         11
   154         17
   155        484
   156         54
   157         21
   168         15
   169         21
   170        890
   171        106
   172         45
   173          5