##TITLE=Library Entry 5354
##JCAMP-DX=Revision 4.10 
##DATA TYPE=MASS SPECTRUM
##SAMPLE DESCRIPTION=OGDEN BioServices Corp., NCI, Rockville, MD 20852
##NAMES=HP
##CAS NAME=Fluorodopan
##MOLFORM=C9H13ClFN3O2
##CAS REGISTRY NO=834-91-3
##MP= -300
##BP= -300
##MW= 249
##$RETENTION INDEX=0
##$CONDENSED SPECTRUM=NO
##NPOINTS= 162
##XYDATA=(XY..XY) 1 
    42        999
    43         88
    44         92
    45         32
    46         38
    47        203
    49         52
    50          9
    51         25
    52         63
    53         79
    54        195
    55         98
    56        122
    57         12
    58         12
    59          6
    60          4
    61         15
    62         28
    63        151
    65         69
    66         41
    67         56
    68        148
    69        102
    70        134
    71         19
    72         38
    73          4
    74         74
    76         23
    77          9
    78         14
    79         10
    80         27
    81         36
    82         80
    83        237
    85         20
    86         15
    87          7
    88         56
    90         37
    91          2
    92         16
    93          8
    94         21
    95         48
    96         62
    97         48
    98         40
    99         11
   100         10
   102         34
   104         17
   105          8
   106         10
   107         14
   108         17
   109        163
   110         45
   111         27
   112          7
   113         10
   114         10
   115         13
   116          6
   117          2
   118          4
   119          1
   120          7
   121         18
   122        121
   123         56
   124         38
   126        215
   127         22
   129        118
   130         11
   131          3
   132          3
   133          7
   134          6
   135         16
   136          2
   137         41
   138         21
   139          5
   140        230
   141         26
   143         42
   145         27
   147         10
   148          2
   149          6
   150         47
   152        274
   154        101
   155         13
   157          9
   158          3
   159          3
   160          1
   161          1
   163          0
   164         54
   165         88
   166         43
   167         78
   168         12
   169          3
   170          0
   171          8
   173          4
   174          0
   175          5
   176          8
   177          1
   178         52
   180        121
   181         10
   182          1
   184          2
   185         13
   186          4
   187          4
   188          1
   190          0
   192         85
   193        531
   194         61
   195          6
   196          0
   198         10
   200        172
   201         15
   202          1
   203          6
   204          1
   205          2
   206          1
   207          0
   210          0
   211          1
   213        159
   214         64
   216         50
   218         18
   219          1
   222          0
   224          0
   226          0
   229         35
   230          1
   231         15
   232          2
   247          3
   248          6
   249         23
   250          4
   251          1