##TITLE=Library Entry 88029
##JCAMP-DX=Revision 4.10 
##DATA TYPE=MASS SPECTRUM
##SAMPLE DESCRIPTION=Chemical Concepts
##NAMES=HP
##CAS NAME=Cyclohexanebutanoic acid, 2-methyl-3-oxo-, methyl ester
##MOLFORM=C12H20O3
##CAS REGISTRY NO=83406-43-3
##MP= -300
##BP= -300
##MW= 212
##$RETENTION INDEX=0
##$CONDENSED SPECTRUM=NO
##NPOINTS= 141
##XYDATA=(XY..XY) 1 
    26         15
    27        169
    28         89
    29        154
    30         10
    31         24
    33          5
    36          6
    37          4
    38          8
    39        177
    40         46
    41        409
    42        158
    43        132
    44         16
    45         23
    46          4
    47          4
    48          5
    50          8
    51         23
    52         16
    53        108
    54         66
    55        492
    56         69
    57         38
    58          6
    59        162
    60         10
    61          5
    62          4
    63          8
    64          4
    65         28
    66         18
    67        142
    68         62
    69        124
    70         39
    71         19
    72          9
    73          8
    74        178
    75         16
    76          4
    77         32
    78         11
    79         65
    80         38
    81        156
    82        127
    83        130
    84         39
    85         25
    86          5
    87         45
    88         11
    89          4
    91         19
    92          9
    93         57
    94         30
    95         73
    96         50
    97         59
    98         14
    99         21
   100         10
   101         14
   102         10
   103          5
   104          5
   105         15
   106         10
   107         29
   108         34
   109         56
   110         49
   111        999
   112        113
   113         15
   114          5
   115          5
   118         20
   119         13
   120         28
   121         24
   123         55
   124         44
   125         25
   126          8
   127         10
   128          6
   129          7
   130          3
   133          9
   134         15
   135         97
   136         17
   137         34
   138         11
   139         15
   140         18
   141         32
   142          5
   143          3
   144         11
   145          9
   147         17
   148          5
   149          7
   151         52
   152         20
   153          9
   154          3
   155          7
   156          4
   161          6
   162          8
   163         21
   164          5
   165         16
   166          5
   167          3
   168          9
   169          7
   179          5
   180          9
   181         25
   182          5
   183          4
   184          4
   194         31
   195          8
   197         17
   198          4
   212         54
   213          9
   214          4