##TITLE=Library Entry 56637
##JCAMP-DX=Revision 4.10 
##DATA TYPE=MASS SPECTRUM
##SAMPLE DESCRIPTION=Chemical Concepts
##NAMES=HP
##CAS NAME=Spiro[1,3-dioxolane-2,1'(2'H)-naphthalen]-8'(5'H)-one, hexahydro-
8'a-methyl-, cis-(.+-.)-
##MOLFORM=C13H20O3
##CAS REGISTRY NO=83406-47-7
##MP= -300
##BP= -300
##MW= 224
##$RETENTION INDEX=0
##$CONDENSED SPECTRUM=NO
##NPOINTS= 154
##XYDATA=(XY..XY) 1 
    26          2
    27         38
    28         23
    29         25
    30          2
    31          4
    39         46
    40         15
    41         99
    42         58
    43         48
    44          8
    45         16
    46          1
    47          2
    48          1
    50          4
    51         12
    52         12
    53         45
    54         29
    55        116
    56         13
    57         10
    58          3
    59          2
    60          2
    61          1
    62          2
    63          5
    65         19
    66          8
    67         52
    68         20
    69         26
    70          8
    71          5
    72          1
    73         25
    74          1
    75          2
    76          2
    77         45
    78          9
    79         48
    80         14
    81         47
    82         28
    83         25
    84          6
    85          6
    86        999
    87         55
    88         11
    89          3
    90          2
    91         29
    92          5
    93         25
    94          6
    95         23
    96         13
    97          9
    98          4
    99        839
   100         90
   101         13
   104          2
   105         11
   106          4
   107         22
   108         35
   109         39
   110         10
   111         23
   112        904
   113        228
   114         42
   115          8
   116          2
   117          3
   118          3
   119          6
   120          3
   121          9
   122          3
   123         11
   124         73
   125         24
   126         18
   127         43
   128          6
   129          3
   130          1
   131          2
   133          5
   134          9
   135         11
   136         42
   137         23
   138          5
   139         13
   140         11
   141          6
   142          9
   143          1
   144          1
   145          2
   146          1
   147          4
   148          1
   149          6
   150          4
   151          6
   152         13
   153         21
   154          5
   155          9
   156          1
   161          4
   162         14
   163          6
   164          5
   165          6
   166          2
   167         18
   168         21
   169          3
   177          1
   178          4
   179         19
   180          9
   181         50
   182          7
   183          1
   186          1
   191          1
   192          1
   193          1
   194          3
   195         23
   196         12
   197          2
   204          1
   205          0
   206          2
   209         12
   210          1
   219          1
   222          1
   223          3
   224        184
   225         29
   226          3