##TITLE=Library Entry 44707
##JCAMP-DX=Revision 4.10 
##DATA TYPE=MASS SPECTRUM
##SAMPLE DESCRIPTION=NIST Mass Spectrometry Data Center
##NAMES=HP
##CAS NAME=Acetonitrile, bromochloro-
##MOLFORM=C2HBrClN
##CAS REGISTRY NO=83463-62-1
##MP= -300
##BP= -300
##MW= 153
##$RETENTION INDEX=764
##$CONDENSED SPECTRUM=NO
##NPOINTS= 52
##XYDATA=(XY..XY) 1 
    12         33
    13         17
    14          8
    16          2
    18          1
    24         13
    25         20
    26         21
    27         17
    28         32
    32         17
    35         68
    36          6
    37         24
    38         87
    39         94
    40          2
    44          2
    47        106
    48         19
    49         40
    50          6
    59          3
    60          3
    61          1
    62          1
    74        999
    75         39
    76        327
    77          7
    79        142
    81        149
    82         10
    91         57
    92         12
    93         60
    94         10
   105          2
   106          1
   114          2
   116          4
   118         78
   120         74
   121          2
   126         15
   128         21
   130          5
   153        161
   155        201
   156          8
   157         44
   158          1