##TITLE=Library Entry 50459
##JCAMP-DX=Revision 4.10 
##DATA TYPE=MASS SPECTRUM
##SAMPLE DESCRIPTION=NIST Mass Spectrometry Data Center
##NAMES=HP
##CAS NAME=2-Decylfuran
##MOLFORM=C14H24O
##CAS REGISTRY NO=83469-85-6
##MP= -300
##BP= -300
##MW= 208
##$RETENTION INDEX=1498
##$CONDENSED SPECTRUM=NO
##NPOINTS= 21
##XYDATA=(XY..XY) 1 
    41         70
    53        101
    54         16
    55         51
    66         20
    67         63
    68         40
    81        999
    82        374
    94        100
    95        449
    96         95
   109         67
   123        113
   124         53
   137         49
   151         59
   165         38
   179         12
   208        146
   209         18