##TITLE=Library Entry 85589
##JCAMP-DX=Revision 4.10 
##DATA TYPE=MASS SPECTRUM
##SAMPLE DESCRIPTION=A.A.Kutin, Moscow, Russia
##NAMES=HP
##CAS NAME=1H-Pyrazole-1-carboxamide, 4-(2-chloroethyl)-3,5-dimethyl-
##MOLFORM=C8H12ClN3O
##CAS REGISTRY NO=83467-44-1
##MP= -300
##BP= -300
##MW= 201
##$RETENTION INDEX=0
##$CONDENSED SPECTRUM=NO
##NPOINTS= 140
##XYDATA=(XY..XY) 1 
    33          1
    34          2
    35          3
    36          5
    37         11
    38         31
    39        165
    40         70
    41        106
    42        245
    43         39
    44        160
    45          2
    46          0
    47          1
    49         39
    50         20
    51         58
    52         57
    53         61
    54         19
    55         14
    56          6
    57          3
    58          0
    59          1
    60          1
    61          4
    62         12
    63         30
    64         16
    65         48
    66         45
    67         27
    68        108
    69          7
    70          1
    71          0
    73          4
    74          3
    75          9
    76          5
    77         44
    78         12
    79         28
    80         26
    81         14
    82          7
    83          1
    84          0
    85          1
    86          0
    87          1
    88          1
    89          3
    90          3
    91         16
    92          4
    93          9
    94          8
    95          9
    96          7
    97          1
    98          0
    99          0
   100          0
   101          0
   102          0
   103          0
   104          1
   105          3
   106          7
   107         17
   109        999
   110         66
   112          0
   113          0
   115          0
   116          1
   117          0
   118          0
   119          1
   121         16
   122          9
   123         54
   124          4
   125          0
   127          0
   128          0
   129          0
   130          0
   131          0
   133          0
   134          3
   135          0
   136          0
   137          0
   138          1
   139          0
   140          2
   141          1
   142          0
   143          0
   145          0
   149          0
   150          0
   152         10
   153          1
   154          0
   155          0
   156          1
   157         12
   158        101
   159         12
   160         30
   161          3
   163          0
   165          0
   166          1
   167          0
   168          0
   169          0
   170          0
   171          0
   172          0
   173          0
   174          0
   183          2
   184          0
   185          0
   186          1
   187          0
   188          1
   197          0
   198          0
   199          1
   201         79
   202          8
   203         24
   204          2