##TITLE=Library Entry 85596
##JCAMP-DX=Revision 4.10 
##DATA TYPE=MASS SPECTRUM
##SAMPLE DESCRIPTION=A.A.Kutin, Moscow, Russia
##NAMES=HP
##CAS NAME=1H-Pyrazole, 4-(2-bromoethyl)-3,5-dimethyl-
##MOLFORM=C7H11BrN2
##CAS REGISTRY NO=83467-28-1
##MP= -300
##BP= -300
##MW= 202
##$RETENTION INDEX=0
##$CONDENSED SPECTRUM=NO
##NPOINTS= 122
##XYDATA=(XY..XY) 1 
    33          3
    34          2
    35          3
    36         10
    37         22
    38         59
    39        245
    40        101
    41        156
    42        405
    43         25
    44         12
    45          4
    46          0
    47          1
    48          2
    49          5
    50         35
    51         64
    52         84
    53         82
    54         32
    55         41
    56         15
    57          6
    58          1
    60          8
    61         11
    62         24
    63         48
    64         23
    65         59
    66         59
    67         46
    68        177
    69         13
    70          5
    71          1
    72          0
    73          2
    74          4
    75          5
    76          5
    77         38
    78         14
    79         57
    80        100
    81         59
    82         81
    83          4
    84          1
    85          1
    86          0
    87          1
    88          0
    89          2
    91         23
    93         47
    94         15
    95         45
    96          5
    97          5
    98          1
    99          0
   101          0
   104          2
   105          5
   106         13
   107         30
   108         76
   109        999
   110         69
   111          3
   113          0
   115          0
   117          1
   118          0
   119          4
   120          1
   121         33
   122         46
   123        246
   124         17
   125          1
   127          1
   128          2
   129          0
   132          1
   133          0
   134          4
   135          1
   138          1
   140          2
   141          1
   142          0
   143          0
   145          0
   147          0
   148          0
   149          1
   153          0
   157          0
   158          1
   159          0
   160          0
   168          1
   169          0
   170          0
   171          1
   173          0
   174          0
   175          0
   183          0
   186          2
   188          2
   196          0
   198          1
   200          3
   202         98
   203         11
   204         86
   205          7