##TITLE=Library Entry 89623
##JCAMP-DX=Revision 4.10 
##DATA TYPE=MASS SPECTRUM
##SAMPLE DESCRIPTION=Tox21 Consortium/NIST Mass Spectrometry Data Center, 20
12
##NAMES=HP
##CAS NAME=Pincainide
##MOLFORM=C16H24N2O
##CAS REGISTRY NO=83471-41-4
##MP= -300
##BP= -300
##MW= 260
##$RETENTION INDEX=0
##$CONDENSED SPECTRUM=NO
##NPOINTS= 98
##XYDATA=(XY..XY) 1 
    15          1
    26          1
    27          6
    28          8
    29          8
    30         12
    38          1
    39         12
    40          3
    41         52
    42         62
    43         18
    44         33
    45          1
    50          1
    51          5
    52          3
    53          8
    54          7
    55         57
    56         16
    57          8
    58         74
    59          3
    63          2
    64          1
    65          8
    66          2
    67          4
    68          6
    69          8
    70          8
    71          1
    75          1
    76          1
    77         23
    78          6
    79         11
    80          3
    81          3
    82         10
    83          6
    84          9
    85          1
    89          2
    90          1
    91         22
    92          6
    93          4
    94          2
    95          1
    96          6
    97          2
    98         57
    99          4
   102          2
   103         10
   104          5
   105         14
   106          7
   107          2
   108          1
   110         19
   112        999
   113         80
   114          3
   115          1
   116          3
   117          5
   118         10
   119          7
   120         27
   121          7
   122          2
   128          1
   130          5
   131          2
   132         10
   133          3
   134          6
   135          1
   138          1
   144          2
   145          1
   146          2
   147          4
   148          4
   159          1
   160          2
   161          1
   202          1
   213          1
   215          2
   241          1
   258          3
   259          1
   260          4
   261          1