##TITLE=Library Entry 32602
##JCAMP-DX=Revision 4.10 
##DATA TYPE=MASS SPECTRUM
##SAMPLE DESCRIPTION=O. VOSTROWSKY,INST. ORG. CHEM.,ERLANGEN-NUERNBERG UNIV.
,W.GER.
##NAMES=HP
##CAS NAME=1,E-6,Z-10-Hexadecatriene
##MOLFORM=C16H28
##CAS REGISTRY NO=83489-23-0
##MP= -300
##BP= -300
##MW= 220
##$RETENTION INDEX=0
##$CONDENSED SPECTRUM=NO
##NPOINTS= 88
##XYDATA=(XY..XY) 1 
    40         20
    41        555
    42         41
    43        119
    44          6
    51          7
    52          8
    53        103
    54        241
    55        572
    56         31
    57         47
    58          3
    64          2
    65         50
    66         38
    67        999
    68        155
    69        450
    70         32
    71          8
    76          2
    77         50
    78         20
    79        149
    80        100
    81        268
    82        117
    83         46
    84          5
    85          4
    91         29
    92         10
    93        144
    94        113
    95        126
    96         53
    97         22
    98          2
   103          2
   104          2
   105          4
   106          4
   107         81
   108         62
   109        148
   110         71
   111         11
   112          1
   119          2
   120          8
   121         82
   122         26
   123         14
   124         18
   125          2
   133          1
   134         82
   135        258
   136         52
   137         28
   138         13
   139          2
   148         44
   149        134
   150         36
   151         17
   152          5
   162         11
   163         38
   164         32
   165          5
   166          5
   168          1
   176          6
   177         24
   178         17
   179          3
   180          1
   190          1
   191          7
   192          3
   193          0
   205          4
   206          1
   219          0
   220          4
   221          1