##TITLE=Library Entry 32419
##JCAMP-DX=Revision 4.10 
##DATA TYPE=MASS SPECTRUM
##SAMPLE DESCRIPTION=O. VOSTROWSKY,INST. ORG. CHEM.,ERLANGEN-NUERNBERG UNIV.
,W.GER.
##NAMES=HP
##CAS NAME=1,E-6,Z-11-Hexadecatriene
##MOLFORM=C16H28
##CAS REGISTRY NO=83483-55-0
##MP= -300
##BP= -300
##MW= 220
##$RETENTION INDEX=0
##$CONDENSED SPECTRUM=NO
##NPOINTS= 74
##XYDATA=(XY..XY) 1 
    40         46
    41        890
    42         63
    43        178
    44          4
    50          6
    51         21
    52         24
    53        164
    54        523
    55        832
    56         61
    57         50
    58          2
    65         72
    66         76
    67        999
    68        406
    69        263
    70         19
    71          4
    72          6
    77         59
    78         43
    79        356
    80        441
    81        784
    82        450
    83        175
    84          8
    85          4
    91         65
    92         10
    93        270
    94        164
    95        318
    96         92
    97         39
    98          8
   105         17
   106          6
   107        189
   108         74
   109         90
   110        208
   111         21
   119          8
   120          4
   121        138
   122         69
   123         35
   124         71
   125         10
   134         10
   135         89
   136         37
   137         74
   138         96
   139         16
   147          2
   148         26
   149        150
   150         51
   151         10
   162          1
   163         38
   164         18
   165          3
   166          2
   177         17
   178          6
   179          3
   219          2
   220          4