##TITLE=Library Entry 11024
##JCAMP-DX=Revision 4.10 
##DATA TYPE=MASS SPECTRUM
##SAMPLE DESCRIPTION=W. KELLER-SCHIERLEIN, ORG.-CHEM. LAB., ETH-Z, ZURICH, S
WITZ.
##NAMES=HP
##CAS NAME=1,3,5,7,11,13-Hexaacetoxy-2,6,10-trimethyltridecane
##MOLFORM=C28H46O12
##CAS REGISTRY NO=83532-04-1
##MP= -300
##BP= -300
##MW= 574
##$RETENTION INDEX=0
##$CONDENSED SPECTRUM=NO
##NPOINTS= 41
##XYDATA=(XY..XY) 1 
    43        999
    55        180
    68        240
    69        200
    81        190
    95        200
    97        280
   108        990
   109        230
   125        170
   134        130
   137        130
   147        130
   157        270
   159        210
   176        160
   185        100
   191         90
   197        100
   218         80
   236        100
   251        100
   259        410
   274         90
   278         80
   292         80
   311         90
   334        160
   352        120
   359         60
   371         40
   387         40
   394         60
   412         80
   427         10
   454         20
   455         20
   473        140
   487          4
   515         10
   575          1