##TITLE=Library Entry 46252
##JCAMP-DX=Revision 4.10 
##DATA TYPE=MASS SPECTRUM
##SAMPLE DESCRIPTION=Chemical Concepts
##NAMES=HP
##CAS NAME=2-(Phthalimidomethylamino)benzoic acid
##MOLFORM=C16H12N2O4
##CAS REGISTRY NO=83532-22-3
##MP= -300
##BP= -300
##MW= 296
##$RETENTION INDEX=0
##$CONDENSED SPECTRUM=NO
##NPOINTS= 105
##XYDATA=(XY..XY) 1 
    37        123
    38        163
    39        211
    40         33
    41         27
    42         29
    43         35
    45         73
    50        671
    51        289
    52        135
    53         59
    54         12
    56         58
    57          4
    58          4
    59          2
    61         48
    63        307
    64        217
    65        303
    66         66
    68          2
    70         19
    71          6
    74        298
    76        999
    77        594
    78        113
    79         19
    80         14
    81          6
    83          1
    84          1
    85          1
    86          3
    88         20
    90        214
    92        286
    93         44
    94          5
    99          2
   102        155
   104        524
   105        208
   106         15
   107          1
   108          1
   113          1
   114          2
   116          6
   119        138
   120         21
   121          6
   122          4
   126          1
   130        145
   132        212
   133         88
   134          8
   136          9
   137         16
   138          3
   139          5
   140          2
   144          2
   145         16
   147         40
   148         29
   149         40
   150         13
   151          2
   152          1
   153          1
   160        468
   161         41
   162          4
   163          1
   166          2
   167          2
   173          1
   175         15
   176          2
   178          1
   179          3
   180          2
   193          1
   194          1
   195          4
   196          1
   205          1
   207          1
   221          7
   222          6
   223          2
   232          1
   249          2
   250          9
   251          6
   252          1
   278          4
   279          1
   296         59
   297          8
   298          1