##TITLE=Library Entry 21855
##JCAMP-DX=Revision 4.10 
##DATA TYPE=MASS SPECTRUM
##SAMPLE DESCRIPTION=Div. of Experiment Therapeutics WRAIR, WRAMC, Washingto
n DC 20307
##NAMES=HP
##CAS NAME=4-Cyclohexyl-N-[6-methoxy-4-methyl-8-quinolinyl]-1-piperazine-hex
anamide
##MOLFORM=C27H40N4O2
##CAS REGISTRY NO=83547-04-0
##MP= -300
##BP= -300
##MW= 452
##$RETENTION INDEX=0
##$CONDENSED SPECTRUM=NO
##NPOINTS= 227
##XYDATA=(XY..XY) 1 
    41        381
    42        300
    43        122
    44        140
    45          4
    47         15
    53         40
    55        999
    56        436
    57        102
    58        175
    59          4
    62          7
    63          6
    65         17
    67        103
    68        146
    69        191
    70        262
    71         58
    72         30
    73          4
    75          1
    77         28
    79         44
    80         16
    81         86
    82        261
    83        278
    84        150
    85         70
    86         25
    87          5
    88          1
    89         17
    90          3
    91         22
    92          2
    93         15
    94         17
    95         45
    96        190
    97        152
    98        224
    99         84
   100          4
   101         19
   102         11
   103         11
   104          6
   105          2
   106          7
   107         11
   108         19
   110        132
   111        135
   112        185
   113         11
   114         29
   115          7
   116         27
   117         37
   118         20
   119          6
   120          3
   121          1
   122          8
   123         52
   124        159
   125        152
   126        207
   127         26
   128         17
   129          4
   130         36
   131         22
   132          9
   134          2
   135          6
   136         13
   137          7
   138        125
   139        189
   140        221
   141         15
   143        184
   144        103
   145         94
   146         43
   147          6
   149         12
   150         10
   151         25
   152          8
   153        114
   154         22
   155         38
   156          7
   157         44
   158         90
   159        166
   160         18
   161          2
   162          6
   163          7
   165         23
   166         29
   167         44
   168         23
   169          7
   170         19
   171         33
   172        157
   173         44
   174         38
   175         14
   177         10
   179         39
   181        769
   182         74
   183          5
   184         15
   185         31
   186          4
   188        626
   189        510
   190         52
   191          5
   192          1
   193         20
   194          2
   195         52
   196          7
   197          2
   198          8
   199         21
   200         45
   201        207
   202         26
   204         13
   205         14
   207          6
   209         20
   210          1
   211          4
   212         14
   213         26
   215        697
   216         88
   217         12
   221         11
   223         21
   225         28
   226         43
   227          3
   228         15
   230        269
   231         36
   232          3
   235          4
   237         28
   239         11
   241         11
   243         92
   244         14
   251          1
   253          8
   254          4
   255          9
   256          7
   257         21
   258         11
   263          8
   264          2
   265         26
   267         14
   269         15
   270          1
   271         16
   272         21
   282          8
   283         38
   285         58
   286          8
   295          1
   296         11
   298         15
   299          1
   300          6
   309         26
   310          9
   311          2
   312         10
   313          5
   314        773
   315         93
   316         10
   326         27
   327        183
   328        171
   329         36
   330          7
   340         24
   341         28
   342        225
   343         15
   344          2
   353          2
   354          3
   355         14
   356          2
   368         26
   369         16
   370          2
   381         15
   382          2
   409         23
   410          5
   423          5
   424          2
   437         31
   438          9
   450         15
   451         36
   452        178
   453         55
   454          8