##TITLE=Library Entry 52583
##JCAMP-DX=Revision 4.10 
##DATA TYPE=MASS SPECTRUM
##SAMPLE DESCRIPTION=ASES Database, Dalian Institute, P.R. China
##NAMES=HP
##CAS NAME=But-2-yl N-trifluoroacetyl-3-aminopentanoate
##MOLFORM=C11H18F3NO3
##CAS REGISTRY NO=83556-39-2
##MP= -300
##BP= -300
##MW= 269
##$RETENTION INDEX=0
##$CONDENSED SPECTRUM=NO
##NPOINTS= 43
##XYDATA=(XY..XY) 1 
    41        828
    42        122
    43        320
    44         68
    45         90
    53         50
    54         41
    55        189
    56        398
    57        856
    58         49
    59         30
    60        121
    69        231
    70        131
    71         98
    73         70
    82         20
    83        999
    84         99
    96         20
    98         30
   100        130
   101         40
   114         99
   116         30
   126         80
   139         70
   140        131
   142        129
   144         40
   154        703
   155         50
   166        218
   167        130
   184        820
   185         49
   196        699
   197         69
   213         59
   214         80
   240        200
   241         20