##TITLE=Library Entry 49526
##JCAMP-DX=Revision 4.10 
##DATA TYPE=MASS SPECTRUM
##SAMPLE DESCRIPTION=T. SASAKI, INST. APPL. ORG. CHEM., NAGOYA UNIV., NAGOYA
, JAPAN
##NAMES=HP
##CAS NAME=7-Thiaprotoadamantane 7,7-dioxide
##MOLFORM=C9H14O2S
##CAS REGISTRY NO=83570-55-2
##MP= -300
##BP= -300
##MW= 186
##$RETENTION INDEX=0
##$CONDENSED SPECTRUM=NO
##NPOINTS= 16
##XYDATA=(XY..XY) 1 
    39         75
    61        323
    65        114
    66        292
    67        642
    68        117
    78        124
    79        835
    80        999
    81        361
    91        148
    93        693
    94        194
   121        721
   122        116
   186         46