##TITLE=Library Entry 33134
##JCAMP-DX=Revision 4.10 
##DATA TYPE=MASS SPECTRUM
##SAMPLE DESCRIPTION=Chemical Concepts
##NAMES=HP
##CAS NAME=7-Oxabicyclo[4.1.0]hept-3-ene-3-carboxylic acid, methyl ester, (.
+-.)-
##MOLFORM=C8H10O3
##CAS REGISTRY NO=83604-09-5
##MP= -300
##BP= -300
##MW= 154
##$RETENTION INDEX=0
##$CONDENSED SPECTRUM=NO
##NPOINTS= 107
##XYDATA=(XY..XY) 1 
    25          1
    26         26
    27        192
    28         12
    29        115
    30          6
    31         30
    33         10
    34          1
    36          2
    37         27
    38         85
    39        722
    40        186
    41        771
    42         49
    43         93
    44         12
    45         85
    46          1
    47          5
    48          1
    49          6
    50         65
    51        138
    52         57
    53        183
    54         33
    55        162
    56         12
    57         22
    58         31
    59        385
    60         11
    61         29
    62         32
    63         77
    64         28
    65        573
    66        787
    67        999
    68        127
    69         43
    70          9
    71         39
    72         10
    73          4
    74         12
    75         10
    76          6
    77        186
    78         38
    79        108
    80         15
    81         67
    82         36
    83        128
    84         28
    85          9
    87          6
    91         14
    92         17
    93        281
    94        595
    95        420
    96         87
    97         73
    98         17
    99          6
   100          5
   101          0
   104          2
   105         87
   106          7
   107          4
   108         11
   109        105
   110         16
   111        363
   112         29
   113          5
   114          1
   119          1
   120          1
   121         67
   122        999
   123        672
   124         62
   125        265
   126        145
   127         15
   128          1
   129          1
   135          3
   136         29
   137         51
   138         11
   139        147
   140         14
   141          4
   142          1
   151          2
   152          7
   153        191
   154        462
   155         45
   156          6