##TITLE=Library Entry 12118
##JCAMP-DX=Revision 4.10 
##DATA TYPE=MASS SPECTRUM
##SAMPLE DESCRIPTION=Philip Morris R&D
##NAMES=HP
##CAS NAME=2,3-Dehydro-4-oxo-7,8-dihydro-.beta.-ionone
##MOLFORM=C13H18O2
##CAS REGISTRY NO=83646-60-0
##MP= -300
##BP= -300
##MW= 206
##$RETENTION INDEX=0
##$CONDENSED SPECTRUM=NO
##NPOINTS= 101
##XYDATA=(XY..XY) 1 
    38         26
    39        108
    40         67
    41        183
    42         34
    43        999
    44         67
    45         33
    50          9
    51         48
    52         24
    53         90
    54         13
    55        127
    56         27
    57         54
    58         37
    59         11
    60         16
    63         27
    65         70
    66         23
    67         82
    68         20
    69         75
    70         20
    71        137
    72         13
    73         15
    77        127
    78         29
    79        133
    80         21
    81         58
    82         19
    83         28
    84         13
    85         17
    89         11
    91        233
    92         40
    93        110
    94         16
    95         42
    96         34
    97         69
    98         17
    99          8
   103         42
   104         18
   105        420
   106         56
   107        124
   108         61
   109         36
   110         35
   111         11
   115         35
   116         11
   117         25
   118          7
   119         85
   120        301
   121        367
   122         49
   123         19
   128          8
   129         16
   130         15
   131         41
   132         15
   133        100
   134         27
   135        907
   136        444
   137         50
   145        107
   146         27
   147         67
   148        436
   149        297
   150         35
   151          5
   158         21
   159         14
   160         16
   161         34
   162          7
   163        743
   164         98
   165          9
   173        169
   174         19
   187         12
   188        188
   189         34
   190          7
   191         67
   192          7
   206        522
   207         80