##TITLE=Library Entry 77926
##JCAMP-DX=Revision 4.10 
##DATA TYPE=MASS SPECTRUM
##SAMPLE DESCRIPTION=A.A.Kutin, Moscow, Russia
##NAMES=HP
##CAS NAME=Imidazo[2,1-c]1,2,4-triazine, 1,4-dihydro-3-(4-methylphenyl)-6,7-
diphenyl-
##MOLFORM=C24H20N4
##CAS REGISTRY NO=83657-57-2
##MP= -300
##BP= -300
##MW= 364
##$RETENTION INDEX=0
##$CONDENSED SPECTRUM=NO
##NPOINTS= 112
##XYDATA=(XY..XY) 1 
    32         17
    38          1
    39         26
    40         29
    41        180
    42         12
    43         14
    44         27
    51         50
    52          6
    53          1
    55          4
    57         13
    62          3
    63         30
    65         58
    66          1
    69          2
    70          1
    71          1
    72          3
    73         13
    74          1
    75          7
    77        173
    78          9
    83          2
    87          3
    89         84
    91        222
   101          6
   104        999
   105         73
   106          2
   112          1
   113          1
   114         39
   117        585
   118         71
   119          3
   126          5
   128         15
   129         43
   130         13
   131          5
   139         12
   140          3
   141          5
   143         79
   144        222
   145         20
   146          1
   151          8
   152         16
   153          3
   154          2
   156         20
   157          5
   158          1
   159          3
   160          1
   163         10
   165         73
   166         12
   167          1
   168         17
   169          1
   170          1
   171          1
   174          2
   176         12
   177         25
   178         29
   179          3
   182         63
   186          1
   189          1
   190         19
   191         11
   192          5
   193          3
   202          6
   203         12
   204         36
   205         68
   206         25
   214          6
   217          5
   218         17
   219         44
   220         16
   221          1
   229         16
   231          5
   232         18
   233          1
   234          1
   242          5
   243         11
   244         17
   246        429
   247        216
   248         27
   260         25
   261          4
   286          2
   360         23
   361         15
   362         28
   364        625
   365        155
   366         17