##TITLE=Library Entry 3963
##JCAMP-DX=Revision 4.10 
##DATA TYPE=MASS SPECTRUM
##SAMPLE DESCRIPTION=TNO Volatile Compounds in Food - Chemical Concepts
##NAMES=HP
##CAS NAME=1,3-Butadiene, 1,4-dimethoxy-, (Z,Z)-
##MOLFORM=C6H10O2
##CAS REGISTRY NO=83650-30-0
##MP= -300
##BP= -300
##MW= 114
##$RETENTION INDEX=0
##$CONDENSED SPECTRUM=NO
##NPOINTS= 49
##XYDATA=(XY..XY) 1 
    25          3
    26         59
    27        347
    29        347
    30         32
    31         59
    36          0
    37         22
    38         69
    39        431
    41        999
    42        103
    43         19
    44         12
    45        146
    46          2
    49          2
    50         32
    51         46
    52         11
    53        112
    54         12
    55        150
    56        178
    57         18
    58         49
    59         65
    60          2
    66          2
    67          9
    68         49
    69         57
    70         19
    71        786
    72         32
    73          1
    81          6
    82          5
    83         24
    84         71
    85          5
    88          1
    98         25
    99        507
   100         22
   101          1
   114        802
   115         53
   116          3