##TITLE=Library Entry 26187
##JCAMP-DX=Revision 4.10 
##DATA TYPE=MASS SPECTRUM
##SAMPLE DESCRIPTION=G.M. STRUNZ, CAN. FOR. SERV., FREDERICTON, NEW BRUNSWIC
K, CAN.
##NAMES=HP
##CAS NAME=6a-Ethyl-2,5-dioxohexahydrofuro[2,3-b]furan
##MOLFORM=C8H10O4
##CAS REGISTRY NO=83663-22-3
##MP= -300
##BP= -300
##MW= 170
##$RETENTION INDEX=0
##$CONDENSED SPECTRUM=NO
##NPOINTS= 53
##XYDATA=(XY..XY) 1 
    51          3
    52          1
    53         11
    54          5
    55        312
    56         42
    57        999
    58         36
    59          2
    63          1
    64          0
    65          3
    67          2
    68         19
    69         76
    70          6
    71          7
    72          1
    79          2
    80          1
    81          2
    82          1
    83         13
    84          5
    85         26
    86         10
    91          5
    92          3
    96          1
    97         42
    98        630
    99        258
   100         11
   101          1
   108          1
   110          2
   111          9
   113        149
   114          8
   122          2
   123          1
   124          2
   125          2
   126         55
   127          3
   137          1
   141        381
   142         24
   143          3
   149          3
   153          4
   168          1
   171          1