##TITLE=Library Entry 70895
##JCAMP-DX=Revision 4.10 
##DATA TYPE=MASS SPECTRUM
##SAMPLE DESCRIPTION=T. Jones, LC, NHLBI, NIH, Bethesda, MD 20892
##NAMES=HP
##CAS NAME=2-Methyl-6-tridecylpiperidine
##MOLFORM=C19H39N
##CAS REGISTRY NO=83688-86-2
##MP= -300
##BP= -300
##MW= 281
##$RETENTION INDEX=0
##$CONDENSED SPECTRUM=NO
##NPOINTS= 191
##XYDATA=(XY..XY) 1 
    41         97
    42         41
    43        127
    44         81
    45          2
    46          0
    47          0
    48          0
    49          0
    50          0
    51          0
    52          0
    53          7
    54         11
    55         80
    56         43
    57         33
    58          7
    59          0
    61          0
    63          0
    64          0
    65          2
    66          1
    67         18
    68         11
    69         32
    70         32
    71          9
    72          1
    73          0
    74          0
    75          0
    76          0
    77          2
    78          0
    79          5
    80          2
    81         18
    82         20
    83         11
    84         13
    85          3
    86          0
    87          0
    88          0
    91          1
    92          0
    93          2
    94          2
    95          8
    96         23
    97         13
    98        999
    99        103
   100          4
   101          0
   103          0
   105          0
   106          0
   107          1
   108          1
   109          2
   110          9
   111          8
   112          7
   113          3
   114          0
   115          0
   116          0
   117          0
   118          0
   119          0
   120          0
   121          0
   122          0
   123          0
   124          8
   125          1
   126          6
   127          1
   128          0
   129          0
   130          0
   131          0
   133          0
   134          0
   135          0
   136          0
   137          0
   138          3
   139          0
   140          4
   141          1
   142          0
   144          0
   145          0
   146          0
   147          0
   148          0
   149          0
   150          0
   151          0
   152          3
   153          0
   154          5
   155          1
   156          0
   161          0
   162          0
   163          0
   164          0
   166          2
   167          0
   168          4
   169          1
   170          0
   173          0
   175          0
   176          0
   177          0
   178          0
   179          0
   180          2
   181          0
   182          3
   183          0
   184          0
   186          0
   188          0
   189          0
   190          0
   192          0
   193          0
   194          2
   196          2
   197          0
   200          0
   201          0
   203          0
   205          0
   206          0
   207          1
   208          1
   209          0
   210          3
   211          0
   212          0
   213          0
   215          0
   219          0
   221          0
   222          1
   223          0
   224          2
   225          1
   226          0
   228          0
   231          0
   233          0
   236          1
   238          7
   239          1
   240          0
   241          0
   246          0
   247          0
   248          0
   250          0
   252          3
   253          0
   256          0
   259          0
   260          0
   262          0
   263          0
   264          0
   265          0
   266         42
   267          9
   268          1
   270          0
   272          0
   273          0
   274          0
   278          1
   279          1
   280         28
   281         16
   282          3
   283          0