##TITLE=Library Entry 27960
##JCAMP-DX=Revision 4.10 
##DATA TYPE=MASS SPECTRUM
##SAMPLE DESCRIPTION=A.Pleshkova, Nesmeyanov Inst.Org.Elem.Cpds, Moscow
##NAMES=HP
##CAS NAME=N-Dimethylaminomethyl-tert.-butyl-isopropylphosphine
##MOLFORM=C10H24NP
##CAS REGISTRY NO=83718-54-1
##MP= -300
##BP= -300
##MW= 189
##$RETENTION INDEX=0
##$CONDENSED SPECTRUM=NO
##NPOINTS= 9
##XYDATA=(XY..XY) 1 
    41         18
    42          9
    43         60
    44         12
    58        999
    59         49
    60          5
   132          4
   189          1