##TITLE=Library Entry 31485
##JCAMP-DX=Revision 4.10 
##DATA TYPE=MASS SPECTRUM
##SAMPLE DESCRIPTION=Chemical Concepts
##NAMES=HP
##CAS NAME=Pyridine-4-aldehyde, N-ethoxycarbonylhydrazone
##MOLFORM=C9H11N3O2
##CAS REGISTRY NO=83710-34-3
##MP= -300
##BP= -300
##MW= 193
##$RETENTION INDEX=0
##$CONDENSED SPECTRUM=NO
##NPOINTS= 91
##XYDATA=(XY..XY) 1 
    36          6
    37         62
    38        253
    39        525
    40         59
    41         96
    42         82
    43        167
    44        150
    45        421
    46        102
    47          6
    48          6
    49         28
    50        256
    51        565
    52        127
    53         36
    54         42
    55         19
    56         19
    57         16
    58          6
    59          6
    60         19
    61        230
    62        999
    63        531
    64        404
    65        534
    66        370
    67        167
    68         36
    69         16
    70          6
    71         19
    72          3
    73          9
    74         10
    75         28
    76         70
    77        136
    78        367
    79         96
    80         39
    81         10
    82          6
    83          6
    84          6
    85          6
    86          3
    87          9
    88         42
    89        774
    90        153
    91        210
    92        534
    93        525
    94        336
    95         28
    96         10
    97          6
    99          3
   103         30
   104        230
   105        842
   106        136
   107         42
   108          3
   109          3
   111          3
   116          3
   117         85
   118         25
   119         39
   120        224
   121        127
   122         16
   123          3
   131         13
   132         16
   133         25
   134        153
   135         19
   146          9
   148         96
   149         13
   164          6
   193        213
   194         25
   195          3