##TITLE=Library Entry 84580
##JCAMP-DX=Revision 4.10 
##DATA TYPE=MASS SPECTRUM
##SAMPLE DESCRIPTION=Chemical Concepts
##NAMES=HP
##CAS NAME=Diazene, (4-methoxyphenyl)(4-nitro-1-naphthalenyl)-
##MOLFORM=C17H13N3O3
##CAS REGISTRY NO=83733-41-9
##MP= -300
##BP= -300
##MW= 307
##$RETENTION INDEX=0
##$CONDENSED SPECTRUM=NO
##NPOINTS= 159
##XYDATA=(XY..XY) 1 
    26          2
    27          9
    29          9
    30          8
    31         12
    38          8
    39         21
    41         14
    42          3
    43         38
    44          5
    45         11
    48          2
    49          4
    50         22
    51         26
    52         17
    53          9
    54          2
    55          7
    56          4
    57         14
    58          6
    60          2
    61          5
    62         10
    63         53
    64         98
    65         13
    66          6
    67          3
    69          5
    70          4
    71          6
    73          3
    74         20
    75         27
    76         46
    77        323
    78         36
    79         23
    80         13
    81          2
    83          5
    84          2
    85          5
    86          6
    87         17
    88         13
    89          8
    90          4
    91          6
    92        269
    93         19
    94          2
    95         22
    96         10
    97          3
    98          5
    99          9
   100         13
   101          9
   102          6
   103          3
   104          3
   105          2
   106          6
   107        999
   108         86
   109          8
   111          2
   112          3
   113         20
   114         31
   115         13
   116          5
   117          2
   121          3
   122          3
   123         20
   124          3
   126        209
   127         31
   128          6
   129          3
   130          5
   133          2
   135        322
   136         29
   137          2
   138          2
   139          5
   140         16
   141          5
   142         50
   143          7
   149         24
   150          3
   151          2
   152          3
   153          2
   154          3
   155          3
   156          6
   163          5
   164          3
   165          2
   167          4
   170          2
   172        102
   173         12
   176          3
   177          2
   178          6
   179          2
   187          3
   188          5
   189         37
   190         13
   191          3
   200          7
   201          3
   202          8
   203          2
   205          7
   206          5
   216          3
   217          8
   218         11
   219          3
   220          2
   221          2
   229          2
   231          2
   232          5
   233          8
   234          7
   235          2
   245          3
   246          6
   247          1
   248          2
   249          2
   259          2
   260         88
   261         29
   262          6
   264          3
   275          4
   276         11
   277         31
   278          7
   279          3
   290        134
   291         33
   292          8
   307        681
   308        146
   309         18