##TITLE=Library Entry 63805
##JCAMP-DX=Revision 4.10 
##DATA TYPE=MASS SPECTRUM
##SAMPLE DESCRIPTION=A.A.Kutin, Moscow, Russia
##NAMES=HP
##CAS NAME=1,2,4-Thiadiazol-5-amine, 3-benzylthio-
##MOLFORM=C9H9N3S2
##CAS REGISTRY NO=83757-08-8
##MP= -300
##BP= -300
##MW= 223
##$RETENTION INDEX=0
##$CONDENSED SPECTRUM=NO
##NPOINTS= 177
##XYDATA=(XY..XY) 1 
    33          5
    34          2
    35          0
    36          0
    37          4
    38         17
    39        119
    40         14
    41         40
    42         17
    43         34
    44         10
    45        149
    46         37
    47         15
    48          7
    49          2
    50         24
    51         65
    52         16
    53          8
    54          2
    55          7
    56          3
    57          9
    58         13
    59         17
    60        110
    61         25
    62         24
    63         59
    64         25
    65        261
    66         15
    67          4
    68         10
    69         15
    70          7
    71          7
    72          3
    73          5
    74         10
    75          7
    76        130
    77         59
    78         33
    79         19
    80          2
    81          4
    82          4
    83          4
    84          7
    85         67
    86         21
    87          7
    89         49
    90         93
    91        999
    92         89
    93         19
    94          3
    95          5
    96          2
    97          3
    98          2
    99          3
   100          8
   101        177
   102         77
   103         11
   104         17
   105          6
   106         53
   107          5
   108          2
   109          4
   110          2
   111          9
   112          2
   114          1
   115          1
   116          4
   117          8
   118         14
   119         23
   120          9
   121         96
   122        112
   123         67
   124         12
   125          4
   126          1
   127          1
   128          0
   129          2
   130          1
   131         40
   132         14
   133          3
   134          4
   135          2
   136          5
   137          1
   138          2
   139          1
   140          0
   141          0
   142          0
   143          0
   144          0
   145          3
   146         13
   147          6
   148         33
   149          7
   150          2
   151          1
   152          1
   153          2
   154          4
   155          2
   156          1
   157          1
   158          5
   159          6
   160          0
   161          0
   162          1
   163          8
   164          5
   165          1
   166          0
   167          0
   168          0
   169          0
   171          2
   172          0
   173          1
   175          4
   176          1
   177          0
   178          1
   179          0
   180          2
   181          6
   182          1
   183          0
   185          0
   188          2
   190        403
   191         48
   192         20
   193          3
   194          0
   195          0
   196          0
   199          0
   200          0
   203          0
   204          0
   205          0
   206          2
   207          0
   208          1
   209          0
   211          0
   213          0
   214          0
   215          0
   216          0
   220          1
   221          5
   223        570
   224         71
   225         53
   226          5
   227          1