##TITLE=Library Entry 14129
##JCAMP-DX=Revision 4.10 
##DATA TYPE=MASS SPECTRUM
##SAMPLE DESCRIPTION=FDA, Los Angeles District Laboratory
##NAMES=HP
##CAS NAME=Tetradecanoic acid, 2-iodoethyl ester
##MOLFORM=C16H31IO2
##CAS REGISTRY NO=83763-20-6
##MP= -300
##BP= -300
##MW= 382
##$RETENTION INDEX=0
##$CONDENSED SPECTRUM=NO
##NPOINTS= 51
##XYDATA=(XY..XY) 1 
    41        410
    42        150
    43        999
    44         20
    53         25
    54         45
    55        445
    56        135
    57        619
    58         35
    60         45
    67         80
    68         45
    69        285
    70         50
    71        235
    73         50
    81         90
    83        140
    84         40
    85        125
    86         30
    95         80
    97        120
    98         40
    99        100
   101         30
   109         45
   111         75
   115         25
   121         25
   125         55
   129         20
   135         30
   139         30
   143         20
   153         25
   154        504
   155        709
   156         25
   186         25
   191         35
   209         50
   211         45
   214         60
   227         70
   228         30
   253         25
   255        734
   256        160
   257         25