##TITLE=Library Entry 83380
##JCAMP-DX=Revision 4.10 
##DATA TYPE=MASS SPECTRUM
##SAMPLE DESCRIPTION=A.A.Kutin, Moscow, Russia
##NAMES=HP
##CAS NAME=Propenamide, 2-acetamido-3-phenyl-N-(4-methylphenyl)-
##MOLFORM=C18H18N2O2
##CAS REGISTRY NO=83772-77-4
##MP= -300
##BP= -300
##MW= 294
##$RETENTION INDEX=0
##$CONDENSED SPECTRUM=NO
##NPOINTS= 104
##XYDATA=(XY..XY) 1 
    33          6
    39         73
    40         22
    41         22
    43        598
    44         18
    45          2
    47          0
    50         17
    51         48
    52         27
    53         15
    54          4
    55          2
    56          1
    57          2
    61          2
    62         11
    63         42
    64         20
    65         73
    66          5
    67          1
    69          1
    71          0
    74          4
    75          7
    76         12
    77         88
    78         24
    79         33
    80          6
    81          1
    83          1
    86          1
    87          2
    89         98
    90        102
    91        202
    93         21
    94          0
   101          1
   102          6
   103          5
   104         18
   105         35
   106        158
   107        999
   108         83
   109          5
   114          0
   115          4
   116         37
   117        129
   118        333
   119         29
   120          3
   129          5
   130          2
   131          2
   132         18
   133          6
   134          6
   135          7
   136          0
   142          0
   144          3
   145          5
   146          7
   147          0
   148          1
   158          0
   159          0
   160          8
   161          2
   165          1
   175          6
   176          0
   181          0
   188         50
   189          5
   194          0
   196         11
   197          1
   206          0
   207          6
   208          1
   223          1
   224          1
   233          0
   234          2
   235         17
   237         12
   238          0
   250          2
   251         22
   252         23
   253          3
   267          0
   276          2
   293          4
   294         55
   295         11
   296          0