##TITLE=Library Entry 25896
##JCAMP-DX=Revision 4.10 
##DATA TYPE=MASS SPECTRUM
##SAMPLE DESCRIPTION=NIST Mass Spectrometry Data Center
##NAMES=HP
##CAS NAME=Butanoic acid, 2-methyl-, 2-methyl-2-propenyl ester
##MOLFORM=C9H16O2
##CAS REGISTRY NO=83783-90-8
##MP= -300
##BP= -300
##MW= 156
##$RETENTION INDEX=1018
##$CONDENSED SPECTRUM=NO
##NPOINTS= 35
##XYDATA=(XY..XY) 1 
    26          2
    27         11
    28         14
    29         82
    37          2
    38          2
    39         53
    40          5
    41         56
    47          1
    50          2
    51          6
    52          3
    53         25
    54         34
    55        109
    56         48
    57        999
    58         47
    72         40
    74          2
    77          3
    79          5
    83         14
    84          7
    85        325
    86         18
    91          3
    93          3
    99          5
   100          2
   103          5
   110          2
   121          6
   156          1