##TITLE=Library Entry 56832
##JCAMP-DX=Revision 4.10 
##DATA TYPE=MASS SPECTRUM
##SAMPLE DESCRIPTION=Institute of Organic Chemistry, USSR, 1990
##NAMES=HP
##CAS NAME=1,7-Didiethylamino-2,6-dihydroxy-4-oxaheptane
##MOLFORM=C14H32N2O3
##CAS REGISTRY NO=83794-37-0
##MP= -300
##BP= -300
##MW= 276
##$RETENTION INDEX=0
##$CONDENSED SPECTRUM=NO
##NPOINTS= 125
##XYDATA=(XY..XY) 1 
    50          8
    51          5
    52         12
    53          6
    54          5
    55         15
    56         79
    57         58
    58        237
    59         11
    60         16
    61          6
    62          1
    63          4
    64          6
    65          5
    66          3
    67          8
    68          3
    69         16
    70         25
    71         26
    72         82
    73         16
    74         10
    75          4
    76          3
    77          9
    78         12
    79          3
    80          4
    81          9
    82          7
    83          7
    84         22
    85         26
    86        999
    87        184
    88         17
    89          3
    91          5
    92          1
    93          2
    94         11
    95          5
    96          4
    97          8
    98         15
    99         11
   100         16
   101          5
   102         19
   103          5
   104          1
   105          6
   110          5
   111          7
   112         29
   113          9
   114         26
   115         11
   116        263
   117         26
   118          2
   119          3
   120          3
   121          2
   122          1
   123          3
   128         50
   129          7
   130         26
   131          8
   132          5
   133          4
   134          3
   135          1
   141          5
   142          3
   143          5
   144          8
   145          2
   146         10
   147          3
   148          4
   149          3
   150          2
   151          1
   156          3
   157          1
   158          3
   159          1
   160          5
   161          9
   162          3
   163          1
   168          3
   169          1
   170          1
   171          1
   172         21
   173          4
   174          5
   175          2
   176          7
   177          4
   178          2
   179          2
   185          2
   186          3
   187          1
   188         15
   189          1
   190        816
   191        105
   192         12
   202          2
   203          1
   204          4
   261          3
   262          5
   263          2
   275          3
   276          3
   277          3