##TITLE=Library Entry 63816
##JCAMP-DX=Revision 4.10 
##DATA TYPE=MASS SPECTRUM
##SAMPLE DESCRIPTION=Chemical Concepts
##NAMES=HP
##CAS NAME=Benzene, 1,1'-(1-ethyl-1,3-propanediyl)bis-
##MOLFORM=C17H20
##CAS REGISTRY NO=838-45-9
##MP= -300
##BP= -300
##MW= 224
##$RETENTION INDEX=0
##$CONDENSED SPECTRUM=NO
##NPOINTS= 122
##XYDATA=(XY..XY) 1 
    27         19
    29          9
    37          0
    38          2
    39         44
    40          3
    41         41
    42          1
    46          0
    47          1
    49          0
    50          8
    51         39
    52         10
    53          7
    54          0
    55          7
    56          0
    58          0
    59          0
    61          0
    62          4
    63         16
    64          6
    65         84
    66          4
    67          0
    68          0
    69          1
    70          3
    71          0
    72          0
    73          0
    74          2
    75          5
    76          5
    77         60
    78         48
    79         25
    80          2
    81          0
    82          0
    83          0
    86          0
    87          2
    88          1
    89         14
    90          6
    91        999
    92        215
    93         11
    94          0
    95          0
    96          0
    97          0
   100          0
   101          1
   102          8
   103         33
   104         51
   105         79
   106          5
   107          1
   108          0
   109          0
   111          0
   112          0
   113          1
   114          1
   115         32
   116          8
   117        154
   118         23
   119        147
   120        183
   121         14
   122          0
   126          0
   127          1
   128          4
   129          2
   130          0
   131          3
   132          9
   133         40
   134          4
   139          1
   140          0
   141          0
   142          0
   145          1
   146          4
   147          0
   150          0
   151          0
   152          3
   153          1
   154          0
   163          0
   164          0
   165          5
   166          2
   167          4
   168          1
   170          0
   176          0
   177          0
   178          4
   179          2
   180          0
   181          1
   189          1
   190          0
   191          1
   192          0
   193          2
   195          3
   222          0
   223          0
   224        216
   225         39
   226          3