##TITLE=Library Entry 81959
##JCAMP-DX=Revision 4.10 
##DATA TYPE=MASS SPECTRUM
##SAMPLE DESCRIPTION=Japan AIST/NIMC Database- Spectrum MS-IW-7651
##NAMES=HP
##CAS NAME=1,3-Dibenzoyl-4-benzylidene-5-oxo-2-thiocarbonylimidazolidine
##MOLFORM=C24H16N2O3S
##CAS REGISTRY NO=83800-62-8
##MP= -300
##BP= -300
##MW= 412
##$RETENTION INDEX=0
##$CONDENSED SPECTRUM=NO
##NPOINTS= 38
##XYDATA=(XY..XY) 1 
    27          3
    28          5
    38          1
    39          8
    44          3
    50         13
    51         61
    52          5
    57          1
    62          3
    63          9
    64          2
    65          1
    74          4
    75          6
    76         18
    77        328
    78         21
    87          1
    88          1
    89         11
    90          3
   102          7
   103          2
   104          4
   105        999
   106         81
   107          4
   116          5
   117          1
   124         28
   125          5
   165          1
   221          2
   248          1
   249        577
   250        102
   251         10