##TITLE=Library Entry 16445
##JCAMP-DX=Revision 4.10 
##DATA TYPE=MASS SPECTRUM
##SAMPLE DESCRIPTION=Japan AIST/NIMC Database- Spectrum MS-IW- 975
##NAMES=HP
##CAS NAME=N-Acetyl-l-alanyl-l-alanyl-l-alanine ethylamide
##MOLFORM=C13H24N4O4
##CAS REGISTRY NO=83808-32-6
##MP= -300
##BP= -300
##MW= 300
##$RETENTION INDEX=0
##$CONDENSED SPECTRUM=NO
##NPOINTS= 133
##XYDATA=(XY..XY) 1 
    14          1
    15          7
    16          1
    17         26
    18          2
    26          4
    27         16
    28         44
    29         23
    30         22
    36          1
    38          1
    39          4
    40          7
    41         18
    42         46
    43         63
    44        999
    45         32
    46        105
    47          2
    52          2
    53          3
    54          9
    55         28
    56         24
    57         16
    58          4
    59          3
    60          4
    67          3
    68          9
    69         14
    70         25
    71         50
    72         29
    73          3
    77          1
    78          1
    79          2
    80          1
    81          5
    82          7
    83          9
    84          6
    85          8
    86         95
    87         41
    88          3
    89          3
    91          1
    94          1
    95          5
    96          4
    97         11
    98          5
    99         61
   100         14
   101         30
   102          2
   107          1
   108          1
   109          3
   110          3
   111         11
   112          5
   113         13
   114        139
   115         14
   116         10
   117          9
   121          1
   123          3
   124          3
   125          5
   126          3
   127         23
   128          2
   130          6
   131          6
   135          2
   136          1
   137          6
   138          4
   139         14
   140          6
   141         23
   142          5
   143         12
   144          4
   145          1
   149          3
   150          2
   151          3
   152          9
   153          2
   154          2
   155          2
   156          1
   157         55
   158         54
   159          7
   164          1
   165          2
   166          4
   167         19
   168          4
   169          7
   170          2
   172         33
   173          3
   178          1
   184          2
   185        261
   186         26
   187          4
   196          2
   197          1
   204          1
   205          2
   208          1
   209          2
   210          5
   211          7
   214         18
   215          5
   228        111
   229         58
   230          7
   237          3
   256          2
   282          4
   301          3