##TITLE=Library Entry 12427
##JCAMP-DX=Revision 4.10 
##DATA TYPE=MASS SPECTRUM
##SAMPLE DESCRIPTION=Chemical Concepts
##NAMES=HP
##CAS NAME=2,3,4,5,6-Penta-O-acetyl-D-gluconitrile
##MOLFORM=C16H21NO10
##CAS REGISTRY NO=83830-74-4
##MP= -300
##BP= -300
##MW= 387
##$RETENTION INDEX=0
##$CONDENSED SPECTRUM=NO
##NPOINTS= 142
##XYDATA=(XY..XY) 1 
    26          0
    27          2
    28          1
    29          2
    31          0
    39          0
    40          1
    41          1
    42          7
    43        999
    44         21
    45          3
    51          0
    53          0
    55          3
    56          0
    57          2
    59          0
    60          2
    61          5
    65          0
    68          0
    69          1
    70          2
    71          1
    72          0
    73         11
    74          1
    80          0
    81          0
    83          0
    84          1
    85         19
    86          6
    87          0
    91          1
    93          0
    95          0
    96          0
    97          1
    98          1
    99          5
   100          1
   101          2
   102          3
   103         72
   104          3
   105          0
   106          3
   107          0
   109          0
   110          0
   111          0
   112          2
   113          2
   114          1
   115         66
   116          6
   117          0
   122          0
   123          5
   124          2
   125          0
   126          0
   127         15
   128          4
   129          1
   131          0
   137          2
   138          0
   139          1
   140          2
   141         13
   142          2
   143          1
   144          1
   145        120
   146          8
   147          1
   152          5
   153          2
   154          1
   155          0
   156          0
   157         27
   158          3
   159          0
   164          0
   165          4
   166          3
   167          0
   170          4
   171          0
   175          6
   180          1
   182          0
   183         11
   184          2
   186          0
   187         43
   188          4
   189          0
   195          0
   196          0
   197          2
   198          0
   199          0
   200          6
   201          1
   207          1
   212         42
   213          3
   214          0
   217         23
   218          1
   219          0
   225         16
   226          4
   227          0
   229          2
   230          0
   231          0
   242         14
   243          2
   244          0
   252          0
   255          0
   259          0
   267          2
   268          1
   272          7
   273          0
   284          0
   285          1
   286          0
   289          6
   290          0
   314         31
   315          4
   316          0
   327          0
   328          1