##TITLE=Library Entry 109284
##JCAMP-DX=Revision 4.10 
##DATA TYPE=MASS SPECTRUM
##SAMPLE DESCRIPTION=NIST Mass Spectrometry Data Center
##NAMES=HP
##CAS NAME=2-Chloro-4-iodotoluene
##MOLFORM=C7H6ClI
##CAS REGISTRY NO=83846-48-4
##MP= -300
##BP= -300
##MW= 252
##$RETENTION INDEX=1312
##$CONDENSED SPECTRUM=NO
##NPOINTS= 75
##XYDATA=(XY..XY) 1 
    15          1
    25          1
    26          6
    27          8
    35          2
    36          3
    37         28
    38         46
    39        141
    40         10
    41          4
    43          9
    44          4
    47          3
    48          3
    49         29
    50        100
    51         80
    52          9
    53          1
    60         10
    61         72
    62        172
    63        435
    64         70
    65         31
    66          1
    71          1
    72         10
    73         82
    74         65
    75         72
    76          5
    77          4
    84         26
    85         47
    86         70
    87         60
    88         25
    89        790
    90        248
    91         18
    96          4
    97         21
    98          5
    99        195
   100         11
   101         63
   102          3
   108          4
   109          1
   110          3
   111          1
   112          1
   123         18
   124         53
   125        999
   126        112
   127        459
   128         35
   129          1
   139          1
   152          3
   164          2
   165          4
   176          1
   189          1
   216         16
   217        161
   218         12
   251         32
   252        789
   253         72
   254        254
   255         18