##TITLE=Library Entry 2590
##JCAMP-DX=Revision 4.10 
##DATA TYPE=MASS SPECTRUM
##SAMPLE DESCRIPTION=R.E.Ardrey ET AL.Pharmaceutical Mass Spectra,L.,1985
##NAMES=HP
##CAS NAME=3'-Hydroxyquinalbarbitone
##MOLFORM=C12H18N2O4
##CAS REGISTRY NO=839-21-4
##MP= -300
##BP= -300
##MW= 254
##$RETENTION INDEX=0
##$CONDENSED SPECTRUM=NO
##NPOINTS= 100
##XYDATA=(XY..XY) 1 
    26         30
    27        310
    29        130
    30         20
    31         40
    37         10
    39        410
    40         70
    41        999
    42        170
    43        790
    44        160
    45        830
    46         20
    50         20
    51         60
    52         70
    53        230
    54         90
    55        300
    56         40
    57         30
    58         30
    59         10
    60         10
    65         40
    66         30
    67        200
    68         60
    69        320
    70        380
    71         90
    73         10
    77         80
    78         30
    79        170
    80         70
    81        190
    82         90
    83         40
    84         20
    85         50
    86         10
    87         10
    91         50
    92         10
    93         60
    94         20
    95         50
    96         80
    97        290
    98         50
    99         60
   100         20
   105         20
   106         20
   107         60
   108         90
   109         70
   110         30
   111         40
   112         30
   121         20
   122         20
   123         30
   124        110
   125         50
   126         60
   127         20
   129         10
   135         20
   136         20
   139         10
   140         10
   141         30
   142         10
   143         40
   144         10
   150         10
   151         30
   152         40
   153        110
   154         20
   155         40
   165         10
   166         30
   167        310
   168        510
   169        220
   170         20
   178         20
   179         20
   181         20
   193         30
   194         20
   195         50
   196         20
   207         20
   209         50
   221         10