##TITLE=Library Entry 34981
##JCAMP-DX=Revision 4.10 
##DATA TYPE=MASS SPECTRUM
##SAMPLE DESCRIPTION=NIST Mass Spectrometry Data Center, 1990.
##NAMES=HP
##CAS NAME=2-Methyl-3-decanol
##MOLFORM=C11H24O
##CAS REGISTRY NO=83909-79-9
##MP= -300
##BP= -300
##MW= 172
##$RETENTION INDEX=0
##$CONDENSED SPECTRUM=NO
##NPOINTS= 37
##XYDATA=(XY..XY) 1 
    27        146
    28         64
    29        176
    31         44
    39         91
    41        353
    42         63
    43        330
    44         71
    45         57
    53         27
    55        478
    56         77
    57        228
    58         18
    59         11
    66         12
    67         41
    69        999
    70         70
    71         38
    73        375
    74         18
    81         18
    82         21
    83         68
    84         13
    85         14
    86         16
    97         10
   110         31
   111        200
   112         19
   127         27
   128         29
   129        171
   130         15