##TITLE=Library Entry 48706
##JCAMP-DX=Revision 4.10 
##DATA TYPE=MASS SPECTRUM
##SAMPLE DESCRIPTION=NIST Mass Spectrometry Data Center
##NAMES=HP
##CAS NAME=9,12,15-Octadecatrienoic acid, 1-methylethyl ester, (Z,Z,Z)-
##MOLFORM=C21H36O2
##CAS REGISTRY NO=83918-59-6
##MP= -300
##BP= -300
##MW= 320
##$RETENTION INDEX=2200
##$CONDENSED SPECTRUM=NO
##NPOINTS= 108
##XYDATA=(XY..XY) 1 
    27         12
    39         37
    40         11
    41        199
    42         36
    43        143
    51         10
    52          9
    53         64
    54         57
    55        242
    59         29
    65         83
    66         96
    67        693
    68        108
    69        151
    77        208
    78        137
    79        999
    80        378
    81        436
    82         71
    83         49
    91        308
    92         74
    93        541
    94        230
    95        608
    96         64
   103         17
   104         10
   105        150
   106         55
   107        313
   108        458
   109        207
   110         19
   117         60
   118         10
   119        116
   120         36
   121        338
   122        148
   123         79
   131         47
   133         85
   134         20
   135        247
   136         92
   137         27
   145         23
   147         59
   148         12
   149        160
   150         50
   151         16
   153         10
   159         26
   161         34
   162          9
   163         48
   164         17
   167         15
   173         39
   174          6
   175         29
   177         12
   181         13
   189          7
   191         23
   192          6
   193         12
   195         23
   203         14
   204          7
   205          5
   207         18
   209         75
   210         14
   217         12
   218          6
   219          5
   221        117
   222         24
   223         14
   231          9
   233          4
   243         10
   249         26
   250          7
   251          7
   259         29
   260         10
   261        137
   262         31
   263          9
   264         36
   277        291
   278         73
   279         11
   291         15
   292          4
   305          2
   320         45
   321         11
   322          1
   323          1