##TITLE=Library Entry 7948
##JCAMP-DX=Revision 4.10 
##DATA TYPE=MASS SPECTRUM
##SAMPLE DESCRIPTION=Philip Morris R&D
##NAMES=HP
##CAS NAME=4s,6s-Dimethyl-7s-acetoxy-3-nonanone
##MOLFORM=C13H24O3
##CAS REGISTRY NO=83997-86-8
##MP= -300
##BP= -300
##MW= 228
##$RETENTION INDEX=0
##$CONDENSED SPECTRUM=NO
##NPOINTS= 73
##XYDATA=(XY..XY) 1 
    36         30
    38          8
    39         38
    40         13
    41        171
    42         39
    43        999
    44         28
    45         36
    51          2
    53         16
    54          7
    55        253
    56         65
    57        910
    58         46
    59         24
    60          5
    61          9
    67         23
    68         13
    69        479
    70        281
    71         50
    72         20
    73          6
    77          2
    79          4
    81         16
    82         44
    83        366
    84         42
    85         27
    86        822
    87         86
    88          7
    95         15
    96          6
    97         27
    98         10
    99        154
   100         15
   101         25
   109          8
   110         15
   111        293
   112         53
   113         10
   117         49
   118          3
   121         13
   123          3
   124          2
   125         33
   126         19
   127         51
   128         67
   129         12
   139        236
   140         24
   141          4
   150          7
   151          5
   153         10
   154          2
   157        280
   158         29
   159          2
   167          6
   168        148
   169         29
   170          6
   185          6