##TITLE=Library Entry 6573
##JCAMP-DX=Revision 4.10 
##DATA TYPE=MASS SPECTRUM
##SAMPLE DESCRIPTION=Exported from NIST MS Search
##NAMES=HP
##CAS NAME=Thiopropazate
##MOLFORM=C23H28ClN3O2S
##CAS REGISTRY NO=84-06-0
##MP= -300
##BP= -300
##MW= 445
##$RETENTION INDEX=3468
##$CONDENSED SPECTRUM=NO
##NPOINTS= 85
##XYDATA=(XY..XY) 1 
    41        250
    42        930
    43        999
    44        200
    45         20
    54        100
    55        660
    56        640
    57        270
    58        220
    59         20
    68         70
    69        180
    70        890
    71         90
    72         60
    82        160
    83        140
    84        250
    85         50
    87        570
    88         60
    96         90
    97        280
    98        480
    99        160
   100         20
   111        180
   112         60
   113        180
   114         20
   123         90
   124         10
   125        490
   126        130
   127         10
   139        180
   140         20
   142         50
   152         40
   153        510
   154         30
   157         20
   170         40
   171         20
   183         40
   185        570
   186         60
   196         50
   197         50
   198         30
   199        200
   200         20
   210         30
   211         50
   212         50
   213        250
   214        280
   215         30
   223         20
   224         20
   232        300
   233        130
   234         20
   246        610
   247        110
   248         10
   259         50
   260         50
   272         90
   273         80
   302         10
   303         10
   316         20
   329         20
   349         30
   371         40
   385        180
   386         90
   387         60
   388         30
   445        250
   446         60
   447         90
   448         20