##TITLE=Library Entry 54517
##JCAMP-DX=Revision 4.10 
##DATA TYPE=MASS SPECTRUM
##SAMPLE DESCRIPTION=NIST Mass Spectrometry Data Center, 1998.
##NAMES=HP
##CAS NAME=Pyrathiazine
##MOLFORM=C18H20N2S
##CAS REGISTRY NO=84-08-2
##MP= -300
##BP= -300
##MW= 296
##$RETENTION INDEX=2536
##$CONDENSED SPECTRUM=NO
##NPOINTS= 152
##XYDATA=(XY..XY) 1 
    15          1
    27          5
    28          9
    29          8
    30          9
    38          1
    39         10
    40          2
    41         22
    42        116
    43          6
    44          2
    45          8
    50          4
    51          9
    52          2
    53          4
    54         10
    55         70
    56         32
    57          3
    58          2
    62          2
    63          8
    64          2
    65         10
    66          1
    67          3
    68          6
    69         23
    70          5
    71          3
    74          2
    75          4
    76          4
    77         15
    78          4
    79          1
    80          1
    81          1
    82         13
    83          1
    84        999
    85         88
    86          3
    87          1
    88          1
    89          5
    90          2
    91          3
    92          1
    93          2
    94          2
    95          3
    96         11
    97          6
    98         16
    99          3
   101          3
   102          3
   103          1
   104          1
   105          1
   106          1
   107          1
   108          7
   109         10
   110          1
   113          3
   114          2
   115          5
   116          2
   117          1
   120          1
   121          2
   122          1
   125          1
   126          4
   127         13
   128          8
   129          1
   133          1
   134          3
   135          1
   136          2
   137          1
   138          2
   139         15
   140         10
   141          2
   145          2
   146          2
   147          1
   148          1
   150          2
   151         11
   152         29
   153         12
   154         18
   155          2
   158          2
   159          2
   164          4
   165          3
   166         12
   167         11
   168          2
   169          2
   170          2
   171         10
   172          4
   173          2
   177          3
   178         14
   179         28
   180        122
   181         18
   182          2
   183          5
   184         13
   185          4
   186          1
   190          1
   191          2
   192          2
   193          3
   194          2
   195          1
   196          8
   197         13
   198         53
   199         12
   200          3
   201          1
   209          2
   210          8
   211          4
   212         61
   213         10
   214          3
   222          1
   223          5
   224          9
   225          5
   226          3
   227          1
   292          1
   294          1
   296        175
   297         41
   298         12
   299          2