##TITLE=Library Entry 57528
##JCAMP-DX=Revision 4.10 
##DATA TYPE=MASS SPECTRUM
##SAMPLE DESCRIPTION=Japan AIST/NIMC Database- Spectrum MS-NW-2444
##NAMES=HP
##CAS NAME=1,2-Dichloro-4,5-dicyano-p-benzoquinone
##MOLFORM=C8Cl2N2O2
##CAS REGISTRY NO=84-58-2
##MP= -300
##BP= -300
##MW= 226
##$RETENTION INDEX=0
##$CONDENSED SPECTRUM=NO
##NPOINTS= 145
##XYDATA=(XY..XY) 1 
    12         20
    14          2
    16          2
    18          2
    24         47
    25          2
    26          9
    27          4
    28         34
    29          2
    32          1
    35         41
    36         99
    37         13
    38        118
    39          3
    40          5
    41          1
    43          1
    44          5
    47         85
    48         54
    49         27
    50         89
    51          4
    52        131
    53          9
    54          8
    55          1
    56          1
    57          1
    59        152
    60         40
    61         66
    62         76
    63         15
    64          6
    65          6
    66          2
    67          2
    68          1
    71         36
    72          4
    73         14
    74        113
    75          9
    76        456
    77         27
    78        108
    79          5
    80          9
    82          3
    83         11
    84          2
    85         76
    86         57
    87        999
    88         45
    89        317
    90         14
    91          1
    94        451
    95         13
    96        286
    97         15
    98         48
    99          9
   100        120
   101         11
   102         12
   103          1
   104        107
   105          7
   106          4
   108          4
   109         64
   110         10
   111         23
   112          8
   113          1
   118          1
   120          2
   121          9
   122        410
   123         17
   124        261
   125         11
   126         41
   127          2
   128          1
   132         27
   133          3
   134          2
   135         84
   136         12
   137         28
   138          6
   139          2
   144          3
   145          3
   146          4
   147          4
   148          2
   149          1
   150         61
   151          2
   152         39
   153          1
   154          6
   158          4
   160          3
   163        113
   164         11
   165         38
   166          3
   167          1
   168          1
   169          1
   170        787
   171         55
   172        531
   173         37
   174         79
   175          6
   176          1
   190          1
   191         88
   192         11
   193         33
   194          5
   195          1
   198        335
   199         29
   200        241
   201         17
   202         50
   203          3
   204          2
   226        518
   227         49
   228        359
   229         35
   230         65
   231          6
   232          3