##TITLE=Library Entry 29445
##JCAMP-DX=Revision 4.10 
##DATA TYPE=MASS SPECTRUM
##SAMPLE DESCRIPTION=R RYHAGE MS-LAB KAROLINSKA INSTITUTET STOCKHOLM SWEDEN
##NAMES=HP
##CAS NAME=Trimeprazine
##MOLFORM=C18H22N2S
##CAS REGISTRY NO=84-96-8
##MP= -300
##BP= -300
##MW= 298
##$RETENTION INDEX=2287
##$CONDENSED SPECTRUM=NO
##NPOINTS= 102
##XYDATA=(XY..XY) 1 
    14          2
    17          4
    18         15
    26          6
    27          9
    28         11
    29          8
    30         40
    31         28
    39         11
    41         10
    42         42
    43         18
    44         28
    45         23
    46          1
    51          8
    55          6
    56          9
    57         13
    58        999
    59         37
    63          8
    65          5
    69         11
    70          8
    71          9
    73          2
    75          5
    76          4
    77         15
    78          5
    82          4
    84         37
    85          8
    86         11
    89          1
    90          1
    91          4
    95          3
    96          5
    98          3
    99         11
   100         53
   101          5
   102          3
   108          6
   109          5
   111          2
   115          5
   121          3
   125          2
   127          9
   128          6
   135          3
   136          3
   138          2
   139         10
   140          5
   147          3
   151          6
   152         11
   153          9
   154         20
   155          2
   164          2
   165          2
   166         11
   167          8
   171          8
   172          3
   177          2
   178          5
   179         11
   180         61
   181         10
   184          7
   196          8
   197         15
   198         76
   199         37
   200          8
   207          2
   210          2
   211          4
   212         34
   213         12
   214          2
   223          5
   224          4
   237          3
   238         18
   239         13
   240          9
   241          2
   251          5
   252         28
   253         28
   254          4
   298        115
   299         36
   300          9