##TITLE=Library Entry 2932
##JCAMP-DX=Revision 4.10 
##DATA TYPE=MASS SPECTRUM
##SAMPLE DESCRIPTION=A.A.Kutin, Moscow, Russia
##NAMES=HP
##CAS NAME=1,3-Cyclohexanedione, 2-tert-butylaminomethylene-5,5-dimethyl-
##MOLFORM=C13H21NO2
##CAS REGISTRY NO=84018-65-5
##MP= -300
##BP= -300
##MW= 223
##$RETENTION INDEX=0
##$CONDENSED SPECTRUM=NO
##NPOINTS= 87
##XYDATA=(XY..XY) 1 
    33         30
    34          6
    35          2
    36          1
    37          5
    39        369
    41        999
    42        264
    43        145
    44         29
    45          4
    50         11
    51         34
    53        210
    55        590
    56        159
    57        424
    58         43
    59          5
    63          9
    65         47
    66         40
    67         51
    69        368
    70        199
    71          8
    72          3
    75          1
    77         34
    78         17
    79         26
    80         63
    81         31
    82         94
    83        121
    84         41
    85         29
    90          1
    91         12
    92         25
    94         42
    95         51
    96         53
    97         21
    98          5
   104          4
   105          6
   106         10
   107         11
   108         11
   110        169
   111        295
   112         16
   118          1
   121         75
   123         24
   124         69
   125         20
   126         11
   131          1
   134         18
   135         13
   136          8
   138         13
   139         77
   140          5
   146         10
   147          5
   148          9
   149          4
   150          4
   152         38
   153          3
   164         15
   166        425
   167        108
   168         12
   180          6
   189          6
   190         29
   191          9
   204          0
   206          5
   208        243
   209         19
   221          4
   223        202