##TITLE=Library Entry 87040
##JCAMP-DX=Revision 4.10 
##DATA TYPE=MASS SPECTRUM
##SAMPLE DESCRIPTION=NIST Mass Spectrometry Data Center
##NAMES=HP
##CAS NAME=Pacifigorgiol
##MOLFORM=C15H26O
##CAS REGISTRY NO=84014-68-6
##MP= -300
##BP= -300
##MW= 222
##$RETENTION INDEX=1554
##$CONDENSED SPECTRUM=NO
##NPOINTS= 138
##XYDATA=(XY..XY) 1 
    26          2
    27         72
    28         23
    29        130
    30          3
    31         10
    37          1
    38          4
    39        189
    40         40
    41        598
    42         94
    43        250
    44          9
    45         15
    46          1
    50          7
    51         45
    52         24
    53        209
    54         45
    55        699
    56         78
    57        148
    58          9
    59         10
    60          2
    61          2
    62          2
    63         15
    64          6
    65        111
    66         38
    67        357
    68        103
    69        693
    70        100
    71         45
    72          5
    73          3
    74          2
    75          3
    76          2
    77        222
    78         46
    79        259
    80         44
    81        462
    82         81
    83        561
    84         42
    86          4
    89          5
    90          3
    91        300
    92         64
    93        245
    94         59
    95        329
    96        154
    97        278
    98        248
    99         22
   100          1
   102          3
   103         18
   104          7
   105        120
   106         26
   107        333
   108         67
   109        534
   110        999
   111        630
   112        128
   113         13
   114          1
   115         24
   116          9
   117         28
   118          5
   119         86
   120         15
   121         50
   122        100
   123        303
   124        187
   125         55
   126          6
   127          3
   128          8
   129          7
   130          3
   131         13
   132          2
   133         72
   135        151
   136         28
   137         91
   138         18
   139         39
   140          3
   145          6
   147         60
   148         36
   149         24
   150          6
   151        598
   152         74
   153        201
   154         22
   155          2
   161         40
   162         17
   163          5
   165         31
   166         24
   167          4
   175          6
   176          2
   179         21
   180          7
   181          1
   189         33
   190          5
   193         11
   194          2
   203          2
   204         21
   205          5
   207        452
   208         63
   209          6
   221          3
   222        541
   223         86
   224          8
   225          1