##TITLE=Library Entry 109018
##JCAMP-DX=Revision 4.10 
##DATA TYPE=MASS SPECTRUM
##SAMPLE DESCRIPTION=TNO Volatile Compounds in Food - Chemical Concepts
##NAMES=HP
##CAS NAME=Oxazole, 2-butyl-5-ethyl-4-methyl-
##MOLFORM=C10H17NO
##CAS REGISTRY NO=84028-02-4
##MP= -300
##BP= -300
##MW= 167
##$RETENTION INDEX=0
##$CONDENSED SPECTRUM=NO
##NPOINTS= 63
##XYDATA=(XY..XY) 1 
    26          8
    27         65
    28          3
    29         48
    33          1
    38          5
    39         88
    40          4
    41        147
    42         40
    43        385
    44          2
    45          2
    50          1
    51          5
    52         14
    53         24
    54         47
    55         47
    56         70
    57         26
    58          2
    65          5
    66         12
    67         19
    68         16
    69        139
    70         10
    78          1
    79          1
    80         14
    81          7
    82         78
    83         10
    84         91
    85         11
    86          0
    94          4
    95          1
    96         19
    97          1
   108          2
   109          4
   110         41
   111          5
   112          2
   122         11
   123         10
   124        165
   125        999
   126        110
   127          7
   136          3
   137          3
   138        291
   139         99
   140          9
   150          1
   152        156
   153         16
   166         34
   167        190
   168         21