##TITLE=Library Entry 67413
##JCAMP-DX=Revision 4.10 
##DATA TYPE=MASS SPECTRUM
##SAMPLE DESCRIPTION=A.A.Kutin, Moscow, Russia
##NAMES=HP
##CAS NAME=Quinoline-3-carboxamide, 1,2-dihydro-4-hydroxy-2-oxo-1-propyl-N-(
2-pyridinyl)-
##MOLFORM=C18H17N3O3
##CAS REGISTRY NO=84088-66-4
##MP= -300
##BP= -300
##MW= 323
##$RETENTION INDEX=0
##$CONDENSED SPECTRUM=NO
##NPOINTS= 229
##XYDATA=(XY..XY) 1 
    33          0
    39         63
    40         17
    41         56
    42         16
    43         36
    44          6
    45          2
    46          1
    50         14
    51         39
    52         13
    53          5
    54          2
    55          2
    56          1
    57          0
    58          0
    59          0
    61          0
    62          5
    63         16
    64         13
    65         20
    67        153
    69         23
    70          0
    71          0
    72          0
    73          3
    74          3
    75         11
    76         40
    77        145
    78        118
    79         10
    80          1
    81          0
    82          0
    83          0
    84          0
    85          0
    86          1
    87          3
    88         10
    89         37
    90         42
    91         28
    92         71
    94        999
    95        294
    96         12
    98          1
    99          0
   100          2
   101          7
   102         18
   103         34
   104         65
   105         52
   106          8
   107         12
   108          1
   109          0
   111          1
   112          1
   114         18
   115         15
   116         28
   117         28
   118         19
   119         85
   120        107
   121         96
   122         13
   123          1
   124          1
   126          2
   127          3
   128          7
   129          5
   130         24
   132        351
   133         35
   134          8
   135          2
   136          0
   137          0
   138          0
   139          0
   140          3
   141          3
   142          5
   143          6
   144         21
   145         12
   146         66
   147         11
   148          5
   149          0
   150          0
   151          0
   152          0
   153          0
   154          2
   155          1
   156          2
   157          1
   158          6
   159         11
   160         21
   161         35
   163          3
   164          0
   165          0
   166          0
   167          1
   168          1
   169          3
   170         12
   171          5
   172         16
   173          5
   174         11
   175         13
   176          1
   177          0
   178          0
   179          0
   181          2
   182          3
   183          1
   184          2
   185          3
   187        164
   188         59
   189          7
   190          2
   191          0
   192          0
   193          0
   194          0
   195          0
   196          0
   197          1
   198          1
   200         30
   201          9
   202          5
   203          4
   204          0
   205          0
   206          0
   207          0
   208          0
   209          0
   210          0
   211          0
   212          5
   214         13
   215          2
   216          0
   218          0
   219          0
   220          0
   221          0
   222          0
   223          0
   224          1
   225          0
   226          0
   227          2
   228          9
   229         14
   230         25
   231          3
   232          0
   233          0
   234          0
   235          1
   236         13
   237          4
   238          1
   239          0
   245          0
   246          0
   247          0
   248          0
   249          0
   250          1
   252          7
   253          8
   254          1
   255          0
   256          0
   262          0
   264         11
   265          2
   266          1
   267          0
   275          0
   276          0
   277          1
   278          4
   281        223
   282         33
   283          2
   284          0
   290          0
   291          0
   294         13
   295          9
   296          1
   302          0
   304          0
   305          1
   306          3
   308         85
   309         17
   310          1
   311          0
   317          0
   318          0
   319          1
   322         76
   323        131
   324         25
   325          3
   326          0