##TITLE=Library Entry 55486
##JCAMP-DX=Revision 4.10 
##DATA TYPE=MASS SPECTRUM
##SAMPLE DESCRIPTION=A.A.Kutin, Moscow, Russia
##NAMES=HP
##CAS NAME=Oxane-4-carboxamide, 2-propyl-
##MOLFORM=C9H17NO2
##CAS REGISTRY NO=84125-25-7
##MP= -300
##BP= -300
##MW= 171
##$RETENTION INDEX=0
##$CONDENSED SPECTRUM=NO
##NPOINTS= 87
##XYDATA=(XY..XY) 1 
    33         11
    34          2
    36          3
    39        132
    40         90
    41        250
    42        141
    43        252
    44        300
    45         18
    46          6
    50          1
    51          8
    53         69
    54         85
    55        692
    56        284
    57         75
    58         14
    59        102
    60          3
    65         12
    66         12
    67         67
    68         30
    69         58
    70         35
    71        252
    72        663
    73         56
    74          3
    77         10
    79         13
    80          8
    81         34
    82         75
    83        294
    84        302
    85        999
    86         91
    87          8
    91          3
    92          7
    93          4
    94          9
    95         12
    96         10
    97         55
    98        567
    99        282
   100        237
   101        207
   102         36
   103         17
   104          0
   105          0
   107          2
   109         24
   110        235
   111         53
   112         18
   113         11
   114          4
   115         11
   116          1
   123          1
   125         46
   126         73
   127        121
   128        728
   129         51
   130          5
   136          3
   139          2
   140         11
   141          1
   142         13
   143         41
   144          3
   152          2
   153         11
   154         26
   155          2
   156          3
   170          8
   171         39
   172          5