##TITLE=Library Entry 51468
##JCAMP-DX=Revision 4.10 
##DATA TYPE=MASS SPECTRUM
##SAMPLE DESCRIPTION=Organic Synthesis Lab, MSU, Moscow.TRC 1492
##NAMES=HP
##CAS NAME=6-Fluoro-3-(piperidin-4-yl)-1,2-benzisoxazole
##MOLFORM=C12H13FN2O
##CAS REGISTRY NO=84163-77-9
##MP= -300
##BP= -300
##MW= 220
##$RETENTION INDEX=0
##$CONDENSED SPECTRUM=NO
##NPOINTS= 33
##XYDATA=(XY..XY) 1 
    41         45
    42        128
    43        176
    44         21
    53         48
    54         59
    55        145
    56        188
    57        177
    58         35
    63         21
    67         25
    68        165
    80         94
    81         29
    82        999
    83        194
    84         27
    96         20
    98         25
   108         23
   109         48
   110         20
   137         19
   138        107
   164         58
   165         20
   177         35
   178         23
   190         49
   191         21
   220        135
   221         19