##TITLE=Library Entry 16702
##JCAMP-DX=Revision 4.10 
##DATA TYPE=MASS SPECTRUM
##SAMPLE DESCRIPTION=James Little,Eastman Chem.Co.,Kingsport,TN
##NAMES=HP
##CAS NAME=N-(2-Methoxyethyl)-N-dichloromethyleneimine
##MOLFORM=C4H7Cl2NO
##CAS REGISTRY NO=84198-93-6
##MP= -300
##BP= -300
##MW= 155
##$RETENTION INDEX=0
##$CONDENSED SPECTRUM=NO
##NPOINTS= 32
##XYDATA=(XY..XY) 1 
    27        221
    29        323
    31        100
    40         84
    43        132
    45        999
    46         53
    49        126
    51         48
    58         25
    59        306
    62         80
    63         44
    64         28
    65         14
    75        181
    76         13
    77         60
    82         31
    84         22
    88         29
    90         18
    93         10
    98         10
   110         60
   112         39
   119         44
   120         22
   121         91
   122         73
   125         15
   127         12