##TITLE=Library Entry 56744
##JCAMP-DX=Revision 4.10 
##DATA TYPE=MASS SPECTRUM
##SAMPLE DESCRIPTION=A.A.Kutin, Moscow, Russia
##NAMES=HP
##CAS NAME=Pentanamide, 2-amino-4-methyl-N-(2-naphthyl)-
##MOLFORM=C16H20N2O
##CAS REGISTRY NO=842-94-4
##MP= -300
##BP= -300
##MW= 256
##$RETENTION INDEX=0
##$CONDENSED SPECTRUM=NO
##NPOINTS= 129
##XYDATA=(XY..XY) 1 
    39         29
    40         11
    41         81
    42         38
    43        132
    44        272
    45          9
    46          0
    50          6
    51          9
    52          4
    53          6
    54          4
    55         11
    56         11
    57         13
    58          2
    59          1
    60          2
    61          1
    62          5
    63         16
    64          4
    65         11
    66          1
    67          4
    68          3
    69          8
    70         19
    71          4
    72          3
    73          2
    74          5
    75          8
    76          7
    77         11
    78          3
    79          2
    80          5
    81          3
    82          5
    83          3
    84         16
    86        999
    87         59
    88          8
    89         17
    90          4
    91          4
    92          1
    95          1
    96          1
    97          2
    98          1
    99          2
   100          2
   101          6
   102          2
   103          1
   104          1
   105          1
   107         13
   108          1
   109          0
   110          0
   111          1
   112          2
   113         13
   114         28
   115        150
   116         34
   117          5
   121          0
   123          0
   124          0
   125          2
   126         16
   127         39
   128          9
   129          1
   135          1
   136          0
   137          0
   138          1
   139          3
   140         21
   141         17
   142         40
   143        302
   144         55
   145          4
   149          1
   151          1
   152          1
   153          2
   154          3
   155          2
   156          1
   157          1
   166          0
   167          1
   168          2
   169         18
   170          5
   171          4
   172          0
   180          0
   181          1
   182         15
   183          8
   184          1
   185          5
   194          0
   195          0
   196          1
   197          2
   198          1
   199          1
   200          4
   201          0
   211          0
   213          0
   224          1
   238          0
   241          0
   254          1
   256         70
   257         13
   258          1