##TITLE=Library Entry 38383
##JCAMP-DX=Revision 4.10 
##DATA TYPE=MASS SPECTRUM
##SAMPLE DESCRIPTION=Japan AIST/NIMC Database- Spectrum MS-IW-3571
##NAMES=HP
##CAS NAME=Propanoic acid, 2-methyl-, 2-methylpentyl ester
##MOLFORM=C10H20O2
##CAS REGISTRY NO=84254-82-0
##MP= -300
##BP= -300
##MW= 172
##$RETENTION INDEX=1121
##$CONDENSED SPECTRUM=NO
##NPOINTS= 58
##XYDATA=(XY..XY) 1 
    15          4
    18          3
    26          5
    27        115
    28         24
    29         72
    30          2
    31         12
    32          1
    37          1
    38          3
    39         70
    40         14
    41        248
    42        113
    43        882
    44         46
    45         13
    50          1
    51          2
    52          1
    53          9
    54          6
    55        116
    56        615
    57        105
    58          7
    59         19
    60          1
    65          1
    67          6
    68          3
    69        183
    70         40
    71        999
    72         60
    73         20
    74          5
    82          2
    83         26
    84        591
    85        139
    86          8
    87         18
    88         21
    89        169
    90          7
    91          1
    98          1
    99         44
   100         43
   101         87
   102         15
   103          4
   111          3
   129         20
   130          2
   143          1