##TITLE=Library Entry 52180
##JCAMP-DX=Revision 4.10 
##DATA TYPE=MASS SPECTRUM
##SAMPLE DESCRIPTION=J.R. Aldrich, Agricultural Research Center, USDA, Belts
ville, MD 20
##NAMES=HP
##CAS NAME=E-2-Octenyl tiglate
##MOLFORM=C13H22O2
##CAS REGISTRY NO=84271-97-6
##MP= -300
##BP= -300
##MW= 210
##$RETENTION INDEX=0
##$CONDENSED SPECTRUM=NO
##NPOINTS= 70
##XYDATA=(XY..XY) 1 
    41        488
    42         69
    43        244
    44         24
    45         47
    47         52
    48         22
    52         21
    53        155
    54        332
    55        860
    56         81
    57        140
    58         10
    59          2
    60          4
    65         22
    66         13
    67        137
    68         85
    69        317
    70         40
    71         38
    72          8
    73         30
    77         17
    79         31
    80         11
    81        107
    82         85
    83        999
    84        153
    85         29
    86         59
    88         11
    89          3
    91         19
    93         16
    94          5
    95         77
    96         17
    97         26
    98         11
    99         18
   100         18
   101         50
   107         17
   108          6
   109         39
   110         52
   111         37
   112         21
   113         10
   114          8
   115          7
   121          5
   123          5
   125        103
   126         18
   127         11
   129          1
   137          1
   139         10
   140          1
   149          7
   153         14
   154          2
   165         28
   181         14
   210          9