##TITLE=Library Entry 5259
##JCAMP-DX=Revision 4.10 
##DATA TYPE=MASS SPECTRUM
##SAMPLE DESCRIPTION=NIST Mass Spectrometry Data Center, 1994
##NAMES=HP
##CAS NAME=(4S)-(-)-4-Isopropyl-1,3-oxazolidine-2-thione
##MOLFORM=C6H11NOS
##CAS REGISTRY NO=84272-19-5
##MP= -300
##BP= -300
##MW= 145
##$RETENTION INDEX=0
##$CONDENSED SPECTRUM=NO
##NPOINTS= 36
##XYDATA=(XY..XY) 1 
    15        196
    26          0
    27        163
    28         24
    29          0
    30        106
    38         60
    39        375
    40         97
    41        539
    42        999
    43        399
    44        107
    45         24
    46         50
    47         33
    54         40
    55        208
    56         65
    60         83
    69         44
    70        115
    71         58
    72         75
    73         66
    74        292
    75         36
   100         63
   101        135
   102        621
   103         57
   114         52
   145        906
   146         71
   147         42
   148          2