##TITLE=Library Entry 64583
##JCAMP-DX=Revision 4.10 
##DATA TYPE=MASS SPECTRUM
##SAMPLE DESCRIPTION=NIST Mass Spectrometry Data Center, 2010
##NAMES=HP
##CAS NAME=6,7-Dimethoxy-2-phenethyl-4H-chromen-4-one
##MOLFORM=C19H18O4
##CAS REGISTRY NO=84294-87-1
##MP= -300
##BP= -300
##MW= 310
##$RETENTION INDEX=2891
##$CONDENSED SPECTRUM=NO
##NPOINTS= 86
##XYDATA=(XY..XY) 1 
    38          2
    39         24
    50         14
    51         18
    52          5
    53         22
    59         20
    62          6
    63         20
    65         68
    66         18
    67         13
    69         33
    74          3
    75          6
    76          8
    77         27
    78         14
    81         16
    89         15
    90          9
    91        999
    92         79
    93          8
    94          4
    95          6
   102         11
   103          8
   104          4
   105         12
   109         27
   110          5
   113          3
   115          8
   118          8
   119          7
   120          5
   127          9
   128         21
   129          8
   130         10
   137         41
   138          5
   139          3
   146         10
   147         51
   148          8
   149          3
   152          5
   154          3
   155          9
   165         29
   166          4
   167          2
   173          5
   175          5
   176          5
   178          3
   179          3
   180         13
   181         14
   189          4
   190          4
   191         48
   192          7
   218          4
   219         35
   220          5
   229          2
   233          2
   244         16
   245          2
   250          8
   251          8
   264         19
   265          5
   267          5
   279         17
   280          3
   281         15
   295         18
   309         81
   310        419
   311         82
   312         12
   313          1