##TITLE=Library Entry 86769
##JCAMP-DX=Revision 4.10 
##DATA TYPE=MASS SPECTRUM
##SAMPLE DESCRIPTION=Japan AIST/NIMC Database- Spectrum MS-NW-4096
##NAMES=HP
##CAS NAME=4-(4-Nitrophenylazo)catechol
##MOLFORM=C12H9N3O4
##CAS REGISTRY NO=843-33-4
##MP= -300
##BP= -300
##MW= 259
##$RETENTION INDEX=0
##$CONDENSED SPECTRUM=NO
##NPOINTS= 210
##XYDATA=(XY..XY) 1 
    12          2
    14          2
    15          2
    16          6
    25          1
    26         17
    27         88
    28         51
    29         24
    30         52
    31          2
    32          7
    35          1
    36          5
    37         17
    38         40
    39         97
    40         14
    41         21
    42          9
    43         10
    44         22
    45          3
    46          5
    49          6
    50        143
    51        111
    52        118
    53        159
    54         16
    55        137
    56          7
    57         10
    58          2
    60          6
    61         12
    62         39
    63        153
    64         69
    65         68
    66         16
    67         10
    68         17
    69         17
    70          5
    71          5
    72          1
    73          9
    74         39
    75        131
    76        141
    77         48
    78         14
    79         37
    80         31
    81        302
    82         20
    83          5
    84          3
    85          3
    86          7
    87         15
    88         14
    89         19
    90         15
    91         50
    92         96
    93         16
    94          5
    95          5
    96          3
    97          9
    98          6
    99          5
   100          4
   101         13
   102         18
   103          9
   104          9
   105          7
   106         12
   107         35
   108         54
   109        999
   110         81
   111          9
   112          4
   113         10
   114          8
   115         20
   116          7
   117          9
   118          4
   119          2
   120          9
   121          5
   122        116
   123         17
   124          4
   125         11
   126         16
   127         43
   128         52
   129         17
   130          6
   131          5
   132          1
   133          1
   134          5
   135          3
   136          2
   137        274
   138         70
   139        142
   140         26
   141          6
   142          2
   143          4
   144          6
   145          3
   146          2
   147          4
   148          1
   149          2
   150         22
   151          4
   152          4
   153          3
   154         12
   155         20
   156          9
   157         13
   158          4
   159          1
   160          1
   161          1
   162          1
   163          3
   164          2
   165          4
   166         10
   167         46
   168         13
   169          3
   170          2
   171          3
   172          6
   173         29
   174          6
   175          2
   176          4
   177          2
   178          1
   179          1
   181          2
   182          2
   183         14
   184         34
   185         34
   186          7
   187          2
   188          1
   189          4
   190          1
   191          1
   192          1
   195          2
   196          9
   197          3
   198          2
   199          3
   200          5
   201         57
   202         14
   203          4
   204          2
   205          1
   211          2
   212          5
   213         10
   214          9
   215          6
   216          2
   217          2
   218          6
   219          2
   220          1
   226          1
   227          1
   228          1
   229         27
   230          9
   231        186
   232         28
   233          4
   234          1
   236          1
   241          3
   242         12
   243          8
   244          2
   252          1
   254          1
   256          2
   257          1
   258          9
   259        345
   260         56
   261          8
   262          2