##TITLE=Library Entry 57471
##JCAMP-DX=Revision 4.10 
##DATA TYPE=MASS SPECTRUM
##SAMPLE DESCRIPTION=J.Xi ET AL.J.Agr.Food Chem., 47,245(1999)
##NAMES=HP
##CAS NAME=2-(1-Mercaptoethyl)-2,4,5-trimethyl-3-thiazoline
##MOLFORM=C8H15NS2
##CAS REGISTRY NO=84310-28-1
##MP= -300
##BP= -300
##MW= 189
##$RETENTION INDEX=0
##$CONDENSED SPECTRUM=NO
##NPOINTS= 39
##XYDATA=(XY..XY) 1 
    31         21
    39        118
    41         66
    42        305
    43        197
    45        284
    47         82
    50          5
    51         21
    53        329
    54         34
    55        126
    56         13
    57         21
    58         34
    59        195
    60         18
    61         24
    68          8
    69         10
    70         55
    71        126
    72         34
    73         29
    85         24
    87        999
    88         79
    89         37
    96        110
    98         53
   112         34
   114        266
   115         21
   116         18
   127        113
   128        600
   129        263
   130         53
   140         10