##TITLE=Library Entry 54332
##JCAMP-DX=Revision 4.10 
##DATA TYPE=MASS SPECTRUM
##SAMPLE DESCRIPTION=V.A.KOPTYUG, ATLAS OF MASS SPECTRA OF ORGANIC COMPOUNDS
##NAMES=HP
##CAS NAME=1-Hydroxy-4-methoxy-2,2,5,5-tetramethyl-3-imidazoline
##MOLFORM=C8H16N2O2
##CAS REGISTRY NO=84316-11-0
##MP= -300
##BP= -300
##MW= 172
##$RETENTION INDEX=0
##$CONDENSED SPECTRUM=NO
##NPOINTS= 79
##XYDATA=(XY..XY) 1 
    39         85
    40         23
    41        244
    42        208
    43         47
    44         29
    45          8
    50          2
    51          3
    52          8
    53          8
    54         33
    55         60
    56        237
    57         18
    58        136
    59         40
    60          8
    66          7
    67         12
    68         87
    69        115
    70         51
    71         13
    72         55
    73         54
    74         51
    75          2
    77          3
    78          2
    82         37
    83         30
    84        999
    85        282
    86         14
    88          4
    91          3
    93          3
    94          5
    95          5
    96         24
    97          6
    98        100
    99         58
   100        184
   101         12
   106          1
   107          2
   108          7
   109         24
   110         18
   111         29
   112          6
   113          3
   114          3
   115          2
   116        404
   117         29
   118          3
   123         10
   124          6
   125        282
   126        144
   127         18
   128          2
   139         10
   140         36
   141        244
   142         37
   143          3
   155         19
   156         11
   157        877
   158         82
   159         10
   171         27
   172        215
   173         24
   174          3