##TITLE=Library Entry 12812
##JCAMP-DX=Revision 4.10 
##DATA TYPE=MASS SPECTRUM
##SAMPLE DESCRIPTION=A. MALMBERG, DEP. CHEM., UNIV. AGRIC. SCI., UPPSALA, SW
EDEN
##NAMES=HP
##CAS NAME=2-(1',2'-Dihydroxy-1'-methylethyl)-6,10-dimethyl-9-hydroxyspiro[4
,5]dec-6-en-8-one
##MOLFORM=C15H24O4
##CAS REGISTRY NO=84321-96-0
##MP= -300
##BP= -300
##MW= 268
##$RETENTION INDEX=0
##$CONDENSED SPECTRUM=NO
##NPOINTS= 69
##XYDATA=(XY..XY) 1 
    31        240
    39        160
    43        999
    44         60
    45        140
    53        110
    55        240
    57        270
    59        130
    67        140
    69        300
    71        150
    75        200
    77        150
    79        190
    81        130
    91        220
    93        160
    95        160
    98        110
   105        160
   107        200
   108        130
   119        110
   131        120
   133        200
   134        140
   135        230
   136        140
   145        100
   147        120
   149        110
   159        150
   161        530
   162        120
   163        100
   164         60
   173        120
   174        160
   175        240
   176         90
   177        130
   178         50
   189         60
   191         90
   192        290
   193         80
   201         80
   203         50
   207         60
   210        360
   211         60
   215         60
   217         50
   219        130
   233         50
   237        110
   238         30
   239         30
   248         20
   249         20
   250         50
   251         40
   252         10
   253         30
   257         10
   267         30
   268         20
   269         10