##TITLE=Library Entry 72771
##JCAMP-DX=Revision 4.10 
##DATA TYPE=MASS SPECTRUM
##SAMPLE DESCRIPTION=N.B. D'ACCORSO, FAC. CIENC., UNIV. BUENOS AIRES, ARGENT
.
##NAMES=HP
##CAS NAME=5-[1(R,S),2-Dihydroxyethyl]tetrazole
##MOLFORM=C3H6N4O2
##CAS REGISTRY NO=84348-17-4
##MP= -300
##BP= -300
##MW= 130
##$RETENTION INDEX=0
##$CONDENSED SPECTRUM=NO
##NPOINTS= 17
##XYDATA=(XY..XY) 1 
    31        912
    41         62
    42        487
    44         77
    45         66
    55         56
    56         83
    57        911
    60         28
    61        291
    69         15
    70         21
    71        294
    99         99
   100        999
   112          9
   130          7