##TITLE=Library Entry 109680
##JCAMP-DX=Revision 4.10 
##DATA TYPE=MASS SPECTRUM
##SAMPLE DESCRIPTION=Div. of Experiment Therapeutics WRAIR, WRAMC, Washingto
n DC 20307
##NAMES=HP
##CAS NAME=Benzene, 1,1'-[sulfonylbis(methylene)]bis[4-chloro-
##MOLFORM=C14H12Cl2O2S
##CAS REGISTRY NO=84355-05-5
##MP= -300
##BP= -300
##MW= 314
##$RETENTION INDEX=0
##$CONDENSED SPECTRUM=NO
##NPOINTS= 49
##XYDATA=(XY..XY) 1 
    41          2
    42          4
    45          2
    49          5
    50          4
    51          9
    62          8
    63         36
    64          8
    65          7
    73         10
    75          9
    77          2
    84          3
    85          0
    86          4
    87          3
    88          4
    89         92
    90         33
    91          3
    97          2
    99         36
   100          2
   101         11
   111          0
   122          1
   124          7
   125        999
   126         84
   127        333
   128         22
   149          4
   150         20
   151          1
   165          0
   178          3
   179          1
   250         92
   251         14
   252         61
   253          9
   254          9
   255          0
   314         19
   315          3
   316         13
   317          2
   318          1