##TITLE=Library Entry 10492
##JCAMP-DX=Revision 4.10 
##DATA TYPE=MASS SPECTRUM
##SAMPLE DESCRIPTION=Institute of Organic Chemistry, Novosibirsk, USSR 1988
##NAMES=HP
##CAS NAME=p-Acetoxyphenyl 2,3,4-tri-O-acetyl-.beta.-D-arabinopyranoside
##MOLFORM=C19H22O10
##CAS REGISTRY NO=84364-56-7
##MP= -300
##BP= -300
##MW= 410
##$RETENTION INDEX=0
##$CONDENSED SPECTRUM=NO
##NPOINTS= 65
##XYDATA=(XY..XY) 1 
    41         43
    42         21
    43        999
    44         60
    45         15
    53         21
    54         15
    57         21
    60         10
    61         15
    63          6
    64          4
    65         21
    68         21
    69        159
    70         15
    71         15
    73         21
    81         37
    82         15
    85         54
    86         15
    87         10
    93         10
    94         10
    95          4
    96          4
    97        999
    98         76
    99         15
   102          8
   103         12
   109         15
   110        359
   111         43
   113         10
   114          7
   115         98
   127         32
   128          5
   129          5
   139        779
   140         65
   151          5
   152         37
   153          5
   156          9
   157        359
   158         37
   159          3
   165          4
   174          5
   175          2
   177          1
   181          3
   189          1
   193          0
   194          1
   195          0
   199        104
   200         15
   216          4
   217          2
   259        349
   260         43