##TITLE=Library Entry 79894
##JCAMP-DX=Revision 4.10 
##DATA TYPE=MASS SPECTRUM
##SAMPLE DESCRIPTION=Humboldt-Universitat zu Berlin, Department of Chemistry
, Analytical Group
##NAMES=HP
##CAS NAME=2-Benzoyl-1,2-dihydro-1-isoquinolinecarbonitrile
##MOLFORM=C17H12N2O
##CAS REGISTRY NO=844-25-7
##MP= -300
##BP= -300
##MW= 260
##$RETENTION INDEX=0
##$CONDENSED SPECTRUM=NO
##NPOINTS= 97
##XYDATA=(XY..XY) 1 
    16          1
    17          4
    18         10
    26          4
    27         15
    28          7
    29          1
    32          1
    37          6
    38         10
    39         16
    40          1
    41          2
    43          2
    44          2
    45          1
    49          5
    50         55
    51        149
    52         18
    53          4
    54          1
    55          1
    57          1
    61          4
    62          8
    63         14
    64          4
    66          1
    70          0
    71          0
    73          3
    74         19
    75         34
    76         38
    77        377
    78         32
    79          2
    84          0
    85          1
    86          1
    87          3
    88          3
    89          4
    90          1
    97          1
    98          3
    99          3
   100          7
   101         34
   102         59
   103         20
   105        999
   106         69
   107          5
   108          0
   111          1
   113          1
   114          1
   115          1
   116          1
   122          4
   123          1
   126          2
   127         12
   128         62
   129        153
   130         18
   131         20
   132          2
   135          2
   139          0
   140          1
   141          0
   150          0
   151          0
   152          1
   153          2
   154         11
   155         15
   156          2
   176          1
   177          1
   198          0
   201          0
   202          0
   203          1
   204          1
   205          0
   231          1
   232          6
   233          1
   234          1
   235          0
   260        159
   261         27
   262          3