##TITLE=Library Entry 76227
##JCAMP-DX=Revision 4.10 
##DATA TYPE=MASS SPECTRUM
##SAMPLE DESCRIPTION=Exported from NIST MS Search
##NAMES=HP
##CAS NAME=2,5-Cyclohexadiene-1,4-dione, 2,5-diphenyl-
##MOLFORM=C18H12O2
##CAS REGISTRY NO=844-51-9
##MP= -300
##BP= -300
##MW= 260
##$RETENTION INDEX=0
##$CONDENSED SPECTRUM=NO
##NPOINTS= 33
##XYDATA=(XY..XY) 1 
    39         32
    50         59
    51         72
    52         59
    53         19
    62         19
    63         55
    74         42
    75         72
    76        144
    77         39
    87         16
    88         19
    89         39
   101         98
   102        999
   103         98
   116         29
   129         26
   130         45
   183         22
   202         62
   203        124
   204         65
   205         19
   215         19
   231        131
   232        216
   233         39
   259        377
   260        786
   261        144
   262         39