##TITLE=Library Entry 36006
##JCAMP-DX=Revision 4.10 
##DATA TYPE=MASS SPECTRUM
##SAMPLE DESCRIPTION=D. ROBESON, ARCO PLANT CELL RES. INST., DUBLIN, CALIF.,
 USA
##NAMES=HP
##CAS NAME=Deoxyradicinin
##MOLFORM=C12H12O4
##CAS REGISTRY NO=84413-76-3
##MP= -300
##BP= -300
##MW= 220
##$RETENTION INDEX=0
##$CONDENSED SPECTRUM=NO
##NPOINTS= 54
##XYDATA=(XY..XY) 1 
    26         12
    27         45
    28          3
    29          7
    32          0
    37          7
    38         15
    39        146
    40         31
    41        342
    42         39
    43         25
    44         11
    50          7
    51         13
    52          6
    53         28
    54         10
    55         11
    63          9
    65         12
    66         11
    67          7
    68         26
    69        999
    70         44
    77          7
    81         12
    82         67
    83          7
    91         10
    93          9
    95          8
    96          5
   108          5
   109         17
   110        714
   111         82
   112          6
   137         26
   150         19
   151         20
   152          6
   169          7
   177          7
   178        377
   179        109
   180         13
   192         11
   205         70
   206         10
   220        355
   221         56
   222          6