##TITLE=Library Entry 51330
##JCAMP-DX=Revision 4.10 
##DATA TYPE=MASS SPECTRUM
##SAMPLE DESCRIPTION=Insect Chem. Ecol. Lab., USDA, Beltsville, MD 20705
##NAMES=HP
##CAS NAME=Hexanoic acid, 3-hexenyl ester
##MOLFORM=C12H22O2
##CAS REGISTRY NO=84434-19-5
##MP= -300
##BP= -300
##MW= 198
##$RETENTION INDEX=1386
##$CONDENSED SPECTRUM=NO
##NPOINTS= 72
##XYDATA=(XY..XY) 1 
    41        189
    42         55
    43        185
    44          7
    45          8
    50          2
    51          7
    52          4
    53         36
    54         40
    55        172
    56         27
    57         13
    58          1
    59          2
    60         27
    61          4
    63          1
    65         11
    67        598
    68         39
    69         37
    70         11
    71        145
    72          5
    73         22
    74          2
    75          0
    77          4
    78          0
    79         12
    80          4
    81         54
    82        999
    83        211
    84         14
    85          2
    86          4
    87         12
    88          0
    89          2
    93          1
    95          1
    96          3
    97         10
    98          1
    99        390
   100         25
   101          5
   109          0
   113          1
   114          7
   115          9
   116          7
   117         51
   118          3
   121          0
   124          0
   127          1
   128          0
   129          3
   136          1
   138          0
   142          3
   143          0
   157          1
   181          0
   196          1
   197          1
   198         30
   199          3
   200          0