##TITLE=Library Entry 73813
##JCAMP-DX=Revision 4.10 
##DATA TYPE=MASS SPECTRUM
##SAMPLE DESCRIPTION=C.-T. Ho ET.AL.J.Agric.Food Chem.,31,336(1983)
##NAMES=HP
##CAS NAME=1-Acetyl-2-chloropyrrole
##MOLFORM=C6H6ClNO
##CAS REGISTRY NO=84455-05-0
##MP= -300
##BP= -300
##MW= 143
##$RETENTION INDEX=0
##$CONDENSED SPECTRUM=NO
##NPOINTS= 45
##XYDATA=(XY..XY) 1 
    26         18
    27         17
    28          5
    29         12
    31         13
    36         11
    37         41
    38         80
    39        159
    40         41
    41        103
    42         49
    43        665
    44         21
    45         14
    47         28
    49         24
    50         15
    51         21
    52         13
    53         24
    59         13
    60         13
    61         15
    63         13
    64         30
    65         25
    66         80
    67         14
    72         14
    73         48
    74        161
    75         34
    76         65
    78         13
    80         15
   100         34
   101        999
   102         72
   103        319
   104         31
   143        191
   144         24
   145         65
   146         17