##TITLE=Library Entry 66024
##JCAMP-DX=Revision 4.10 
##DATA TYPE=MASS SPECTRUM
##SAMPLE DESCRIPTION=A.A.Kutin, Moscow, Russia
##NAMES=HP
##CAS NAME=Bicyclo[6.1.0]heptane, 7-chloro-7-trimethylsilyl-
##MOLFORM=C10H19ClSi
##CAS REGISTRY NO=84472-99-1
##MP= -300
##BP= -300
##MW= 202
##$RETENTION INDEX=0
##$CONDENSED SPECTRUM=NO
##NPOINTS= 111
##XYDATA=(XY..XY) 1 
    35          0
    36          5
    37          0
    39         74
    40         20
    41         74
    42         13
    43         73
    44         26
    45        125
    46          6
    47          4
    49          0
    50          3
    51         14
    52         11
    53         42
    54         16
    55         41
    56          3
    57         12
    58         13
    59         63
    60          5
    61          2
    63         38
    65        101
    66         59
    67         77
    68         75
    69         29
    70          3
    71          8
    73        724
    74         51
    75         27
    77         68
    78         30
    79        563
    80         38
    81         25
    82          3
    83         15
    84          2
    85         12
    86          1
    87          0
    89          2
    90          1
    91         56
    93        999
    94        292
    95        291
    96         20
    97         15
    98          1
    99          1
   103          6
   104          1
   105         14
   106          2
   107         13
   108          2
   109         19
   110          2
   111          2
   112          0
   115          1
   116          0
   117          4
   118          2
   119         18
   120          2
   121         14
   122          2
   123         12
   124          3
   125          1
   127          2
   128          7
   129          2
   130          2
   131          2
   133          1
   135          2
   137          1
   143          1
   145         18
   146          1
   147          7
   148          1
   149          8
   151         15
   152          2
   153          0
   159          3
   160         35
   161          5
   162         11
   163          1
   164          0
   166          1
   167          0
   187          7
   188          0
   189          2
   202         26
   203          3
   204          9
   205          1
   206          0