##TITLE=Library Entry 95824
##JCAMP-DX=Revision 4.10 
##DATA TYPE=MASS SPECTRUM
##SAMPLE DESCRIPTION=B.Gioia ET AL.Biomed.Mass Spectrom.,11,408(1984)
##NAMES=HP
##CAS NAME=1H-1,4-Benzodiazepine, 2,3-dihydro-, 7-chloro-3-morpholino-5-phen
yl-
##MOLFORM=C19H20ClN3O
##CAS REGISTRY NO=84505-18-0
##MP= -300
##BP= -300
##MW= 341
##$RETENTION INDEX=0
##$CONDENSED SPECTRUM=NO
##NPOINTS= 137
##XYDATA=(XY..XY) 1 
    41        117
    42        149
    43        163
    44        109
    45         89
    50         83
    51        101
    52         28
    54         36
    55         60
    56        165
    57        109
    58         50
    60         22
    61         87
    62         62
    63        127
    64         30
    65         28
    69         28
    70         89
    71         26
    72         18
    73         34
    74         83
    75         79
    76         52
    77        119
    78         22
    81         20
    82         40
    83         12
    84         18
    85         22
    86        151
    87         65
    88        202
    89        159
    90         46
    91         56
    96         18
    97         14
    98         30
    99         28
   100        190
   101         26
   102         28
   103         24
   104         36
   109         14
   110         20
   111         38
   112         16
   113         60
   114         18
   115        999
   116         85
   117         83
   118          8
   122         14
   123         20
   124         28
   125         26
   126         28
   127         16
   128         10
   136         20
   137         16
   138         30
   139         40
   140         30
   141          4
   142         10
   149         14
   150         38
   151         54
   152         48
   153         18
   154         10
   161         12
   162         30
   163        115
   164         99
   165        266
   166         58
   167         18
   175         12
   176         28
   177         50
   178         32
   179         32
   180         18
   181          4
   188         12
   189         16
   190         56
   191         67
   192        131
   193        361
   194         58
   199         34
   200         12
   201         26
   203         10
   204         34
   205         48
   206          8
   214         20
   216          6
   217         16
   218         38
   219         30
   220          8
   226         22
   227        302
   228        395
   229        133
   230        105
   237         10
   238         20
   239         30
   240         67
   241         14
   242         36
   243         38
   252         40
   253          5
   254         80
   255        120
   256         32
   257         24
   264         15
   340         10
   341         81
   342         21
   343         31
   344          8