##TITLE=Library Entry 29629
##JCAMP-DX=Revision 4.10 
##DATA TYPE=MASS SPECTRUM
##SAMPLE DESCRIPTION=NIST Mass Spectrometry Data Center, 1994
##NAMES=HP
##CAS NAME=3-Heptadecanol
##MOLFORM=C17H36O
##CAS REGISTRY NO=84534-30-5
##MP= -300
##BP= -300
##MW= 256
##$RETENTION INDEX=0
##$CONDENSED SPECTRUM=NO
##NPOINTS= 70
##XYDATA=(XY..XY) 1 
    15          5
    18          4
    27        111
    28         46
    29        295
    30         14
    31        195
    39         65
    40         21
    41        587
    42         99
    43        482
    44         40
    45         11
    53         28
    54         42
    55        382
    56         99
    57        406
    58        172
    59        999
    60         37
    65          6
    66          3
    67         75
    68         36
    69        313
    70         71
    71        156
    72         40
    73         15
    77          4
    79          8
    80          3
    81         49
    82         40
    83        281
    84         42
    85         85
    86          7
    95         29
    96         27
    97        256
    98         33
    99         21
   105          3
   109          8
   110          9
   111        142
   112         21
   113          9
   123          4
   124          7
   125         75
   126         10
   127          8
   138          4
   139         30
   140          7
   152          3
   153         11
   154          3
   166          2
   168          2
   210          3
   225          7
   227         91
   228         18
   238          9
   239          2