##TITLE=Library Entry 25578
##JCAMP-DX=Revision 4.10 
##DATA TYPE=MASS SPECTRUM
##SAMPLE DESCRIPTION=NIST Mass Spectrometry Data Center, 1994
##NAMES=HP
##CAS NAME=3-Heptadecanone
##MOLFORM=C17H34O
##CAS REGISTRY NO=84534-29-2
##MP= -300
##BP= -300
##MW= 254
##$RETENTION INDEX=1880
##$CONDENSED SPECTRUM=NO
##NPOINTS= 80
##XYDATA=(XY..XY) 1 
    14          2
    15         11
    17          2
    18          1
    27        214
    28         77
    29        790
    30         20
    31         10
    39         97
    41        561
    42        128
    43        706
    44         24
    45          4
    51          2
    52          2
    53         32
    54         30
    55        295
    56         97
    57        999
    58         48
    59          8
    65          4
    67         57
    68         21
    69        111
    70         36
    71        171
    72        792
    73        366
    74         16
    77          3
    79          8
    80          3
    81         43
    82         18
    83         59
    84         23
    85        218
    86         18
    87          1
    93          4
    95         55
    96         27
    97         35
    98         16
    99         42
   100          4
   107          1
   109         28
   110         13
   111         18
   112          4
   113          8
   114         17
   115          1
   121          1
   123         15
   124          7
   125          8
   126          1
   127          8
   128          6
   137          6
   138          4
   141          7
   151          3
   152          2
   155          1
   169          3
   180          6
   182          2
   183          3
   211          1
   225         90
   226         13
   254          3
   255          1