##TITLE=Library Entry 27384
##JCAMP-DX=Revision 4.10 
##DATA TYPE=MASS SPECTRUM
##SAMPLE DESCRIPTION=Japan AIST/NIMC Database- Spectrum MS-IW-1506
##NAMES=HP
##CAS NAME=Benzoic acid, 2-[(2,2-dimethyl-1-oxopropyl)amino]-, methyl ester
##MOLFORM=C13H17NO3
##CAS REGISTRY NO=84540-62-5
##MP= -300
##BP= -300
##MW= 235
##$RETENTION INDEX=0
##$CONDENSED SPECTRUM=NO
##NPOINTS= 116
##XYDATA=(XY..XY) 1 
    15         11
    26          1
    27         14
    28         11
    29         92
    30          2
    31          1
    37          1
    38          6
    39         38
    40          5
    41        148
    42         16
    43          4
    44          1
    45          4
    50          8
    51          6
    52          7
    53          5
    54          1
    55         13
    56          7
    57        999
    58         50
    59         10
    62          4
    63         23
    64         26
    65         38
    66          5
    67          1
    69         10
    70          5
    71          5
    73          6
    74          2
    75          9
    76         11
    77         12
    78          2
    79          4
    80          3
    81          1
    83          2
    85        172
    86          9
    89          1
    90         26
    91         38
    92         68
    93         44
    94          4
    95          3
   102          1
   103          9
   104          2
   105          4
   106          9
   107          6
   108          1
   117          3
   118         16
   119         38
   120        204
   121         27
   122          3
   123          2
   124          2
   130          1
   131          2
   132          5
   133          3
   134          4
   135         23
   136          4
   137          1
   144          1
   146         33
   147          3
   148          2
   149          1
   150         25
   151        600
   152         58
   153          5
   158          1
   159          1
   160          3
   161          2
   162          1
   164          2
   175          1
   176         11
   177         17
   178         37
   179         24
   180          3
   188          9
   189          1
   190          1
   192         67
   193         16
   194          1
   202          2
   204        131
   205         17
   206          2
   218          1
   220          2
   221          1
   234          3
   235        717
   236        115
   237         12
   238          1