##TITLE=Library Entry 58023
##JCAMP-DX=Revision 4.10 
##DATA TYPE=MASS SPECTRUM
##SAMPLE DESCRIPTION=Institute of Organic Chemistry, Novosibirsk, USSR 1988
##NAMES=HP
##CAS NAME=Methyl 7-O-acetyl-2,3,4,6-tetra-O-methyl-.alpha.-L-glycero-D-mann
oheptopyranoside
##MOLFORM=C14H26O8
##CAS REGISTRY NO=84564-14-7
##MP= -300
##BP= -300
##MW= 322
##$RETENTION INDEX=0
##$CONDENSED SPECTRUM=NO
##NPOINTS= 60
##XYDATA=(XY..XY) 1 
    43        290
    44         11
    45        178
    55         11
    56          3
    57         10
    58          4
    59         18
    71         28
    72         11
    73         68
    74         33
    75        914
    76         24
    83         17
    84          8
    85         42
    86         10
    87         18
    88        999
    89        222
   101        953
   117        158
   118          7
   119          4
   123          3
   124          7
   125          7
   127         11
   129         11
   131         34
   133          8
   145         67
   153          7
   154          1
   155          6
   156          2
   157         50
   158          3
   159          6
   161         36
   167         21
   171          5
   173         99
   174          7
   175         12
   176         11
   185         11
   199         16
   217         13
   221        134
   222         20
   223          0
   227         22
   228          0
   231         20
   249          4
   259         67
   263         45
   291         24