##TITLE=Library Entry 57875
##JCAMP-DX=Revision 4.10 
##DATA TYPE=MASS SPECTRUM
##SAMPLE DESCRIPTION=Institute of Organic Chemistry, Novosibirsk, USSR 1988
##NAMES=HP
##CAS NAME=Methyl 4-O-acetyl-2,3,6,7-tetra-O-methyl-.beta.-glycero-D-glucohe
ptopyranoside
##MOLFORM=C14H26O8
##CAS REGISTRY NO=84564-16-9
##MP= -300
##BP= -300
##MW= 322
##$RETENTION INDEX=0
##$CONDENSED SPECTRUM=NO
##NPOINTS= 76
##XYDATA=(XY..XY) 1 
    43        184
    45        290
    55         18
    57         18
    59         65
    69         15
    71         65
    73        110
    74         50
    75        923
    76         39
    77          5
    81          7
    83         10
    85         81
    87        147
    88        999
    89        131
    95          8
    97         21
    98          7
    99         39
   100         15
   101        131
   102          7
   103         36
   109          2
   111         31
   112          4
   114         26
   115         31
   116         10
   117          9
   119         11
   125         17
   127         39
   128         23
   129         63
   131         26
   133          5
   139          7
   141         11
   142          5
   143         39
   145         12
   147         11
   153          2
   155          4
   156          5
   157         39
   158          5
   159          6
   161          2
   167          2
   171         11
   173          7
   175          2
   185         92
   186          9
   187          2
   189         14
   193         79
   199          6
   203          8
   204         23
   205          2
   213          1
   217          3
   227          0
   230          6
   231          2
   233          1
   245          7
   259          0
   277         13
   291          0