##TITLE=Library Entry 9288
##JCAMP-DX=Revision 4.10 
##DATA TYPE=MASS SPECTRUM
##SAMPLE DESCRIPTION=Institute of Organic Chemistry, Novosibirsk, USSR 1988
##NAMES=HP
##CAS NAME=Methyl 3,4,6-tri-O-acetyl-2,7-di-O-methyl-.beta.-glycero-D-glucoh
eptopyranoside
##MOLFORM=C16H26O10
##CAS REGISTRY NO=84563-97-3
##MP= -300
##BP= -300
##MW= 378
##$RETENTION INDEX=0
##$CONDENSED SPECTRUM=NO
##NPOINTS= 88
##XYDATA=(XY..XY) 1 
    43        999
    44         39
    45        329
    55         35
    57         25
    59         44
    60         11
    61         21
    69         11
    71         92
    73         92
    74        999
    75        197
    81         92
    82        158
    83         29
    84         19
    85        224
    87        343
    88        145
    95         18
    97        158
    98         30
    99        131
   100         65
   101         85
   103         98
   109         18
   111        171
   112        277
   113        184
   114        237
   115        145
   116        699
   117         92
   124         29
   125        395
   126         42
   127         43
   128         38
   129        514
   139        131
   140         15
   141         44
   142         42
   143         55
   144         25
   145         22
   147         32
   154         26
   156        250
   157        316
   159         23
   167         23
   169         13
   171        131
   172         22
   183         13
   184         46
   185         22
   187         17
   189        131
   195          7
   198         17
   199         27
   213        145
   214         43
   216         21
   226          9
   227          9
   231          2
   244          1
   245          5
   258         54
   259        105
   260         14
   261          7
   275         13
   276         29
   286         31
   287         54
   288          0
   303          1
   318          1
   319          3
   333          0
   346          4
   347          5