##TITLE=Library Entry 9323
##JCAMP-DX=Revision 4.10 
##DATA TYPE=MASS SPECTRUM
##SAMPLE DESCRIPTION=Institute of Organic Chemistry, Novosibirsk, USSR 1988
##NAMES=HP
##CAS NAME=Methyl 3,6-di-O-acetyl-2,4,7-tri-O-methyl-.beta.-glycero-D-glucoh
eptopyranoside
##MOLFORM=C15H26O9
##CAS REGISTRY NO=84564-11-4
##MP= -300
##BP= -300
##MW= 350
##$RETENTION INDEX=0
##$CONDENSED SPECTRUM=NO
##NPOINTS= 78
##XYDATA=(XY..XY) 1 
    43        999
    45        457
    53         20
    55         65
    57         43
    59         47
    69         56
    71         86
    74        915
    75        999
    76         35
    79         14
    81         43
    83         47
    85        100
    87        598
    88        228
    89         38
    95         36
    97         63
    99         56
   100         38
   101        703
   102         42
   109         21
   111         52
   113         52
   114         52
   115        721
   116        563
   117         66
   125         43
   127         28
   128        107
   129        369
   130         26
   131         26
   139        130
   142        100
   143         42
   144         15
   145         10
   147          7
   153          7
   155         12
   156         14
   157         17
   159          5
   161          5
   167          5
   170         12
   171        175
   172         15
   173         19
   174         15
   185         31
   189         15
   199          6
   204          3
   213          2
   215          1
   217          1
   227          1
   230         15
   231         40
   233          5
   234          4
   245          1
   247          5
   258          1
   259          2
   273          1
   275          1
   286          1
   287          0
   291          1
   305          1
   319          1