##TITLE=Library Entry 9321
##JCAMP-DX=Revision 4.10 
##DATA TYPE=MASS SPECTRUM
##SAMPLE DESCRIPTION=Institute of Organic Chemistry, Novosibirsk, USSR 1988
##NAMES=HP
##CAS NAME=Methyl 2,4-di-O-acetyl-3,6,7-tri-O-methyl-.beta.-glycero-D-glucoh
eptopyranoside
##MOLFORM=C15H26O9
##CAS REGISTRY NO=84564-06-7
##MP= -300
##BP= -300
##MW= 350
##$RETENTION INDEX=0
##$CONDENSED SPECTRUM=NO
##NPOINTS= 73
##XYDATA=(XY..XY) 1 
    43        999
    45        538
    55        137
    57         99
    59        161
    69        138
    71        192
    73         76
    74        769
    75        999
    76         32
    81        115
    83        122
    85        153
    87        538
    88        146
    89        146
    95        100
    97        138
    99         84
   100         61
   101        138
   103         69
   109         76
   111        115
   113         76
   115        207
   116        353
   117         92
   125         53
   127         92
   129        276
   131         46
   139         76
   141         92
   142         46
   143         84
   145         38
   147         30
   155         30
   157         46
   159         38
   171         84
   173         26
   175         13
   177         15
   179         13
   185         49
   189         30
   191          9
   193         40
   199         19
   201         25
   203         11
   205         12
   207         15
   213         84
   219         10
   224          6
   231         22
   232          9
   233         11
   241          6
   245          8
   247          5
   252          5
   258          2
   259          3
   261         19
   273         17
   281          2
   305        146
   319          2