##TITLE=Library Entry 9325
##JCAMP-DX=Revision 4.10 
##DATA TYPE=MASS SPECTRUM
##SAMPLE DESCRIPTION=Institute of Organic Chemistry, Novosibirsk, USSR 1988
##NAMES=HP
##CAS NAME=Methyl 2,4,6,7-tetra-O-acetyl-3-O-methyl-.beta.-glycero-D-glucohe
ptopyranoside
##MOLFORM=C17H26O11
##CAS REGISTRY NO=84563-93-9
##MP= -300
##BP= -300
##MW= 406
##$RETENTION INDEX=0
##$CONDENSED SPECTRUM=NO
##NPOINTS= 89
##XYDATA=(XY..XY) 1 
    43        999
    44         69
    45        142
    59         32
    69        151
    73         54
    74        742
    75        999
    76         32
    81         81
    85         92
    87        131
    97         74
    99         41
   100         32
   101         61
   102         13
   103         81
   109         20
   110         44
   111         43
   112         22
   113        174
   114         19
   115        132
   116        361
   117         99
   124         31
   125         44
   127         40
   128         71
   129        179
   130         21
   131         10
   139         51
   141        130
   142         51
   143         15
   145         27
   153         71
   155         12
   156         30
   159         18
   167         15
   169         27
   170         55
   171         46
   181          7
   183         12
   184         30
   185         11
   187          7
   189         15
   195         18
   199         15
   201         20
   207          0
   211          2
   212          4
   213         35
   214          6
   215          7
   216          1
   217          2
   219          0
   226          4
   227          4
   229          0
   231         10
   232          4
   233          0
   237          7
   241          3
   244          3
   249         18
   255          6
   259          5
   261          4
   273          3
   275          0
   286          0
   287          4
   289          1
   315          7
   333         15
   334          2
   346          3
   375          0
   405          0