##TITLE=Library Entry 45486
##JCAMP-DX=Revision 4.10 
##DATA TYPE=MASS SPECTRUM
##SAMPLE DESCRIPTION=Institute of Organic Chemistry, Novosibirsk, USSR 1988
##NAMES=HP
##CAS NAME=Methyl 4,7-di-O-acetyl-2,3,6-tri-O-methyl-.beta.-glycero-D-glucoh
eptopyranoside
##MOLFORM=C15H26O9
##CAS REGISTRY NO=84564-08-9
##MP= -300
##BP= -300
##MW= 350
##$RETENTION INDEX=0
##$CONDENSED SPECTRUM=NO
##NPOINTS= 67
##XYDATA=(XY..XY) 1 
    43        371
    45         99
    55          8
    56          8
    57         17
    59         31
    69         17
    71         37
    73         77
    75        999
    76         31
    85         79
    87        125
    88        914
    89         54
    97         19
   101        114
   103         31
   111         27
   113         34
   114         17
   115         28
   116         19
   117        114
   119         19
   125         19
   127         45
   129         65
   130         11
   131         11
   133          8
   139          8
   141         17
   142         14
   143         34
   145         19
   147         11
   155          8
   157         19
   158         14
   159         19
   161          5
   167          5
   169          4
   171          7
   173          7
   175          5
   176          2
   185         42
   189          9
   198          3
   199          7
   201          6
   203          5
   204         22
   207          6
   213          1
   217          1
   221         51
   227          2
   233          4
   245          3
   259          4
   277          5
   291          0
   292          2
   319          0