##TITLE=Library Entry 9294
##JCAMP-DX=Revision 4.10 
##DATA TYPE=MASS SPECTRUM
##SAMPLE DESCRIPTION=Institute of Organic Chemistry, Novosibirsk, USSR 1988
##NAMES=HP
##CAS NAME=Methyl 3,4,6,7-tetra-O-acetyl-2-O-methyl-.beta.-glycero-D-glucohe
ptopyranoside
##MOLFORM=C17H26O11
##CAS REGISTRY NO=84563-92-8
##MP= -300
##BP= -300
##MW= 406
##$RETENTION INDEX=0
##$CONDENSED SPECTRUM=NO
##NPOINTS= 95
##XYDATA=(XY..XY) 1 
    43        999
    44         99
    45        229
    59         49
    69         19
    73        104
    74        999
    75        114
    82        333
    85        241
    87        352
    88        131
    97        153
    99         91
   100         72
   101         60
   102         69
   103        191
   111        242
   113        122
   115        222
   116        593
   117         81
   124        114
   125        722
   126         80
   127         71
   128         59
   129        522
   139         90
   141         72
   142        481
   143        131
   144         79
   145         72
   152         39
   153        175
   154         14
   155         14
   156         23
   157        139
   158         18
   159         26
   166         13
   167        139
   168         14
   169         66
   170         48
   171         64
   175         13
   181          8
   183         37
   184        429
   185        209
   186         23
   187         12
   189         28
   195         24
   199         31
   200          6
   201         14
   202         10
   211          5
   212         12
   213         24
   215          2
   217         94
   218          8
   226         20
   227         21
   241         18
   244         47
   245          9
   254          5
   255          9
   259          3
   261          5
   272          5
   273          3
   286         23
   287        132
   288         21
   289          8
   303         13
   314          1
   315          4
   316          0
   331          1
   333          1
   346          4
   347          3
   374          4
   375         29
   376          4
   405          0