##TITLE=Library Entry 9319
##JCAMP-DX=Revision 4.10 
##DATA TYPE=MASS SPECTRUM
##SAMPLE DESCRIPTION=Institute of Organic Chemistry, Novosibirsk, USSR 1988
##NAMES=HP
##CAS NAME=Methyl 2,6,7-tri-O-acetyl-3,4-di-O-methyl-.beta.-glycero-D-glucoh
eptopyranoside
##MOLFORM=C16H26O10
##CAS REGISTRY NO=84564-04-5
##MP= -300
##BP= -300
##MW= 378
##$RETENTION INDEX=0
##$CONDENSED SPECTRUM=NO
##NPOINTS= 75
##XYDATA=(XY..XY) 1 
    43        999
    45        103
    55          3
    57         37
    59         54
    69        184
    71         38
    73         12
    74        549
    75        999
    76         31
    81         54
    82         35
    83         51
    85        100
    87        549
    88        516
    89         54
    95         22
    97         90
    99         32
   100        226
   101        225
   102         54
   103         51
   109         29
   111         63
   113         93
   114         48
   115         67
   116        193
   117        119
   125        103
   127         51
   129        258
   139         64
   141         67
   142        290
   143        161
   153         48
   154         29
   155         32
   156         31
   157         41
   159         67
   169         32
   171         16
   173         19
   185         22
   199         32
   201         16
   204         22
   213         22
   227          9
   229          6
   231          7
   233         14
   241          6
   244          6
   245         11
   247          3
   249         12
   255         10
   258         10
   259          5
   260          3
   261          4
   281          4
   287         15
   288          7
   301          2
   318          1
   319          2
   331          3
   347          2