##TITLE=Library Entry 73827
##JCAMP-DX=Revision 4.10 
##DATA TYPE=MASS SPECTRUM
##SAMPLE DESCRIPTION=Institute of Organic Chemistry, Novosibirsk, USSR 1988
##NAMES=HP
##CAS NAME=Methyl 2,3-di-O-acetyl-4,6,7-tri-O-methyl-.beta.-glycero-D-glucoh
eptopyranoside
##MOLFORM=C15H26O9
##CAS REGISTRY NO=84564-07-8
##MP= -300
##BP= -300
##MW= 350
##$RETENTION INDEX=0
##$CONDENSED SPECTRUM=NO
##NPOINTS= 64
##XYDATA=(XY..XY) 1 
    43        709
    45        282
    55         90
    59        136
    69         81
    71        100
    74        218
    75        272
    81         27
    83         45
    85        100
    87        272
    88        136
    89        245
    97         72
    99         90
   100         81
   101        999
   102         90
   103         72
   111         72
   115        145
   116         90
   117         45
   125         72
   127         64
   129        363
   139         90
   141         72
   143        118
   145        136
   157         72
   159         27
   161         27
   169         63
   170         81
   171         54
   172         45
   173         27
   175         13
   185        109
   187         36
   189         45
   198         45
   199         54
   200         18
   201         27
   213         63
   217          9
   231         18
   241          5
   245          4
   247          3
   254          4
   258         13
   259          4
   261         72
   273         17
   281          4
   286          5
   287          3
   291          4
   305         12
   319          4