##TITLE=Library Entry 45539
##JCAMP-DX=Revision 4.10 
##DATA TYPE=MASS SPECTRUM
##SAMPLE DESCRIPTION=Institute of Organic Chemistry, Novosibirsk, USSR 1988
##NAMES=HP
##CAS NAME=Methyl 2,7-di-O-acetyl-3,4,6-tri-O-methyl-.beta.-glycero-D-glucoh
eptopyranoside
##MOLFORM=C15H26O9
##CAS REGISTRY NO=84564-12-5
##MP= -300
##BP= -300
##MW= 350
##$RETENTION INDEX=0
##$CONDENSED SPECTRUM=NO
##NPOINTS= 75
##XYDATA=(XY..XY) 1 
    43        734
    45        166
    59         50
    69        113
    70          8
    71         66
    73         56
    74        467
    75        999
    76         33
    81         16
    83         33
    85         50
    87        123
    88        333
    89         56
    95         13
    97         20
    99         63
   101        999
   111         33
   113         36
   114         93
   115         36
   116        183
   117        367
   118         23
   119         23
   125         20
   127         40
   129         63
   130         10
   131         10
   139         16
   141         23
   143         46
   144         13
   145         16
   147         16
   153         13
   155          6
   156          6
   157         13
   159         33
   161         16
   167          5
   169          5
   171         14
   173         40
   174          5
   175          5
   183          4
   185         14
   187          3
   189          3
   199          6
   201          4
   203         10
   204         33
   213         13
   217          4
   221         30
   226          3
   227          5
   231          3
   233         36
   245          4
   258          3
   259          5
   277          3
   286          1
   287         11
   291          2
   305          2
   319          3