##TITLE=Library Entry 6909
##JCAMP-DX=Revision 4.10 
##DATA TYPE=MASS SPECTRUM
##SAMPLE DESCRIPTION=Institute of Organic Chemistry, Novosibirsk, USSR 1988
##NAMES=HP
##CAS NAME=Methyl 2,3,4,6-tetra-O-acetyl-7-O-methyl-.beta.-glycero-d-glucohe
ptopyranoside
##MOLFORM=C17H26O11
##CAS REGISTRY NO=84563-96-2
##MP= -300
##BP= -300
##MW= 406
##$RETENTION INDEX=0
##$CONDENSED SPECTRUM=NO
##NPOINTS= 95
##XYDATA=(XY..XY) 1 
    43        999
    44        191
    45        999
    46         13
    55        106
    57         63
    59         63
    60         63
    69        381
    71        190
    74        340
    75        361
    80         85
    81        191
    82        148
    83        106
    85        191
    86         63
    87        404
    88        106
    97        383
    98         85
    99        170
   100        148
   101        127
   102        383
   103        319
   109         63
   110         85
   111        276
   113        383
   114        148
   115        744
   116        170
   117        170
   124        106
   125        723
   126         63
   127        148
   128        127
   129        212
   139        276
   140        191
   141        126
   142        276
   143        148
   144        252
   145        212
   147         85
   152         85
   153        255
   157        553
   158         63
   159         85
   167         63
   169        148
   170        170
   171         42
   183         40
   184        170
   185        212
   189        127
   195         53
   199        148
   200         34
   201         34
   203         42
   211         12
   212         21
   213         34
   214          8
   215         14
   217          8
   226         21
   227         42
   229          8
   241         87
   242         12
   243         12
   244        131
   245         27
   254         19
   255         12
   259          4
   261          4
   272         12
   273          4
   286         23
   287        319
   288         29
   303          8
   346         10
   347          4
   361          2
   375         25