##TITLE=Library Entry 82400
##JCAMP-DX=Revision 4.10 
##DATA TYPE=MASS SPECTRUM
##SAMPLE DESCRIPTION=ORVAL A. MAMER, ROYAL VICTORIA HOSPITAL, MONTREAL, CANA
DA
##NAMES=HP
##CAS NAME=2-Phenylglycine, TMS derivative
##MOLFORM=C11H17NO2Si
##CAS REGISTRY NO=84569-95-9
##MP= -300
##BP= -300
##MW= 223
##$RETENTION INDEX=0
##$CONDENSED SPECTRUM=NO
##NPOINTS= 50
##XYDATA=(XY..XY) 1 
    15          8
    27         10
    28         24
    29          7
    30         11
    39         15
    42          5
    43         21
    44         11
    45         61
    46          5
    47         30
    50         11
    51         54
    52         11
    53          4
    58          9
    59         11
    60          5
    61         17
    63          5
    65          8
    72          6
    73        129
    74         17
    75        151
    76         17
    77        128
    78         29
    79         36
    80          3
    91          4
   103         40
   104         53
   105         27
   106        999
   107         84
   108          3
   116          5
   117          4
   135          5
   164          3
   178          3
   180          3
   190          7
   208         31
   209          5
   223         93
   224         18
   225          5