##TITLE=Library Entry 9318
##JCAMP-DX=Revision 4.10 
##DATA TYPE=MASS SPECTRUM
##SAMPLE DESCRIPTION=Institute of Organic Chemistry, Novosibirsk, USSR 1988
##NAMES=HP
##CAS NAME=Methyl 2,4,6-tri-O-acetyl-3,7-di-O-methyl-.beta.-glycero-D-glucoh
eptopyranoside
##MOLFORM=C16H26O10
##CAS REGISTRY NO=84563-98-4
##MP= -300
##BP= -300
##MW= 378
##$RETENTION INDEX=0
##$CONDENSED SPECTRUM=NO
##NPOINTS= 72
##XYDATA=(XY..XY) 1 
    43        999
    45        359
    55         50
    57         16
    59         81
    69        122
    70         38
    71         95
    73         89
    74        714
    75        999
    76         40
    77         38
    81         75
    83        112
    85        146
    87        203
    88        306
    97        101
    99         85
   100         61
   101        142
   103         81
   109         34
   111         81
   113        116
   114         29
   115        142
   116        428
   117        101
   125         75
   127         57
   129        163
   139         44
   141        122
   142         67
   143         63
   145         22
   153         22
   155         34
   156         42
   157        122
   161         30
   167         17
   169         22
   170         30
   171         34
   185         48
   187         91
   199         20
   201         30
   203         14
   215         28
   216          8
   221         40
   226          3
   227          5
   232          8
   233          8
   237         14
   241          8
   245          8
   249          8
   258         14
   259          6
   273          6
   275          8
   287         20
   304          3
   318          6
   319          3
   347          1