##TITLE=Library Entry 46422
##JCAMP-DX=Revision 4.10 
##DATA TYPE=MASS SPECTRUM
##SAMPLE DESCRIPTION=A.A.Kutin, Moscow, Russia
##NAMES=HP
##CAS NAME=Quinazoline, 2-(4-nitrophenyl)-4-phenyl-
##MOLFORM=C20H13N3O2
##CAS REGISTRY NO=84570-81-0
##MP= -300
##BP= -300
##MW= 327
##$RETENTION INDEX=0
##$CONDENSED SPECTRUM=NO
##NPOINTS= 178
##XYDATA=(XY..XY) 1 
    33          1
    34          2
    36          3
    37          8
    38         36
    39        118
    40         64
    41         18
    43         24
    44         27
    46         21
    50        646
    51        444
    52         75
    53         11
    54          2
    55         14
    56          6
    57         12
    59          2
    61         11
    62         64
    63        142
    64         49
    65         16
    67          3
    68          0
    69          6
    70          7
    71          5
    72          1
    74        190
    75        486
    76        999
    77        792
    78         61
    79          3
    81          5
    82          5
    83          6
    84          4
    85          6
    86         36
    87         56
    88         46
    89         28
    90         11
    91         11
    92          9
    93          5
    95          4
    98         36
    99         64
   100         75
   101         75
   102        471
   103        203
   104        109
   105         14
   106          7
   107          4
   109          1
   110          8
   111         25
   112         47
   113         73
   114         45
   115         28
   116          6
   117          1
   118          1
   119          4
   120          5
   121          9
   122         12
   123         16
   124         23
   125         71
   126        128
   127        157
   128         51
   129         16
   133         17
   134         21
   135          5
   136          2
   137         17
   138         39
   139        162
   140        559
   142          2
   147          1
   149         64
   150        199
   151        360
   152        271
   153        132
   154         14
   155          3
   161          2
   162          6
   164        131
   165         18
   166         52
   167         10
   171          7
   175         50
   176        116
   177        320
   178        580
   179        413
   180         52
   181          3
   183          1
   187          1
   188          6
   189          6
   190          9
   191          6
   192          4
   193          1
   194          1
   199          1
   200          4
   201          8
   202         33
   203         68
   204         30
   205        315
   206         50
   207          5
   213          1
   214          3
   215          3
   216          1
   224         65
   225         13
   226          7
   227          6
   228          3
   229          2
   240          3
   241          4
   242          3
   251          9
   252         11
   253         15
   254          8
   255          3
   265          1
   266          8
   267         14
   268         61
   269         59
   270         10
   277         17
   278         15
   279        132
   280        533
   281        332
   282         62
   283          7
   294          2
   295          0
   296         22
   297         20
   298          3
   310         20
   311         10
   321          3
   322          7
   323          9
   324         21
   326        533
   327        810
   328        176
   329         19
   330          1