##TITLE=Library Entry 12029
##JCAMP-DX=Revision 4.10 
##DATA TYPE=MASS SPECTRUM
##SAMPLE DESCRIPTION=Humboldt-Universitat zu Berlin, Department of Chemistry
, Analytical Group
##NAMES=HP
##CAS NAME=1-(Benzoxazol-2-ylthio)-propan-2-one
##MOLFORM=C10H9NO2S
##CAS REGISTRY NO=84589-29-7
##MP= -300
##BP= -300
##MW= 207
##$RETENTION INDEX=0
##$CONDENSED SPECTRUM=NO
##NPOINTS= 131
##XYDATA=(XY..XY) 1 
    12          2
    13          5
    14         41
    15        155
    16          5
    17         20
    18         79
    19          1
    25          3
    26         49
    27        137
    28         45
    29         98
    30          4
    31          5
    32          7
    33          1
    34          2
    37         39
    38         81
    39        168
    40         13
    41         20
    42         85
    43        999
    44         42
    45        159
    46         61
    47         11
    48          3
    49          4
    50         41
    51         91
    52         38
    53         14
    54          3
    55          5
    56          3
    57         13
    58         21
    59          5
    60          3
    61         17
    62         46
    63        167
    64        119
    65         42
    66          4
    67          1
    68          2
    69         19
    70         32
    71          9
    72         18
    73          4
    74          5
    75          9
    76         16
    77        199
    78         79
    79         11
    80          2
    81          1
    82          8
    83          6
    84          1
    85          1
    86          1
    87          3
    88          7
    89          5
    90         31
    91         69
    92         36
    93         27
    94         10
    95         44
    96         41
    97          4
    98          2
   102          5
   103          2
   104         26
   105          4
   106          4
   107          3
   108          2
   109          8
   110          2
   111          1
   112          0
   117          2
   119         51
   120         89
   122        264
   123         22
   124         14
   125          1
   127          1
   128          1
   132        539
   133         60
   134         10
   135          2
   136         18
   137          2
   138          1
   146          1
   149          3
   150         47
   151         10
   152          3
   153          0
   160          1
   161          0
   162          0
   164         96
   165        511
   166         58
   167         26
   168          2
   178          0
   179          0
   190          0
   192          8
   193          1
   194          0
   207        176
   208         22
   209          9
   210          1