##TITLE=Library Entry 9293
##JCAMP-DX=Revision 4.10 
##DATA TYPE=MASS SPECTRUM
##SAMPLE DESCRIPTION=Institute of Organic Chemistry, Novosibirsk, USSR 1988
##NAMES=HP
##CAS NAME=Methyl 3,4,7-tri-O-acetyl-2,6-di-O-methyl-.beta.-glycero-d-glucoh
eptopyranoside
##MOLFORM=C16H26O10
##CAS REGISTRY NO=84582-64-9
##MP= -300
##BP= -300
##MW= 378
##$RETENTION INDEX=0
##$CONDENSED SPECTRUM=NO
##NPOINTS= 85
##XYDATA=(XY..XY) 1 
    43        999
    45        195
    54         29
    59         70
    67         26
    68         31
    69          9
    74        999
    75        341
    81         75
    82        121
    83         51
    84         26
    85        243
    87        487
    88        146
    89         29
    93         14
    95         36
    96         19
    97         78
   100         90
   101         73
   103         80
   105         17
   109         31
   111        114
   113         53
   114         34
   115         70
   116        536
   117        683
   118         41
   124         31
   125        182
   126         19
   127         80
   129        365
   130         41
   139         53
   141         48
   142        126
   143        212
   144         26
   147         26
   153         36
   155         36
   156         53
   157        158
   159         43
   167         29
   169         38
   171         34
   184         43
   185        268
   189         70
   198         14
   199         24
   201         19
   203         14
   213         14
   215         12
   227          8
   229          3
   231          5
   233          3
   241          6
   243          3
   244          6
   245         25
   255          3
   257          2
   258          6
   259          5
   261          7
   267          1
   271          1
   273          1
   275          7
   281          1
   287          8
   293          0
   305          9
   319          2
   347          1