##TITLE=Library Entry 46402
##JCAMP-DX=Revision 4.10 
##DATA TYPE=MASS SPECTRUM
##SAMPLE DESCRIPTION=A.A.Kutin, Moscow, Russia
##NAMES=HP
##CAS NAME=Benzonitrile, 4-(1,3-dihydro-1,3-dioxo-2H-isoindol-2-yl)-
##MOLFORM=C15H8N2O2
##CAS REGISTRY NO=84614-99-3
##MP= -300
##BP= -300
##MW= 248
##$RETENTION INDEX=0
##$CONDENSED SPECTRUM=NO
##NPOINTS= 114
##XYDATA=(XY..XY) 1 
    38         79
    39         67
    40         16
    41         49
    42         15
    43         39
    44         53
    45          8
    50        523
    51         89
    52         42
    53         19
    55         41
    56         15
    57         27
    58          3
    59          1
    60          4
    61         14
    62         78
    63         83
    64         62
    65         29
    66         11
    67          7
    68          5
    69         20
    70         19
    71         11
    72          3
    73         19
    74        122
    75        193
    76        999
    77         87
    78          6
    79          6
    80          7
    81          9
    82         16
    83         20
    84          6
    85          5
    86          5
    87          8
    88         23
    89         54
    90         36
    91          9
    92          8
    93          4
    96         19
    97          5
    98          2
    99          5
   100          5
   101         17
   102         75
   103         50
   104        317
   105         23
   106          1
   110         15
   111          3
   112          7
   113          4
   114          4
   115          5
   116         37
   117          5
   118          5
   119          1
   121          2
   124         23
   125          2
   126          1
   127          1
   128          2
   130         31
   131          3
   132          3
   137          2
   138          6
   139          4
   140          6
   141          0
   144          6
   149         24
   150          6
   151          4
   152          3
   153         10
   154          0
   163          1
   164         20
   165         11
   166          2
   171          3
   176         15
   177        109
   178         28
   179          2
   191          6
   192          5
   193          0
   203         85
   204        610
   205         96
   206          6
   219          1
   220          1
   248        468
   249         75
   250          7