##TITLE=Library Entry 97814
##JCAMP-DX=Revision 4.10 
##DATA TYPE=MASS SPECTRUM
##SAMPLE DESCRIPTION=P.A. Leclercq, Lab. Instrum. Anal., Eindhoven Univ. Tec
hnol., Netherlands
##NAMES=HP
##CAS NAME=Benzene, 1-(4'-ethyl[1,1'-bicyclohexyl]-4-yl)-4-methyl-
##MOLFORM=C21H32
##CAS REGISTRY NO=84656-92-8
##MP= -300
##BP= -300
##MW= 284
##$RETENTION INDEX=0
##$CONDENSED SPECTRUM=NO
##NPOINTS= 69
##XYDATA=(XY..XY) 1 
    27        160
    29        274
    39        143
    41        668
    42         80
    43        131
    51         30
    53        101
    55        458
    56         32
    57          5
    65         85
    67        147
    69        284
    70         17
    71         36
    77         87
    79        141
    81        183
    82         26
    83         65
    84          0
    91        120
    92         41
    93         68
   101         17
   102         26
   103         85
   105        574
   106         82
   107         61
   115        166
   116         83
   117        257
   118        999
   119        135
   120         61
   122          0
   127         32
   128         68
   129         89
   131        248
   132        116
   133         65
   138         22
   141         22
   143         36
   144         28
   145         55
   146         26
   147         34
   150         28
   152         32
   157         30
   159         34
   161         34
   162         22
   164         28
   166         30
   173         28
   174         34
   175         40
   179         22
   189         22
   190         55
   205         19
   284        171
   285         40
   286          4