##TITLE=Library Entry 17600
##JCAMP-DX=Revision 4.10 
##DATA TYPE=MASS SPECTRUM
##SAMPLE DESCRIPTION=Institute of Organic Chemistry, Novosibirsk, USSR 1988
##NAMES=HP
##CAS NAME=5-O-Acetyl-2,3,4,6-tetra-O-methyl-D-galactonitrile
##MOLFORM=C12H21NO6
##CAS REGISTRY NO=84659-28-9
##MP= -300
##BP= -300
##MW= 275
##$RETENTION INDEX=0
##$CONDENSED SPECTRUM=NO
##NPOINTS= 58
##XYDATA=(XY..XY) 1 
    45        999
    59         86
    60         44
    68         20
    69         33
    70         40
    71        200
    72         17
    73        104
    74        117
    75        160
    81         24
    82         13
    83         60
    84         52
    85        109
    86         28
    87        320
    88        458
    89        121
    96         64
    97         14
    98         48
    99         46
   100         24
   101        513
   102         24
   103         12
   111         28
   112         19
   113        114
   114         88
   115         52
   116         18
   117         97
   118         28
   119         64
   126         38
   127         37
   128         37
   129        909
   130         42
   131        259
   132          8
   141          4
   142         10
   143          4
   145        524
   146         30
   156         17
   157         30
   158         96
   161        710
   198         21
   205         91
   206         11
   230          9
   248          8