##TITLE=Library Entry 98137
##JCAMP-DX=Revision 4.10 
##DATA TYPE=MASS SPECTRUM
##SAMPLE DESCRIPTION=P.A. Leclercq, Lab. Instrum. Anal., Eindhoven Univ. Tec
hnol., Netherlands
##NAMES=HP
##CAS NAME=Benzene, 1-methyl-4-(4'-propyl[1,1'-bicyclohexyl]-4-yl)-
##MOLFORM=C22H34
##CAS REGISTRY NO=84656-75-7
##MP= -300
##BP= -300
##MW= 298
##$RETENTION INDEX=0
##$CONDENSED SPECTRUM=NO
##NPOINTS= 52
##XYDATA=(XY..XY) 1 
    27         35
    29         56
    39         34
    41        184
    43         54
    53         32
    55        177
    57         48
    65         18
    67         70
    69        220
    77         29
    79         54
    80         16
    81        106
    82         33
    83        125
    91         95
    92         19
    93         17
    95         37
    97         55
   103         19
   105        413
   106         64
   109         38
   111         43
   115         50
   116         28
   117        132
   118        999
   119        122
   120         33
   123         44
   124         17
   125         33
   128         21
   129         42
   131        175
   132        104
   133         23
   143         16
   145         38
   157         16
   159         16
   173         24
   174         17
   203         10
   204         37
   207         17
   298        201
   299         53