##TITLE=Library Entry 95834
##JCAMP-DX=Revision 4.10 
##DATA TYPE=MASS SPECTRUM
##SAMPLE DESCRIPTION=A.A.Kutin, Moscow, Russia
##NAMES=HP
##CAS NAME=Malonodinitrile, 2-(7-phenylhepta-2,4,6-trienylideno)-
##MOLFORM=C16H12N2
##CAS REGISTRY NO=84654-97-7
##MP= -300
##BP= -300
##MW= 232
##$RETENTION INDEX=0
##$CONDENSED SPECTRUM=NO
##NPOINTS= 136
##XYDATA=(XY..XY) 1 
    33         14
    34         29
    36         13
    37         34
    38         95
    39        442
    40         61
    41        150
    42         58
    43        150
    44         31
    45         21
    49          3
    50        224
    51        431
    52        174
    53         49
    54         15
    55         79
    56         51
    57         98
    58         29
    60         12
    61         11
    62         92
    63        283
    64        113
    65        251
    66         29
    67         19
    68          8
    69         48
    70         50
    71         48
    72          3
    73         19
    74         80
    75        163
    76        336
    77        362
    78        337
    79         46
    81         30
    82         58
    83         74
    84         41
    85         33
    86         23
    87         71
    88        182
    89        229
    90         43
    91        576
    92         45
    93          4
    95         28
    97         10
    98         11
    99         28
   100         33
   101         91
   102        375
   103        149
   104         38
   105         60
   106          6
   107          7
   108          3
   109          3
   111         11
   112         19
   113         46
   114         55
   115        999
   116        214
   117         30
   121         10
   122          3
   125         12
   126         48
   127        143
   128        589
   129        148
   130         23
   135          5
   137          4
   138          4
   139         58
   140         46
   141        232
   142         37
   143          4
   149         82
   150         30
   151         79
   152        165
   153        142
   154        100
   155        123
   156         16
   163         15
   164         41
   165        231
   166         87
   167        196
   168         25
   171          3
   175         13
   176         58
   177         75
   178         67
   179         32
   180         40
   181         11
   188          4
   189         22
   190        132
   191         50
   192         37
   193          3
   201         12
   202         26
   203        107
   204        329
   205        175
   206         58
   214         51
   215         42
   216         57
   217         36
   229         75
   230         77
   231        946
   232        870
   233        141
   234          3