##TITLE=Library Entry 41484
##JCAMP-DX=Revision 4.10 
##DATA TYPE=MASS SPECTRUM
##SAMPLE DESCRIPTION=Chemical Concepts
##NAMES=HP
##CAS NAME=Cyclopentylcarboxylic acid, TMS derivative
##MOLFORM=C9H18O2Si
##CAS REGISTRY NO=84678-75-1
##MP= -300
##BP= -300
##MW= 186
##$RETENTION INDEX=1096
##$CONDENSED SPECTRUM=NO
##NPOINTS= 108
##XYDATA=(XY..XY) 1 
    35          2
    36          0
    38          1
    39         17
    40         40
    41         52
    42          8
    43         26
    44         31
    45         49
    46          3
    47         38
    48          2
    49          3
    50          0
    51          1
    52          0
    53          5
    54          1
    55         42
    56          3
    57          7
    58         10
    59         17
    60          7
    61         30
    62          2
    63          3
    64          0
    65          7
    66          4
    67         35
    68         39
    69         58
    70          6
    71          3
    72         13
    73        999
    74        102
    75        728
    76         60
    77         61
    78          3
    79          6
    80          0
    81          2
    82          0
    83          2
    84          1
    85          6
    86          1
    87          1
    88          0
    89          6
    91          3
    92          0
    93          2
    94          0
    95         26
    96         51
    97         10
    98          8
    99         17
   100          2
   101          1
   103          5
   105          4
   109          0
   111          2
   112          0
   113          1
   114          1
   115          1
   116          0
   117         72
   118          7
   119          4
   123          0
   125          2
   126          1
   127         15
   128          2
   129         90
   130         11
   131          4
   132          0
   141          1
   142         47
   143         12
   144          2
   145         85
   146          9
   147          4
   148          0
   153          3
   155          1
   158          2
   159          0
   169          6
   170         33
   171        651
   172        106
   173         37
   174          3
   185          0
   186         23
   187          3
   188          1