##TITLE=Library Entry 77195
##JCAMP-DX=Revision 4.10 
##DATA TYPE=MASS SPECTRUM
##SAMPLE DESCRIPTION=V.Zaikin,Topchiev Inst.Petrochem.Synth.,Moscow
##NAMES=HP
##CAS NAME=Acetic acid, methoxy-, 2-phenylethyl ester
##MOLFORM=C11H14O3
##CAS REGISTRY NO=84682-19-9
##MP= -300
##BP= -300
##MW= 194
##$RETENTION INDEX=0
##$CONDENSED SPECTRUM=NO
##NPOINTS= 43
##XYDATA=(XY..XY) 1 
    26          2
    27          2
    28          1
    29          4
    30          1
    35          1
    36          8
    38          3
    39          6
    40          2
    41          2
    42          3
    43          1
    45         95
    46          3
    50          5
    51         13
    52          6
    53          2
    62          1
    63          6
    64          2
    65         16
    66          2
    74          2
    75          3
    76          2
    77         40
    78         23
    79         37
    80          3
    84          4
    89          6
    90          3
    91         69
    92          9
    93          3
   102          5
   103         48
   104        999
   105        240
   106         20
   117          3