##TITLE=Library Entry 54976
##JCAMP-DX=Revision 4.10 
##DATA TYPE=MASS SPECTRUM
##SAMPLE DESCRIPTION=NIST Mass Spectrometry Data Center, 2010
##NAMES=HP
##CAS NAME=Butanoic acid, 2-methyl-, 1,2-dimethylpropyl ester
##MOLFORM=C10H20O2
##CAS REGISTRY NO=84696-83-3
##MP= -300
##BP= -300
##MW= 172
##$RETENTION INDEX=0
##$CONDENSED SPECTRUM=NO
##NPOINTS= 53
##XYDATA=(XY..XY) 1 
    15          3
    26          5
    27         64
    28         28
    29        118
    30          2
    31          2
    38          2
    39         62
    40         10
    41        196
    42         35
    43        366
    44         16
    45         50
    46          1
    47          1
    51          3
    53         16
    54          5
    55        127
    56         70
    57        703
    58         31
    59          2
    65          1
    67          3
    69         21
    70        364
    71        593
    72         32
    73         13
    74         25
    83          2
    85        999
    86         57
    87         52
    88          3
    99          1
   100          5
   101          1
   102         26
   103         25
   104          1
   115          1
   128         31
   129        106
   130          9
   131          1
   144         14
   145          1
   157          9
   158          1