##TITLE=Library Entry 31842
##JCAMP-DX=Revision 4.10 
##DATA TYPE=MASS SPECTRUM
##SAMPLE DESCRIPTION=TNO Volatile Compounds in Food - Chemical Concepts
##NAMES=HP
##CAS NAME=3-Penten-1-yne, 5-(methylthio)-
##MOLFORM=C6H8S
##CAS REGISTRY NO=84702-63-6
##MP= -300
##BP= -300
##MW= 112
##$RETENTION INDEX=0
##$CONDENSED SPECTRUM=NO
##NPOINTS= 68
##XYDATA=(XY..XY) 1 
    23          4
    24          0
    25          7
    26         32
    27        112
    28          2
    30          3
    32          7
    33         12
    35         25
    36         34
    37         78
    38        162
    39        938
    40         43
    42          6
    44         24
    45        512
    46         86
    47        133
    48         29
    49         20
    50         50
    51         54
    52          9
    53        252
    54          6
    55          6
    56         13
    57         17
    58         35
    59         31
    60         27
    61        109
    62        104
    63        218
    64         58
    65        999
    66        146
    67         30
    68          3
    69         86
    70         38
    71         36
    72          4
    77         22
    78         15
    79         58
    80          2
    81          1
    82          7
    84        149
    85         44
    86          5
    93         14
    95         20
    96         27
    97        937
    98         58
    99         53
   100          1
   106          0
   109          5
   110          4
   111         39
   112        469
   113         32
   114         31