##TITLE=Library Entry 28755
##JCAMP-DX=Revision 4.10 
##DATA TYPE=MASS SPECTRUM
##SAMPLE DESCRIPTION=A.A.Kutin, Moscow, Russia
##NAMES=HP
##CAS NAME=4-Dimethylamino-2-methyl-1-phenyl-butan-2-ol
##MOLFORM=C13H21NO
##CAS REGISTRY NO=84705-33-9
##MP= -300
##BP= -300
##MW= 207
##$RETENTION INDEX=0
##$CONDENSED SPECTRUM=NO
##NPOINTS= 127
##XYDATA=(XY..XY) 1 
    33          0
    35          7
    36         29
    37          3
    38         12
    39         13
    40          4
    41         11
    42         49
    43         58
    44         33
    45         26
    46          2
    50          2
    51          9
    52          3
    53          3
    54          1
    55          6
    56         17
    58        999
    59         29
    60          0
    61          0
    62          1
    63          9
    64          4
    65         48
    66          2
    67          1
    68          1
    70          8
    71         13
    72         17
    73          5
    74          5
    75          1
    76          1
    77         11
    78          4
    79          3
    80          0
    81          0
    82          1
    83          0
    84          2
    85          0
    86          4
    87          0
    89         15
    91        185
    92         19
    93          3
    94          0
    95          0
    96          1
    97          1
    98          9
    99          0
   100          1
   101          0
   102          1
   103          4
   104          1
   105          4
   106          0
   107          0
   110          0
   111          0
   112          1
   114          3
   115         22
   116        178
   117         24
   118          2
   119          1
   120          0
   121          0
   122          0
   123          0
   124          0
   125          0
   126          0
   127          2
   128          6
   129          4
   130          1
   131          2
   132          1
   133          1
   134          2
   135          9
   136          0
   139          0
   140          0
   141          0
   142          0
   143          1
   144          2
   145          3
   146          1
   147          0
   149          0
   155          0
   156          0
   157          0
   158          0
   159          0
   161          0
   168          0
   171          1
   172          1
   173          0
   174          0
   175          0
   186          0
   187          1
   188          1
   189          5
   190          2
   191          0
   192          8
   193          1
   197          0
   207         31
   208          4
   209          0