##TITLE=Library Entry 67342
##JCAMP-DX=Revision 4.10 
##DATA TYPE=MASS SPECTRUM
##SAMPLE DESCRIPTION=B. Derendyaev, Novosibirsk Institute of Organic Chemist
ry
##NAMES=HP
##CAS NAME=2-Methyl-5,5-di(2-cyanoethyl)tetrahydropyran-4-one
##MOLFORM=C12H16N2O2
##CAS REGISTRY NO=84716-44-9
##MP= -300
##BP= -300
##MW= 220
##$RETENTION INDEX=0
##$CONDENSED SPECTRUM=NO
##NPOINTS= 37
##XYDATA=(XY..XY) 1 
    41        265
    42        199
    43        429
    44         97
    45        109
    53        209
    54         99
    55        174
    56        109
    57         82
    59        174
    67        265
    69        185
    79         60
    80        187
    81         82
    82         60
    83        118
    87        304
    94        999
    95        124
   106         71
   107        187
   108        915
   109         87
   110         46
   120         35
   123         57
   124         37
   133         49
   134        371
   135        226
   136         49
   148        265
   178        215
   180         54
   220        115