##TITLE=Library Entry 8009
##JCAMP-DX=Revision 4.10 
##DATA TYPE=MASS SPECTRUM
##SAMPLE DESCRIPTION=Chemical Concepts
##NAMES=HP
##CAS NAME=Dodecanoic acid, isooctyl ester
##MOLFORM=C20H40O2
##CAS REGISTRY NO=84713-06-4
##MP= -300
##BP= -300
##MW= 312
##$RETENTION INDEX=0
##$CONDENSED SPECTRUM=NO
##NPOINTS= 168
##XYDATA=(XY..XY) 1 
    25          0
    26          8
    27        189
    28         68
    29        431
    30         10
    31         14
    37          0
    38          2
    39         98
    40         23
    41        723
    42        252
    43        999
    44         82
    45         24
    46          1
    47          1
    48          0
    49          0
    50          1
    51          4
    52          2
    53         33
    54         53
    55        612
    56        363
    57        978
    58         84
    59         17
    60        190
    61         47
    62          2
    63          2
    65          6
    66          4
    67         82
    68         67
    69        320
    70        459
    71        566
    72         43
    73        148
    74         16
    75          1
    76          0
    77          5
    78          1
    79         15
    80          7
    81         70
    82        120
    83        446
    84        274
    85        244
    86         40
    87         64
    88          9
    89          7
    90          0
    91          1
    92          0
    93         10
    94          4
    95        106
    96         32
    97        145
    98        102
    99         47
   100         16
   101         45
   102          8
   103          7
   104          0
   105          0
   107          5
   108          2
   109         64
   110         17
   111         50
   112        832
   113         93
   114          8
   115         37
   116          5
   117          2
   118          0
   119          0
   120          0
   121          5
   122          1
   123         18
   124          4
   125         10
   126          4
   127          3
   128          5
   129        103
   130         27
   131          3
   132          0
   133          0
   134          0
   135          3
   136          2
   137          2
   138         11
   139          7
   140         31
   141         10
   142          2
   143         21
   144          3
   145          1
   148          0
   149          1
   150          0
   151          0
   152          0
   153          2
   154          1
   155          1
   157         47
   158          5
   159          1
   161          0
   162          1
   163          6
   164          3
   165          3
   166          0
   167          1
   168          0
   169          0
   170          0
   171         17
   172          8
   173          1
   179          0
   180          2
   181          7
   183        885
   184        135
   185         12
   186          0
   191          0
   197          0
   198          5
   200        314
   201        234
   202         28
   203          3
   208          0
   226          0
   227          0
   240          1
   241          0
   252          0
   255          8
   256          1
   257          0
   269          7
   270          1
   271          0
   281          0
   283          0
   311          0
   312          0