##TITLE=Library Entry 39781
##JCAMP-DX=Revision 4.10 
##DATA TYPE=MASS SPECTRUM
##SAMPLE DESCRIPTION=F. TURECEK,HEYROVSKY INST PHYS CHEM & ELECTROCHEM,PRAGU
E,CZECH
##NAMES=HP
##CAS NAME=4-(p-Chlorophenyl)-6-ethoxy-5,6-dihydropyran-3-carboxaldehyde
##MOLFORM=C14H15ClO3
##CAS REGISTRY NO=84735-94-4
##MP= -300
##BP= -300
##MW= 266
##$RETENTION INDEX=0
##$CONDENSED SPECTRUM=NO
##NPOINTS= 183
##XYDATA=(XY..XY) 1 
    26         41
    27        230
    29        280
    30         13
    31        110
    36         63
    37          8
    38         21
    39        140
    40         18
    41        160
    42         24
    43        610
    44        980
    45        170
    46         16
    50         84
    51        200
    52         37
    53         58
    54         16
    55        120
    56         30
    57         98
    58         20
    59         34
    60         12
    61         10
    62         28
    63         86
    64         40
    65         50
    66         13
    67         42
    68         16
    69         69
    70         24
    71         55
    72        999
    73        150
    74         51
    75        170
    76         69
    77        290
    78         61
    79         33
    80         12
    81         55
    82         25
    83         43
    84         13
    85         32
    86         13
    87         18
    88         24
    89         61
    90         14
    91         61
    92         20
    93         26
    94         13
    95         46
    96         17
    97         42
    98         13
    99         73
   100         17
   101        180
   102        190
   103        310
   104         42
   105         34
   106         16
   107         14
   108         13
   109         51
   110         43
   111         47
   112         95
   113         50
   114         66
   115        180
   116         63
   117         55
   118         16
   119         29
   120         13
   121         12
   123         18
   125        150
   126         37
   127        130
   128        160
   129        230
   130         50
   131        380
   132         58
   133         28
   135         18
   136         25
   137         77
   138         84
   139        150
   140         42
   141         90
   142         20
   143         18
   144         26
   145         34
   149        130
   150         29
   151        140
   152         40
   153         47
   154         21
   155         23
   156         21
   157        260
   158         63
   159        110
   160         18
   161         22
   162         13
   163         77
   164         21
   165        130
   166         65
   167        100
   168         55
   169         42
   170         12
   171         14
   175         24
   176         20
   177         24
   178         24
   179         26
   180         12
   181         25
   182         24
   183         16
   184         25
   185        110
   186         61
   187         37
   189         16
   190         10
   191        170
   192        750
   193        190
   194        270
   195         67
   196         21
   197         18
   198         12
   201          7
   202         13
   203         18
   204         15
   205         21
   206         18
   207         34
   208         14
   209         36
   210         17
   211         32
   212         15
   213          8
   219        110
   220        490
   221        130
   222        180
   223         37
   224         13
   248        120
   249         21
   250         45
   251          8
   264         11
   266         74
   267         16
   268         25
   269          5