##TITLE=Library Entry 18843
##JCAMP-DX=Revision 4.10 
##DATA TYPE=MASS SPECTRUM
##SAMPLE DESCRIPTION=G.DUBOUDIN,LAB. SILICON TIN ORG. COMP.,UNIV. BORDEAUX,F
RANCE
##NAMES=HP
##CAS NAME=2-Ethylprop-1-ene (1-3)sultine
##MOLFORM=C5H8O2S
##CAS REGISTRY NO=84735-13-7
##MP= -300
##BP= -300
##MW= 132
##$RETENTION INDEX=0
##$CONDENSED SPECTRUM=NO
##NPOINTS= 14
##XYDATA=(XY..XY) 1 
    27        510
    28        320
    29        440
    39        470
    41        300
    43        180
    45        220
    53        460
    55        999
    67        150
    83        280
    85        190
    86        410
   132        150