##TITLE=Library Entry 61286
##JCAMP-DX=Revision 4.10 
##DATA TYPE=MASS SPECTRUM
##SAMPLE DESCRIPTION=Humboldt-Universitat zu Berlin, Department of Chemistry
, Analytical Group
##NAMES=HP
##CAS NAME=N-(3-Iodopropyl)carbamic acid, benzyl ester
##MOLFORM=C11H14INO2
##CAS REGISTRY NO=84792-78-9
##MP= -300
##BP= -300
##MW= 319
##$RETENTION INDEX=0
##$CONDENSED SPECTRUM=NO
##NPOINTS= 144
##XYDATA=(XY..XY) 1 
    14          1
    15         10
    16          1
    17          4
    18         11
    26          3
    27         13
    28         27
    29         10
    30          4
    31          1
    32          1
    37          1
    38          4
    39         42
    40          7
    41         58
    42         35
    43         17
    44         10
    45          3
    46          1
    49          1
    50         10
    51         31
    52         10
    53          3
    54          3
    55          9
    56         14
    57         14
    58          3
    59          6
    60          1
    61          1
    62          4
    63         21
    64          7
    65         96
    66          6
    67          2
    68          1
    69          5
    70          4
    71          4
    72          3
    73          2
    74          3
    75          2
    76          3
    77         50
    78         13
    79         54
    80          5
    81          2
    82          2
    83          3
    84          3
    85          2
    86          3
    87          1
    88          4
    89         34
    90         27
    91        999
    92         81
    93          3
    94          0
    95          2
    96          3
    97          3
    98          1
    99          1
   100          1
   101          2
   102          2
   103          1
   104          1
   105         16
   106          4
   107         49
   108        655
   109         51
   110          3
   111          1
   112          1
   113          1
   114          0
   115          0
   116          0
   117          0
   118          0
   119          1
   120          0
   121          0
   123          1
   124          0
   125          1
   127         13
   128          6
   129          1
   131         32
   132          4
   133          3
   134         47
   135          5
   136          0
   139          1
   141         18
   142          2
   143          0
   147          0
   148          4
   149          1
   150          1
   151          1
   152          1
   153          0
   155          0
   165          0
   167          0
   168          2
   169         13
   170          1
   171          1
   172          1
   176          0
   178         39
   179          5
   180          1
   181          0
   185          0
   192          2
   193          0
   217          2
   218          0
   220          0
   227          0
   228          0
   260          0
   283          0
   319         11
   320          1
   321          0