##TITLE=Library Entry 48750
##JCAMP-DX=Revision 4.10 
##DATA TYPE=MASS SPECTRUM
##SAMPLE DESCRIPTION=Chemical Concepts
##NAMES=HP
##CAS NAME=6-Chloro-1-nitrocyclohexene
##MOLFORM=C6H8ClNO2
##CAS REGISTRY NO=84820-11-1
##MP= -300
##BP= -300
##MW= 161
##$RETENTION INDEX=0
##$CONDENSED SPECTRUM=NO
##NPOINTS= 116
##XYDATA=(XY..XY) 1 
    25          1
    26         29
    27        205
    28         13
    29         17
    30        149
    31          2
    34          1
    35         23
    36        155
    37         19
    38         45
    39        265
    40         30
    41        203
    42         12
    43         11
    44          2
    45          2
    46          9
    47          2
    48          1
    49         16
    50        149
    51        355
    52        190
    53        234
    54         24
    55         25
    56          3
    57          8
    58          2
    60          8
    61         11
    62         14
    63         41
    64         10
    65         76
    66         30
    67        175
    68        140
    69         13
    70          2
    71          3
    72          1
    73         25
    74         26
    75         74
    76         15
    77        965
    78        452
    79        999
    80        126
    81         19
    82          4
    83          2
    84          1
    85          1
    86         10
    87         16
    88          9
    89         10
    90          4
    91          6
    92          3
    93          7
    94          5
    95         51
    96         84
    97         10
    98          3
    99          4
   100          4
   101          4
   102          3
   103          2
   104          2
   105          2
   106          2
   107         35
   108        186
   109         18
   110          2
   111          2
   112          1
   113         27
   114         58
   115         66
   116         24
   117         18
   118          2
   119          0
   121          0
   122          2
   123          7
   124          4
   125        261
   126        146
   127         13
   128          1
   129          1
   130          0
   131         12
   132          1
   133          4
   134          1
   135          1
   144         12
   145          2
   146          3
   147          1
   161         25
   162          2
   163          8
   164          1
   165          1