##TITLE=Library Entry 5109
##JCAMP-DX=Revision 4.10 
##DATA TYPE=MASS SPECTRUM
##SAMPLE DESCRIPTION=NIST Mass Spectrometry Data Center, 1994
##NAMES=HP
##CAS NAME=3-Amino-1-methyl-5-methylthio-1,2,4-triazole
##MOLFORM=C4H8N4S
##CAS REGISTRY NO=84827-78-1
##MP= -300
##BP= -300
##MW= 144
##$RETENTION INDEX=0
##$CONDENSED SPECTRUM=NO
##NPOINTS= 68
##XYDATA=(XY..XY) 1 
    12         10
    13         22
    14         76
    15        463
    16         26
    17          8
    18          8
    26          0
    27         42
    28        440
    29         23
    30         33
    31          0
    32         31
    33          8
    38          6
    39          8
    40         20
    41         47
    42        999
    43        673
    44         76
    45        217
    46        128
    47        134
    48         15
    49          7
    53        102
    54         33
    55         60
    56         55
    57         20
    58        107
    59         72
    60         54
    61         11
    67          6
    69         20
    70         85
    71         94
    72         48
    73         61
    74        305
    75         17
    76         15
    80          6
    82          6
    85        238
    86        119
    87        293
    88         33
    89         19
    97         28
    98         72
    99         63
   100          4
   101         34
   102          9
   111        914
   112         60
   116          6
   129         90
   130          6
   131          4
   143        134
   144        849
   145         65
   146         39