##TITLE=Library Entry 63437
##JCAMP-DX=Revision 4.10 
##DATA TYPE=MASS SPECTRUM
##SAMPLE DESCRIPTION=Chemical Concepts
##NAMES=HP
##CAS NAME=[1-(3,4-Dimethyl-1-nitrocyclohex-3-enyl)pentyl]benzene
##MOLFORM=C19H27NO2
##CAS REGISTRY NO=84820-19-9
##MP= -300
##BP= -300
##MW= 301
##$RETENTION INDEX=0
##$CONDENSED SPECTRUM=NO
##NPOINTS= 198
##XYDATA=(XY..XY) 1 
    26          4
    27         33
    28         10
    29         44
    30         16
    31          1
    37          2
    38          2
    39         30
    40          5
    41        102
    42          6
    43         55
    44          2
    45          1
    46          0
    47          1
    50          4
    51         17
    52          6
    53         22
    54          5
    55         51
    56          6
    57         20
    58          1
    59          9
    61          1
    62          2
    63          8
    64          3
    65         37
    66          5
    67         33
    68          4
    69         38
    70          4
    71          7
    74          2
    75          3
    76          6
    77         61
    78         25
    79         47
    80          6
    81         18
    82          7
    83          6
    84          3
    85         11
    86          1
    87          1
    88          1
    89         13
    90          7
    91        999
    92        114
    93         46
    94          8
    95         41
    96          5
    97          4
    98          2
    99          3
   101          3
   102          8
   103         29
   104         27
   105        135
   106         79
   107        228
   108         32
   109         17
   110          2
   111          3
   112          1
   113          1
   114          2
   115         71
   116         27
   117         63
   118         10
   119         20
   120          5
   121          7
   122          2
   123          4
   124          3
   125          4
   126          2
   127         11
   128         32
   129         46
   130         42
   131         21
   132          3
   133          7
   134          2
   135          4
   137          2
   138          2
   139          3
   140          2
   141         38
   142         12
   143         25
   144          4
   145         14
   146          9
   147        143
   148         41
   149         13
   150          2
   151          3
   152         10
   153         13
   154          9
   155         46
   156         12
   157         12
   158          2
   159          2
   160          1
   161          2
   162          1
   163          7
   164          2
   165         21
   166         13
   167         20
   168          9
   169         23
   170          6
   171          6
   172          3
   173          2
   174          1
   175          1
   176          1
   177          2
   178          6
   179          6
   180          5
   181         14
   182         13
   183         21
   184          5
   185          4
   186          1
   187          1
   188          0
   189          1
   190          1
   191          1
   192          1
   193          2
   194          1
   195         17
   196          7
   197        570
   198        105
   199         13
   200          1
   201          1
   202          2
   203          1
   204          1
   205          1
   206          0
   209          2
   211         17
   212          4
   213          3
   214          1
   219          3
   220          0
   221          1
   222          1
   223          1
   224          1
   225          1
   226          3
   227          3
   228          1
   239          3
   240          1
   241          1
   244          1
   245          1
   252          2
   253          9
   254        255
   255         59
   257          7
   259          1
   262          1
   271          4
   272          1