##TITLE=Library Entry 55978
##JCAMP-DX=Revision 4.10 
##DATA TYPE=MASS SPECTRUM
##SAMPLE DESCRIPTION=Philip Morris R&D
##NAMES=HP
##CAS NAME=4S,6R-Dimethyl-7R-hydroxynonan-3-one
##MOLFORM=C11H22O2
##CAS REGISTRY NO=84823-59-6
##MP= -300
##BP= -300
##MW= 186
##$RETENTION INDEX=0
##$CONDENSED SPECTRUM=NO
##NPOINTS= 89
##XYDATA=(XY..XY) 1 
    38          8
    39         47
    40         91
    41        224
    42         57
    43        279
    44         34
    45         89
    46          2
    50          4
    51          5
    53         26
    54         11
    55        226
    56         63
    57        868
    58        107
    59        159
    60         30
    65          4
    66          2
    67         33
    68         17
    69        409
    70        219
    71        141
    72         12
    73         23
    74          5
    75         38
    77          9
    79          7
    80          2
    81         20
    82         26
    83        196
    84         35
    85         56
    86        999
    87        144
    88         11
    91          6
    93          5
    94          5
    95         25
    96          7
    97         37
    98         14
    99        197
   100         19
   101         11
   102          3
   105          3
   107          6
   109          8
   110         12
   111        196
   112         27
   113         17
   114          6
   115          6
   121         15
   122          4
   123          3
   124          2
   125         31
   126          6
   127         75
   128         10
   129          4
   132          3
   135          2
   137          3
   139        116
   140          9
   144         28
   145          4
   150          6
   151          2
   153          8
   154          2
   157         45
   158          5
   164          2
   166          3
   168         86
   169         12
   182          3
   186          5