##TITLE=Library Entry 71356
##JCAMP-DX=Revision 4.10 
##DATA TYPE=MASS SPECTRUM
##SAMPLE DESCRIPTION=J. Daly, M. Garraffo, T. Spande, LBC, NIDDK, NIH, Bethe
sda, MD 20892
##NAMES=HP
##CAS NAME=(2S,6R)-2-Methyl-6-nonylpiperidine
##MOLFORM=C15H31N
##CAS REGISTRY NO=848415-28-1
##MP= -300
##BP= -300
##MW= 225
##$RETENTION INDEX=0
##$CONDENSED SPECTRUM=NO
##NPOINTS= 24
##XYDATA=(XY..XY) 1 
    54         10
    55         38
    56         37
    57          8
    69         13
    79          3
    81         17
    82         16
    83          6
    96         10
    98        999
    99         72
   100          3
   107          2
   124          6
   126          4
   138          3
   182          6
   183          2
   196          1
   210         19
   211          4
   224          6
   225          2