##TITLE=Library Entry 99795
##JCAMP-DX=Revision 4.10 
##DATA TYPE=MASS SPECTRUM
##SAMPLE DESCRIPTION=F. YAMADA,DEP. APPL. CHEM.,FAC. ENG.,KANSAI UNIV.,OSAKA
,JAPAN
##NAMES=HP
##CAS NAME=4-Methyl-6-(p-tolyl)-5,6,7,8-tetrahydro-4H-1,3,2,6-dioxathiazocin
e 2-oxide
##MOLFORM=C12H17NO3S
##CAS REGISTRY NO=84868-74-6
##MP= -300
##BP= -300
##MW= 255
##$RETENTION INDEX=0
##$CONDENSED SPECTRUM=NO
##NPOINTS= 29
##XYDATA=(XY..XY) 1 
    89         39
    90         42
    91        289
    92         41
   104          9
   105         62
   106          9
   117         35
   118        200
   119        999
   120        131
   121         22
   131         55
   132         31
   133         32
   146         47
   147         60
   149         41
   161         36
   191         39
   192          5
   211        160
   212         19
   213          5
   225         93
   239         21
   255        224
   256         41
   257         19