##TITLE=Library Entry 98600
##JCAMP-DX=Revision 4.10 
##DATA TYPE=MASS SPECTRUM
##SAMPLE DESCRIPTION=Japan AIST/NIMC Database- Spectrum MS-IW-4130
##NAMES=HP
##CAS NAME=4-Chloro-5H-pyrrolo(3,2-d)pyrimidine
##MOLFORM=C6H4ClN3
##CAS REGISTRY NO=84905-80-6
##MP= -300
##BP= -300
##MW= 153
##$RETENTION INDEX=0
##$CONDENSED SPECTRUM=NO
##NPOINTS= 73
##XYDATA=(XY..XY) 1 
    25          1
    26          4
    27          5
    28         43
    33          1
    35          1
    36         16
    37         30
    38         29
    39         27
    40         15
    41          9
    42          1
    43          2
    44          2
    45          2
    46          1
    47         15
    48          3
    49          6
    50          3
    51          9
    52         21
    53          9
    55          1
    57          2
    59         75
    60          3
    62          9
    63         38
    64        198
    65         19
    66          9
    67          4
    69          1
    71          1
    72          3
    73         17
    74         11
    75          9
    76         18
    77         33
    78          9
    79          1
    85          2
    86          6
    87          1
    88          2
    89          3
    90          9
    91        148
    92         10
    95          1
    98          9
    99          9
   100          7
   101          4
   102          1
   108          1
   117         15
   118        999
   119         77
   120          2
   125         23
   126          2
   127          8
   135          2
   152         10
   153        937
   154         81
   155        302
   156         24
   157          1