##TITLE=Library Entry 29144
##JCAMP-DX=Revision 4.10 
##DATA TYPE=MASS SPECTRUM
##SAMPLE DESCRIPTION=LAC, NIDDK, NIH, Bethesda, MD 20892
##NAMES=HP
##CAS NAME=Bis[3-(dimethylamino)methyl-indole-5-yl] ether
##MOLFORM=C22H26N4O
##CAS REGISTRY NO=84905-51-1
##MP= -300
##BP= -300
##MW= 362
##$RETENTION INDEX=0
##$CONDENSED SPECTRUM=NO
##NPOINTS= 81
##XYDATA=(XY..XY) 1 
    41         19
    42        113
    43         27
    44         86
    45         34
    46          5
    50         13
    51         26
    52         17
    53          7
    56          6
    58        999
    59         37
    62         17
    63         55
    64         16
    65         19
    66          2
    67          3
    72          3
    73          3
    74          9
    75         18
    76         17
    77         26
    78         13
    79          7
    80         16
    81          9
    86          2
    87          8
    88         11
    89         91
    90         57
    91         26
    92          2
    94          8
    95          1
   101         15
   102         28
   103         14
   104         10
   105         10
   115          4
   116         71
   117        145
   118         30
   119          3
   128         21
   129         18
   130         38
   131         10
   132         10
   133          9
   144         88
   145        192
   146         34
   147         10
   148         12
   157          1
   159        115
   160        456
   161         85
   162         18
   172          1
   173          7
   174          6
   187          7
   188         12
   189          4
   190          8
   203         34
   204        174
   205         22
   217          4
   261         21
   262          3
   305         22
   306         26
   307          2
   362          2