##TITLE=Library Entry 96864
##JCAMP-DX=Revision 4.10 
##DATA TYPE=MASS SPECTRUM
##SAMPLE DESCRIPTION=Z. YAMAIZUMI, NATL. CANCER CENT. RES. INST., TOKYO, JAP
AN
##NAMES=HP
##CAS NAME=1,3,4-Tri-O-acetyl-2,5-di-O-methylribitol
##MOLFORM=C13H22O8
##CAS REGISTRY NO=84925-31-5
##MP= -300
##BP= -300
##MW= 306
##$RETENTION INDEX=0
##$CONDENSED SPECTRUM=NO
##NPOINTS= 43
##XYDATA=(XY..XY) 1 
    43        464
    44         46
    45        107
    51         18
    52         25
    53         74
    54         25
    55         95
    56         37
    57         61
    58        233
    59         55
    69         25
    70         15
    71         58
    73         31
    74         43
    75         49
    81         31
    85         92
    87        227
    88         31
    89         15
    95         25
    98         40
    99        132
   100         25
   113        175
   114         15
   115         49
   117        999
   118         55
   127         49
   128         15
   129        104
   130         15
   131         68
   135         34
   147         25
   159         80
   160         21
   173         25
   233         31