##TITLE=Library Entry 16399
##JCAMP-DX=Revision 4.10 
##DATA TYPE=MASS SPECTRUM
##SAMPLE DESCRIPTION=LAC, NIDDK, NIH, Bethesda, MD 20892
##NAMES=HP
##CAS NAME=Phenacetic acid, 2,3,5,.alpha.,.alpha.-pentamethyl-6-carboxy-
##MOLFORM=C14H18O4
##CAS REGISTRY NO=84944-43-4
##MP= -300
##BP= -300
##MW= 250
##$RETENTION INDEX=0
##$CONDENSED SPECTRUM=NO
##NPOINTS= 163
##XYDATA=(XY..XY) 1 
    41        189
    42         37
    43        156
    44        999
    45         44
    46         32
    47         13
    50         63
    51        223
    52         63
    53        109
    54         11
    55         49
    56         12
    57         46
    58         13
    59          3
    60         10
    61          4
    62         33
    63        144
    64         70
    65        174
    66         25
    67         40
    68          5
    69         22
    70         17
    71         61
    73         29
    74         24
    75         39
    76         40
    77        245
    78         99
    79        106
    80         23
    81         17
    82          7
    83         14
    88         13
    89         51
    90         15
    91        431
    92         44
    93         25
    94          9
    95          8
    96          2
    97          8
    98          6
    99          7
   101         14
   102         42
   103         93
   104         45
   105        304
   106         26
   107         11
   108          1
   109          4
   110          2
   111          4
   113          8
   114          6
   115        246
   116         93
   117        129
   118         34
   119         72
   120         39
   121         17
   122         32
   123          4
   125          3
   126         10
   127         77
   128        243
   129        216
   130        129
   131        100
   132         49
   133        155
   134         17
   135          7
   136         32
   137          5
   139         17
   141         88
   142         44
   143        110
   144         49
   145        379
   146         49
   147         82
   148         13
   149          5
   151          6
   152         13
   153         14
   154         33
   155         18
   156         14
   157         50
   158         43
   159         84
   160        252
   161         60
   162         20
   163          1
   164         11
   165          7
   166          1
   167          4
   168          1
   169          7
   170          9
   171         43
   172         38
   173        613
   174        102
   175         19
   176          3
   177         18
   178          5
   181          3
   183          2
   184          2
   185         16
   186         54
   187         88
   188        354
   189        321
   190         37
   191         19
   192          1
   193          1
   196          1
   198          5
   199          4
   200         11
   201          6
   202         17
   203         12
   204         83
   205         13
   206         20
   207          9
   208          3
   209          3
   210          1
   215          3
   216         29
   217          4
   231          8
   232         29
   233          2
   235         30
   236          1
   249          4
   250         59
   251         12
   252          2