##TITLE=Library Entry 64409
##JCAMP-DX=Revision 4.10 
##DATA TYPE=MASS SPECTRUM
##SAMPLE DESCRIPTION=LAC, NIDDK, NIH, Bethesda, MD 20892
##NAMES=HP
##CAS NAME=Coumarin, 6-benzyloxy-3,4-dihydro-4,4-dimethyl-
##MOLFORM=C18H18O3
##CAS REGISTRY NO=84945-10-8
##MP= -300
##BP= -300
##MW= 282
##$RETENTION INDEX=0
##$CONDENSED SPECTRUM=NO
##NPOINTS= 71
##XYDATA=(XY..XY) 1 
    41         27
    42         16
    43         20
    47          1
    49          4
    50          6
    51         23
    52          9
    53         14
    54         14
    55         16
    56          1
    57          1
    61          0
    62          4
    63         20
    64          8
    65         98
    66          9
    67         10
    69          1
    71          1
    75          2
    76          2
    77         46
    78         10
    79         13
    80          1
    81          1
    82          9
    83          6
    84          4
    86          2
    88          1
    89         21
    90         13
    91        999
    92         75
    93          9
    94          1
    95          1
   102          1
   103          6
   105          9
   106          1
   107          7
   115          6
   117          4
   119          4
   120          8
   121         12
   122          1
   131          3
   133          1
   135          5
   145          1
   147          4
   148          4
   149         29
   150          4
   163         18
   164          1
   177          5
   178          0
   191          6
   192          1
   193          4
   267          4
   282        149
   283         29
   284          9