##TITLE=Library Entry 53444
##JCAMP-DX=Revision 4.10 
##DATA TYPE=MASS SPECTRUM
##SAMPLE DESCRIPTION=LAC, NIDDK, NIH, Bethesda, MD 20892
##NAMES=HP
##CAS NAME=3,5-Diiodobenzene-1,4-diol, di-[.beta.-methyl-2-butenoate] ester
##MOLFORM=C16H16I2O4
##CAS REGISTRY NO=84945-24-4
##MP= -300
##BP= -300
##MW= 526
##$RETENTION INDEX=0
##$CONDENSED SPECTRUM=NO
##NPOINTS= 84
##XYDATA=(XY..XY) 1 
    41          1
    42          1
    43          1
    49          2
    50          6
    51          7
    52          2
    53         45
    54         10
    55        159
    56          6
    57          0
    61          1
    62          3
    63          1
    65          0
    66          0
    67          6
    68          0
    69          0
    77          1
    78          0
    79          3
    80          0
    82          3
    83        999
    84         66
    85          4
    86          0
    91          0
   108          0
   115          0
   127          5
   128          1
   131          0
   147          0
   149          0
   152          2
   161          0
   163          0
   165          0
   177          1
   178          0
   179          0
   180          1
   189          1
   190          1
   191          0
   205          2
   206          1
   207          0
   208          0
   233          2
   234          1
   235          0
   236          0
   254          3
   261          0
   263          0
   273          0
   274          0
   276          0
   289          0
   302          0
   316          1
   317        127
   318         19
   319          1
   333          1
   356          0
   360          0
   361          1
   362         13
   363          0
   398          0
   399          0
   400          2
   443          1
   444        149
   445         17
   446          1
   526        214
   527         36
   528          4