##TITLE=Library Entry 53193
##JCAMP-DX=Revision 4.10 
##DATA TYPE=MASS SPECTRUM
##SAMPLE DESCRIPTION=LAC, NIDDK, NIH, Bethesda, MD 20892
##NAMES=HP
##CAS NAME=2,5-Dimethylbenzene-1,4-diol, 1-[.beta.-methyl-2-butenoate] ester
##MOLFORM=C13H16O3
##CAS REGISTRY NO=84944-95-6
##MP= -300
##BP= -300
##MW= 220
##$RETENTION INDEX=0
##$CONDENSED SPECTRUM=NO
##NPOINTS= 105
##XYDATA=(XY..XY) 1 
    41         37
    42         13
    43         20
    44          0
    45          1
    47          2
    48          0
    49          9
    50          8
    51         24
    52         10
    53         65
    54         14
    55        208
    56          9
    57          1
    62          1
    63          6
    64          3
    65         25
    66         13
    67         23
    68         14
    69         24
    70          1
    71          0
    74          1
    75          1
    76          1
    77         39
    78          8
    79         46
    80          7
    81         20
    82         18
    83        999
    84         56
    85          4
    86          5
    88          0
    89          3
    90          2
    91         28
    92          3
    93          3
    94         11
    95         10
    96          3
    97          0
   102          0
   103          3
   105         30
   106          2
   107         14
   108          6
   109          9
   110          3
   115          4
   116          1
   117          1
   119          4
   120          3
   121         10
   122          1
   123         28
   124          2
   127          1
   128          1
   129          0
   131          2
   133          2
   135          8
   137         71
   138        645
   139         52
   140          4
   141          0
   145          1
   146          3
   147          2
   148          1
   149          3
   150          1
   151          0
   159          1
   160          0
   161          9
   162          2
   163         16
   164          4
   165          0
   175          3
   176          2
   177         13
   178         37
   179          4
   191          1
   192          3
   193          0
   205          9
   206          1
   219          1
   220        203
   221         28
   222          3