##TITLE=Library Entry 60285
##JCAMP-DX=Revision 4.10 
##DATA TYPE=MASS SPECTRUM
##SAMPLE DESCRIPTION=W. BOLAND, INST. BIOCHEM. UNIV. COLOGNE, COLOGNE, W. GE
R.
##NAMES=HP
##CAS NAME=6-[(1E)-1,3-Butadienyl]-1,4-cycloheptadiene
##MOLFORM=C11H14
##CAS REGISTRY NO=84984-82-7
##MP= -300
##BP= -300
##MW= 146
##$RETENTION INDEX=0
##$CONDENSED SPECTRUM=NO
##NPOINTS= 81
##XYDATA=(XY..XY) 1 
    37          1
    38         24
    39        395
    40         59
    41        225
    42          7
    44          0
    47          0
    48          0
    49          2
    50         50
    51        169
    52         72
    53        132
    54         14
    55         20
    57          6
    58          8
    59          0
    62         17
    63         84
    64         28
    65        224
    66        140
    67        108
    68        123
    69          4
    73          0
    74          7
    75          8
    76          8
    77        407
    78        164
    79        674
    80        355
    81         32
    82          0
    84          0
    85          0
    86          3
    87          3
    88          1
    89         30
    91        999
    92        590
    93         44
    94          0
    98          0
    99          0
   101          1
   102         14
   103        126
   104        176
   105        492
   106         36
   107          0
   113          0
   114          0
   115        139
   116         76
   117        308
   118         77
   119          7
   120          0
   126          1
   127         13
   128         51
   129         48
   130         17
   131        193
   132         15
   133          0
   139          1
   140          0
   141          3
   142          0
   143          2
   144          0
   145         15
   146         48
   147          3