##TITLE=Library Entry 11931
##JCAMP-DX=Revision 4.10 
##DATA TYPE=MASS SPECTRUM
##SAMPLE DESCRIPTION=Japan AIST/NIMC Database- Spectrum MS-NW-3518
##NAMES=HP
##CAS NAME=3-Acetamido-2,4,6-triiodobenzoic acid
##MOLFORM=C9H6I3NO3
##CAS REGISTRY NO=85-36-9
##MP= -300
##BP= -300
##MW= 557
##$RETENTION INDEX=0
##$CONDENSED SPECTRUM=NO
##NPOINTS= 276
##XYDATA=(XY..XY) 1 
    14         10
    15         52
    16          1
    17          9
    18         35
    20          1
    25          1
    26          2
    27          6
    28         33
    29          5
    32          2
    35          1
    36          8
    37         40
    38         27
    39         19
    40          7
    41         13
    42         37
    43        999
    44         75
    45         26
    46          1
    48          2
    49         16
    50         28
    51         36
    52         54
    53         19
    54          8
    55         10
    56          3
    57          9
    60         35
    61        228
    62        200
    63         87
    64         24
    65         13
    66          9
    67          7
    68          5
    69          8
    70          4
    71          5
    72          8
    73         39
    74         32
    75         20
    76         41
    77         57
    78         69
    79         29
    80          8
    81          4
    82          3
    83          9
    84          4
    85          3
    86         34
    87         90
    88        152
    89        102
    90         58
    91         26
    92         13
    93          3
    94          1
    95          3
    96          2
    97          6
    98          3
    99          6
   100          5
   101          6
   102         14
   103         15
   104         23
   105         28
   106         38
   107         34
   108          6
   109          3
   110          1
   111          2
   112          2
   113          1
   114          2
   115         16
   116         19
   117         20
   118         12
   119          8
   120          9
   121          3
   122          2
   123          1
   124          1
   125          2
   126          1
   127        455
   128        593
   129          3
   130         13
   131         33
   132        158
   133         41
   134         20
   135         20
   136          5
   137          6
   138          1
   139          6
   140          2
   141          3
   142          2
   143          1
   144          1
   146          2
   147         11
   148         87
   149         27
   150          4
   151          3
   152          5
   153          6
   154          2
   155          2
   158          7
   159          2
   160          2
   163         16
   164         13
   165         10
   166          4
   167          2
   171          2
   172          2
   175          2
   176         19
   177          9
   178         23
   179          9
   180          1
   181          2
   182          2
   184          3
   185          2
   187         13
   188         54
   189         52
   190          9
   191          3
   192          3
   193          2
   194          2
   199          1
   200         11
   201          5
   202          1
   203          6
   204         18
   205         26
   206          9
   207          2
   213          3
   214         47
   215         42
   216         64
   217         49
   218         36
   219          4
   220          1
   226          1
   228          3
   229          6
   230         13
   231          6
   232         31
   233         91
   234         25
   235          3
   242          9
   243         58
   244         35
   245         14
   246          9
   247          2
   248          2
   254         46
   256          3
   257          8
   258         81
   259         90
   260         18
   261         43
   262         20
   263         30
   264          2
   270          2
   272          1
   273          1
   274          9
   275         13
   276          2
   285          3
   286         22
   287          2
   289          2
   290          2
   291          2
   302          7
   303         27
   304        136
   305         21
   306          3
   315         12
   316          1
   317          2
   330          1
   331          3
   332         13
   333          2
   341          3
   342         11
   343         15
   344         12
   345          3
   356          9
   357          2
   358          1
   359          3
   360         36
   361          3
   369         51
   370         13
   371          9
   372          9
   373          1
   382          1
   383          1
   384          4
   385         22
   386         38
   387          8
   388         15
   389         97
   390          8
   398          2
   401          2
   411          1
   412         22
   413          3
   414          1
   416          1
   429         28
   430        568
   431        104
   432          9
   468          1
   469          1
   470          4
   471         14
   472          1
   487          1
   497          4
   498         16
   511          1
   512          1
   513          2
   514          7
   515        191
   516         16
   517          1
   557          9