##TITLE=Library Entry 49751
##JCAMP-DX=Revision 4.10 
##DATA TYPE=MASS SPECTRUM
##SAMPLE DESCRIPTION=H. Fales, LC, NHLBI, NIH, Bethesda, MD 20892
##NAMES=HP
##CAS NAME=1,3-Isobenzofurandione, hexahydro-
##MOLFORM=C8H10O3
##CAS REGISTRY NO=85-42-7
##MP= -300
##BP= -300
##MW= 154
##$RETENTION INDEX=0
##$CONDENSED SPECTRUM=NO
##NPOINTS= 79
##XYDATA=(XY..XY) 1 
    41        672
    42          3
    43        407
    45        671
    46         23
    47         28
    49         40
    50         43
    51        133
    53        413
    54        366
    55        387
    56         58
    57         63
    59        103
    60         29
    61         13
    63         21
    65         66
    66        145
    67        508
    68        179
    69         69
    70         24
    71         43
    73        119
    74         20
    75          3
    77        119
    79        342
    80        472
    81        999
    82        249
    83         41
    84         33
    85         31
    86         66
    87         64
    88          2
    89          0
    91          5
    92          3
    94         26
    95         33
    97        114
    98          2
    99        129
   100         34
   101          8
   105          2
   108        497
   109         91
   110         17
   111         57
   112         35
   113         26
   114          6
   117          7
   118          2
   121          1
   123          3
   124          8
   126        645
   127         51
   128         35
   129          2
   131          3
   132          0
   136         22
   138          4
   139         74
   140         12
   141          0
   152          0
   153          2
   154        210
   155        116
   156          8
   157          1