##TITLE=Library Entry 48903
##JCAMP-DX=Revision 4.10 
##DATA TYPE=MASS SPECTRUM
##SAMPLE DESCRIPTION=TAT 0005
##NAMES=HP
##CAS NAME=1,3-Isobenzofurandione, 3a,4,7,7a-tetrahydro-
##MOLFORM=C8H8O3
##CAS REGISTRY NO=85-43-8
##MP= -300
##BP= -300
##MW= 152
##$RETENTION INDEX=0
##$CONDENSED SPECTRUM=NO
##NPOINTS= 27
##XYDATA=(XY..XY) 1 
    26         40
    27        100
    29         20
    38         50
    39        170
    40         50
    41         40
    43         20
    44         30
    50         80
    51        110
    52         60
    53         60
    54         30
    63         30
    65         60
    66         10
    75         20
    77        150
    78        130
    79        999
    80        510
    81         40
   123         40
   124        350
   125         30
   152         10