##TITLE=Library Entry 79397
##JCAMP-DX=Revision 4.10 
##DATA TYPE=MASS SPECTRUM
##SAMPLE DESCRIPTION=Japan AIST/NIMC Database- Spectrum MS-NW- 166
##NAMES=HP
##CAS NAME=Benzoic acid, 2-benzoyl-
##MOLFORM=C14H10O3
##CAS REGISTRY NO=85-52-9
##MP= -300
##BP= -300
##MW= 226
##$RETENTION INDEX=0
##$CONDENSED SPECTRUM=NO
##NPOINTS= 95
##XYDATA=(XY..XY) 1 
    17          3
    18          7
    26          3
    27         26
    28         10
    29          4
    32          1
    37          5
    38         14
    39        105
    40          5
    41          3
    43          3
    45         12
    49          6
    50        167
    51        320
    52         22
    53         20
    55          3
    61          5
    62         14
    63         33
    64         12
    65        216
    66         13
    73          7
    74         69
    75         69
    76        152
    77        704
    78        150
    79          9
    85          3
    86          9
    87         11
    88          5
    89          6
    90          4
    91          7
    92         10
    93        110
    94          9
    98          8
    99          8
   100          3
   101          7
   102          8
   103          3
   104         52
   105        999
   106         79
   107          6
   110          3
   111          3
   113          5
   114          3
   115         12
   119          3
   121         71
   122          7
   125          4
   126         19
   127         13
   128          3
   133          4
   139          7
   141          6
   149        615
   150         68
   151         48
   152        134
   153         57
   154          9
   163          5
   164          3
   165         19
   166          5
   167          7
   168          4
   169          5
   180         24
   181        299
   182        496
   183         90
   184          9
   197         12
   198         10
   207          4
   209         34
   210          8
   225          4
   226        350
   227         54
   228          7