##TITLE=Library Entry 99768
##JCAMP-DX=Revision 4.10 
##DATA TYPE=MASS SPECTRUM
##SAMPLE DESCRIPTION=Japan AIST/NIMC Database- Spectrum MS-NW-4127
##NAMES=HP
##CAS NAME=Benzoic acid, 2-(4-methylbenzoyl)-
##MOLFORM=C15H12O3
##CAS REGISTRY NO=85-55-2
##MP= -300
##BP= -300
##MW= 240
##$RETENTION INDEX=0
##$CONDENSED SPECTRUM=NO
##NPOINTS= 123
##XYDATA=(XY..XY) 1 
    15          4
    16          1
    17          2
    18          7
    26          2
    27          8
    28         10
    29          1
    37          2
    38          5
    39         64
    40          5
    41         14
    42          1
    43          7
    44         11
    45          2
    50         21
    51         30
    52          4
    53          5
    56          1
    57          1
    58          2
    61          1
    62          7
    63         23
    64          9
    65        179
    66          9
    67          1
    69          2
    70          1
    71          1
    73          1
    74          7
    75          8
    76         22
    77         18
    78          2
    79          1
    81          1
    82          4
    83          2
    84          1
    86          2
    87          3
    88          2
    89         22
    90         20
    91        324
    92         67
    93         42
    94          3
    97          1
    98          1
    99          1
   102          1
   104         16
   105         17
   106          1
   107          1
   108          1
   113          1
   115          5
   116          1
   118          9
   119        999
   120         91
   121         31
   122          3
   126          1
   127          1
   128          3
   129          1
   133          5
   139          5
   140          1
   141          1
   149        193
   150         18
   151          7
   152         27
   153          9
   154          1
   155          1
   163          3
   164          4
   165         40
   166         13
   167          8
   168          2
   169          1
   176          1
   177          1
   178          2
   179          4
   180          2
   181        243
   182         35
   183          4
   193          4
   194         17
   195         53
   196        148
   197         24
   198          2
   207          2
   209          4
   210          1
   211          9
   212          6
   213          1
   221          7
   222          9
   223         17
   224          7
   225          2
   238          1
   239          4
   240        288
   241         49
   242          6