##TITLE=Library Entry 56355
##JCAMP-DX=Revision 4.10 
##DATA TYPE=MASS SPECTRUM
##SAMPLE DESCRIPTION=Chemical Concepts
##NAMES=HP
##CAS NAME=Dibucaine
##MOLFORM=C20H29N3O2
##CAS REGISTRY NO=85-79-0
##MP= -300
##BP= -300
##MW= 343
##$RETENTION INDEX=2707
##$CONDENSED SPECTRUM=NO
##NPOINTS= 106
##XYDATA=(XY..XY) 1 
    27          4
    28          6
    29         24
    30         30
    41         15
    42          9
    43          5
    44          6
    45          3
    53          4
    54         15
    55         21
    56         38
    57          1
    58          2
    69          4
    70          8
    71         11
    72          7
    81          2
    84         11
    85          6
    86        999
    87         98
    88          3
    89          6
    90          1
    97          1
    98          1
    99         46
   100          5
   101          3
   113          3
   114          2
   115          6
   116         36
   117          4
   127          9
   128          7
   129          3
   130          2
   141          1
   142          1
   143          8
   144         17
   145          6
   146          1
   149          1
   154          1
   155          1
   156          1
   157          2
   158          3
   159          1
   160          1
   169          1
   170          2
   171          4
   172         11
   173          2
   184          1
   185          2
   186          4
   187          1
   188          2
   189          1
   197          1
   198          1
   199          3
   200          2
   201          4
   202          1
   213          2
   214          2
   215          9
   216          2
   227          2
   228         19
   229          5
   230          1
   241          1
   242          1
   243          1
   245          1
   256          1
   257          1
   258          1
   269          1
   270          1
   271         17
   272          4
   273          1
   288          1
   300          2
   314          2
   315          1
   326          4
   327          1
   328          3
   329          1
   340          1
   341          3
   342          6
   343         23
   344          8
   345          2