##TITLE=Library Entry 65525
##JCAMP-DX=Revision 4.10 
##DATA TYPE=MASS SPECTRUM
##SAMPLE DESCRIPTION=Finnigan MAT: Toxicological Library (LIBR-TX)
##NAMES=HP
##CAS NAME=Phthalylsulfathiazole
##MOLFORM=C17H13N3O5S2
##CAS REGISTRY NO=85-73-4
##MP= -300
##BP= -300
##MW= 403
##$RETENTION INDEX=0
##$CONDENSED SPECTRUM=NO
##NPOINTS= 36
##XYDATA=(XY..XY) 1 
    45        211
    50        229
    55        219
    63         68
    64         67
    65        609
    66         86
    74         71
    75         57
    76        412
    91         40
    92        999
    93        186
   104        391
   108        590
   109         48
   119         18
   140        137
   148         69
   156        785
   157         69
   158         38
   166         19
   190         49
   191        616
   192         70
   222        108
   223         30
   239         20
   255        117
   256         20
   286         19
   320         19
   321         49
   322          9
   385         20