##TITLE=Library Entry 84096
##JCAMP-DX=Revision 4.10 
##DATA TYPE=MASS SPECTRUM
##SAMPLE DESCRIPTION=AAFS Toxicology Section MS DB Committee, U. Alberta, Ca
nada
##NAMES=HP
##CAS NAME=Benzestrol
##MOLFORM=C20H26O2
##CAS REGISTRY NO=85-95-0
##MP= -300
##BP= -300
##MW= 298
##$RETENTION INDEX=0
##$CONDENSED SPECTRUM=NO
##NPOINTS= 87
##XYDATA=(XY..XY) 1 
    41         47
    42          5
    43         23
    44          5
    45          8
    51         13
    52          4
    53         17
    55         44
    56          7
    57         29
    61          7
    63          9
    64          3
    65         41
    66         13
    67         12
    68          6
    69         23
    70          8
    71         29
    73          5
    74          8
    75         10
    77        168
    78         30
    79         40
    81          8
    82          9
    83         19
    84          6
    85         25
    89         10
    91        128
    92         16
    93         43
    94         21
    95         18
    96          6
    97         16
    98          4
    99         10
   102          9
   103         77
   104         11
   105         38
   107        999
   108         77
   109          5
   111          9
   112          3
   113          6
   115         28
   116          7
   117         10
   118          5
   119         24
   120         32
   121        896
   122         94
   123          6
   125          4
   127          9
   128          7
   129          4
   131         20
   132         11
   133         87
   134         35
   135        867
   136         87
   137          7
   139          4
   141          3
   145          7
   147         33
   148         22
   149          5
   162          6
   163        130
   164         16
   176          4
   177        151
   178         20
   283          4
   298        168
   299         37