##TITLE=Library Entry 78642
##JCAMP-DX=Revision 4.10 
##DATA TYPE=MASS SPECTRUM
##SAMPLE DESCRIPTION=NIST Mass Spectrometry Data Center, 1994
##NAMES=HP
##CAS NAME=2,5-Difluorobenzophenone
##MOLFORM=C13H8F2O
##CAS REGISTRY NO=85068-36-6
##MP= -300
##BP= -300
##MW= 218
##$RETENTION INDEX=0
##$CONDENSED SPECTRUM=NO
##NPOINTS= 104
##XYDATA=(XY..XY) 1 
     4          2
    17          0
    18          3
    20          1
    26          4
    27         29
    28          5
    31         10
    37          8
    38         16
    39         24
    40          1
    44          1
    49          9
    50        140
    51        332
    52         17
    53          8
    55          1
    56          5
    57         22
    61         15
    62         37
    63        221
    64         14
    68         18
    69         12
    70          3
    72          2
    73          8
    74         56
    75         35
    76         38
    77        609
    78         39
    79          2
    80          3
    81         17
    82          5
    83          1
    85         18
    86          8
    87         12
    88          4
    91          1
    92          9
    93         24
    94         20
    95         17
    98          6
    99          7
   100          1
   101          2
   102          0
   105        999
   106         75
   107          6
   109          5
   110          4
   111          5
   112          0
   113        249
   114         18
   117          2
   118          1
   119          1
   122          2
   123          4
   124          1
   125          2
   131          2
   133          1
   138          3
   139          1
   141        289
   142         23
   143          4
   144          3
   149          3
   150          3
   151          5
   157          1
   162          4
   163          1
   164          2
   167          1
   168          7
   169         12
   170         11
   171          2
   175          1
   181          1
   186          1
   187          3
   188         16
   189          8
   190          9
   191          1
   198         23
   199          6
   201          3
   218        328
   219         53
   220          4