##TITLE=Library Entry 81188
##JCAMP-DX=Revision 4.10 
##DATA TYPE=MASS SPECTRUM
##SAMPLE DESCRIPTION=Japan AIST/NIMC Database- Spectrum MS-NW-9959
##NAMES=HP
##CAS NAME=2,4-Difluorobenzophenone
##MOLFORM=C13H8F2O
##CAS REGISTRY NO=85068-35-5
##MP= -300
##BP= -300
##MW= 218
##$RETENTION INDEX=0
##$CONDENSED SPECTRUM=NO
##NPOINTS= 109
##XYDATA=(XY..XY) 1 
    27          8
    28          2
    31          2
    37          2
    38          3
    39          8
    49          1
    50         45
    51        140
    52          7
    53          3
    56          1
    57          6
    61          4
    62         13
    63         97
    64          7
    68          6
    69          5
    70          1
    72          1
    73          3
    74         21
    75         17
    76         24
    77        447
    78         30
    79          1
    80          1
    81          7
    82          7
    84          3
    85         12
    86          3
    87          5
    88          2
    92          3
    93         11
    94         19
    95         48
    96          1
    98          3
    99          4
   100          1
   101          1
   102          1
   104          5
   105        999
   106         76
   107          5
   109          1
   110          1
   111          2
   112         12
   113        250
   114         16
   115          1
   117          1
   118          1
   119          1
   122          2
   123          3
   124          1
   125          2
   126          1
   127          1
   128          1
   131          1
   138          3
   139          1
   140          3
   141        889
   142         67
   143          7
   144          2
   149          3
   150          2
   151          6
   152          7
   153          9
   154         29
   155          4
   162          3
   163          1
   164          1
   167          1
   168          6
   169         15
   170          9
   171          3
   175          1
   181          1
   186          2
   187          3
   188         20
   189         11
   190         12
   191          1
   197          3
   198         36
   199         10
   200          2
   201          6
   202          1
   216          1
   217         51
   218        773
   219        110
   220          9