##TITLE=Library Entry 86449
##JCAMP-DX=Revision 4.10 
##DATA TYPE=MASS SPECTRUM
##SAMPLE DESCRIPTION=NIST Mass Spectrometry Data Center, 1994
##NAMES=HP
##CAS NAME=3-Chloro-2-fluorotoluene
##MOLFORM=C7H6ClF
##CAS REGISTRY NO=85089-31-2
##MP= -300
##BP= -300
##MW= 144
##$RETENTION INDEX=0
##$CONDENSED SPECTRUM=NO
##NPOINTS= 88
##XYDATA=(XY..XY) 1 
     4          0
    12          2
    15          6
    25          2
    26         17
    27         14
    28         22
    31         45
    32          6
    33         10
    35         11
    36          5
    37         31
    38         32
    39         59
    40          5
    43         11
    44         32
    47          3
    48          4
    49         17
    50         63
    51         44
    52          7
    54         11
    55          4
    56         20
    57        104
    58          6
    59          2
    60          9
    61         46
    62         64
    63         80
    64          8
    65          1
    67         15
    68         22
    69         20
    70          7
    71          3
    72         12
    73         28
    74         27
    75         27
    76          5
    78          2
    79          3
    80         15
    81         71
    82         13
    83        171
    84         19
    85         19
    86         17
    87         17
    88          4
    89         36
    90          6
    91         21
    92          6
    93         20
    94          9
    95          3
    96          2
    97          8
    99          4
   103          1
   104          4
   105         11
   106          1
   107        125
   108          1
   109        999
   110         79
   111          3
   115          5
   117         36
   118          2
   119          9
   123          3
   125          3
   141          1
   143        126
   144        334
   145         64
   146         96
   147          7