##TITLE=Library Entry 29468
##JCAMP-DX=Revision 4.10 
##DATA TYPE=MASS SPECTRUM
##SAMPLE DESCRIPTION=Japan AIST/NIMC Database- Spectrum MS-IW-3599
##NAMES=HP
##CAS NAME=10H-Phenothiazine-10-propanamine, 2-methoxy-N,N,.beta.-trimethyl-
##MOLFORM=C19H24N2OS
##CAS REGISTRY NO=851-68-3
##MP= -300
##BP= -300
##MW= 328
##$RETENTION INDEX=2539
##$CONDENSED SPECTRUM=NO
##NPOINTS= 221
##XYDATA=(XY..XY) 1 
    14          1
    15          5
    16          1
    17          2
    18          7
    24          1
    25          7
    26         47
    27         22
    28         14
    29         12
    30         21
    32          1
    36          1
    37          1
    38          1
    39         10
    40          2
    41         17
    42         39
    43         17
    44         33
    45         38
    46          7
    50          3
    51          6
    52          3
    53         11
    54         44
    55         23
    56          9
    57         14
    58        999
    59         57
    60          2
    62          2
    63          9
    64          3
    65          6
    66          1
    67          2
    68          4
    69         12
    70         11
    71         13
    72         51
    73          4
    74          2
    75          4
    76          3
    77          9
    78          2
    79          2
    80          1
    81          5
    82          5
    83          3
    84         42
    85         15
    86         19
    87          2
    88          1
    89          3
    90          1
    91          2
    92          2
    93          3
    94          1
    95          5
    96          3
    97          3
    98         16
    99         22
   100        168
   101         12
   102          2
   103          1
   104          1
   105          2
   106          1
   107          1
   108          5
   109          7
   110          1
   111          1
   113          2
   114          3
   115          7
   116          2
   117          1
   119          1
   120          1
   121          2
   122          1
   123          1
   125          1
   126          2
   127          5
   128          4
   129          2
   130          1
   132          1
   133          1
   134          2
   135          2
   136          2
   137          1
   138          1
   139          5
   140          9
   141          9
   142          2
   145          1
   146          2
   147          1
   148          1
   149          1
   151          1
   152          3
   153          7
   154          8
   155          1
   157          1
   158          3
   159          4
   160          1
   161          1
   164          5
   165          2
   166          9
   167         21
   168          5
   169          2
   170          2
   171          7
   172          3
   173          1
   174          1
   177          1
   178          1
   179          2
   180          3
   181          1
   182          3
   183          3
   184         10
   185         77
   186         29
   187          7
   188          1
   191          1
   192          2
   193          2
   194          3
   195          4
   196          7
   197          6
   198         18
   199         15
   200          9
   201          2
   204          1
   205          1
   206          1
   207          1
   208          4
   209          8
   210         46
   211         10
   212          6
   213          3
   214         11
   215          3
   216          1
   220          2
   221          1
   222          1
   223          4
   224          3
   225          2
   226          6
   227         14
   228         92
   229        107
   230         19
   231          6
   234          2
   235          2
   236          3
   237          3
   238          3
   239          3
   240          6
   241          4
   242         85
   243         53
   244         11
   245          3
   250          2
   251          2
   252          3
   253          5
   254          7
   255          4
   256          2
   266          1
   267          1
   268         34
   269         30
   270         27
   271          6
   272          1
   282         55
   283         74
   284         16
   285          5
   286          1
   328        459
   329        102
   330         32
   331          5