##TITLE=Library Entry 75349
##JCAMP-DX=Revision 4.10 
##DATA TYPE=MASS SPECTRUM
##SAMPLE DESCRIPTION=ASES Database, Dalian Institute, P.R. China
##NAMES=HP
##CAS NAME=Propane-1,3-diol 2-nitro-4-carboxy-benzeneboronate
##MOLFORM=C10H10BNO6
##CAS REGISTRY NO=85107-48-8
##MP= -300
##BP= -300
##MW= 251
##$RETENTION INDEX=0
##$CONDENSED SPECTRUM=NO
##NPOINTS= 50
##XYDATA=(XY..XY) 1 
    76        114
    77        230
    90         77
    91        270
   100        246
   101        999
   103        308
   116         37
   117         61
   118         45
   119        157
   120         58
   121        200
   122         38
   123         76
   128         49
   129        219
   130         45
   131         27
   133         72
   135         37
   137         46
   145        139
   146        114
   147        345
   148         77
   149        104
   150        114
   162         49
   163         57
   164         87
   165        107
   167        112
   172         38
   173        137
   176         57
   177        181
   178         46
   190         76
   191        269
   192         96
   193        281
   194         76
   205         30
   220         96
   221        162
   234         38
   250         76
   251        285
   252         38