##TITLE=Library Entry 70574
##JCAMP-DX=Revision 4.10 
##DATA TYPE=MASS SPECTRUM
##SAMPLE DESCRIPTION=V.G.Zaikin, TIPS RAS, Moscow, Russia
##NAMES=HP
##CAS NAME=1-Bromo-1-methyl-1-silacyclohexane
##MOLFORM=C6H13BrSi
##CAS REGISTRY NO=85125-32-2
##MP= -300
##BP= -300
##MW= 192
##$RETENTION INDEX=0
##$CONDENSED SPECTRUM=NO
##NPOINTS= 134
##XYDATA=(XY..XY) 1 
    35         17
    36        123
    37         28
    38         52
    39        435
    40        147
    41        372
    42        161
    43        493
    44        115
    45        177
    46         13
    47          7
    49          4
    50         25
    51         45
    52         19
    53        146
    54         99
    55        178
    56         49
    57         61
    58         94
    59        206
    60         19
    61         25
    63        105
    64         17
    65         65
    66         49
    67        139
    68         88
    69         96
    70         79
    71         88
    72         19
    73         38
    74         29
    75          5
    76          3
    77         11
    78         47
    79        138
    80         84
    81         88
    82         93
    83        108
    84        183
    85        317
    86         51
    87         41
    88          5
    89          9
    90          6
    91          7
    92         92
    93         70
    94         41
    95         77
    96         32
    97        999
    98        117
    99         49
   100          8
   101          8
   102          4
   103          9
   104          7
   105        108
   106         28
   107        318
   108         39
   109        345
   110         58
   111         49
   112        302
   113        642
   114        100
   115        122
   116          4
   117         21
   118          7
   119         17
   120        102
   121         32
   122        187
   123        367
   124        182
   125        328
   126         28
   127         11
   129          6
   130         19
   131          8
   132         11
   133        121
   134         19
   135         85
   136        409
   137        178
   138        375
   139        135
   140         29
   141         17
   142         11
   143         39
   144          6
   145          8
   147         18
   148         98
   149        455
   150        161
   151        485
   152        113
   153         57
   163         69
   164        523
   165        101
   166        533
   167         48
   168         19
   169          4
   175         17
   176         19
   177        801
   178         98
   179        782
   180         78
   181         21
   192        687
   193        101
   194        681
   195         83
   196         19