##TITLE=Library Entry 54321
##JCAMP-DX=Revision 4.10 
##DATA TYPE=MASS SPECTRUM
##SAMPLE DESCRIPTION=Chemical Concepts
##NAMES=HP
##CAS NAME=Piperidine, 1-[[(1,1-dimethylethyl)imino]methyl]-
##MOLFORM=C10H20N2
##CAS REGISTRY NO=85152-52-9
##MP= -300
##BP= -300
##MW= 168
##$RETENTION INDEX=0
##$CONDENSED SPECTRUM=NO
##NPOINTS= 103
##XYDATA=(XY..XY) 1 
    26          8
    27         54
    28         46
    29         91
    30         59
    31          2
    36          3
    37          2
    38          3
    39         50
    40         14
    41        192
    42        102
    43         68
    44         24
    45         12
    46          4
    47          2
    50          2
    51          4
    52          4
    53         10
    54         17
    55         62
    56        102
    57        132
    58         47
    59          5
    60          2
    62          7
    64          4
    65          5
    66          3
    67         26
    68         33
    69         72
    70         64
    71         18
    72         17
    73          2
    75          3
    76          4
    77          2
    78          2
    79          3
    80          7
    81          8
    82         28
    83         49
    84        999
    85         86
    86         22
    87          2
    88          3
    91          3
    92          2
    93          2
    94          6
    95          7
    96         18
    97         14
    98         14
    99          6
   100          2
   103          4
   104          1
   105          2
   106          1
   107          1
   108          2
   109          8
   110          7
   111        328
   112        123
   113         32
   114          4
   115          2
   116          3
   121          2
   122          1
   123          4
   124          3
   125          5
   126         10
   127          3
   128          2
   129          2
   133          1
   134          1
   136          2
   137          6
   138          3
   139          4
   140          2
   151          6
   152          4
   153        829
   154        111
   155          7
   167          7
   168        328
   169         47
   170          3