##TITLE=Library Entry 37843
##JCAMP-DX=Revision 4.10 
##DATA TYPE=MASS SPECTRUM
##SAMPLE DESCRIPTION=Chemical Concepts
##NAMES=HP
##CAS NAME=2-Propanamine, 2-methyl-N2-[1-tetrahydro-1H-1-pyrrolylmethylidene
]
##MOLFORM=C9H18N2
##CAS REGISTRY NO=85152-51-8
##MP= -300
##BP= -300
##MW= 154
##$RETENTION INDEX=0
##$CONDENSED SPECTRUM=NO
##NPOINTS= 76
##XYDATA=(XY..XY) 1 
    26          9
    27         61
    28        102
    29         95
    30         55
    31          1
    36          4
    37          1
    38          5
    39         71
    40         21
    41        236
    42        117
    43        197
    44         23
    45          4
    46          4
    48          1
    49          1
    50          4
    51          6
    52          5
    53         17
    54         25
    55         96
    56         45
    57        129
    58         35
    59          1
    62         18
    63          2
    64          1
    65          4
    66          2
    67         13
    68         44
    69         43
    70        999
    71         67
    72         43
    73          2
    77          1
    78          1
    79          1
    80          5
    81          5
    82         13
    83          8
    84          6
    85          4
    86          4
    89          1
    95         10
    96          6
    97        102
    98         88
    99         26
   100          1
   101          1
   109          4
   110          3
   111          2
   112         12
   113          6
   126          5
   127          1
   137          5
   138          4
   139        807
   140         82
   141          5
   152          0
   153          2
   154        269
   155         31
   156          2