##TITLE=Library Entry 31841
##JCAMP-DX=Revision 4.10 
##DATA TYPE=MASS SPECTRUM
##SAMPLE DESCRIPTION=Chemical Concepts
##NAMES=HP
##CAS NAME=Bicyclo[2.2.1]hept-2-ene-1-carboxylic acid, 6-chloro-, methyl est
er, endo-
##MOLFORM=C9H11ClO2
##CAS REGISTRY NO=85173-64-4
##MP= -300
##BP= -300
##MW= 186
##$RETENTION INDEX=0
##$CONDENSED SPECTRUM=NO
##NPOINTS= 91
##XYDATA=(XY..XY) 1 
    25          7
    26         96
    27        401
    28         27
    29        175
    30         51
    31         46
    35         11
    36          9
    37         81
    38        234
    39        749
    40        104
    41        116
    42         16
    43         24
    44          9
    45         45
    48         11
    49         65
    50        237
    51        429
    52        156
    53        201
    54         31
    55         32
    59        414
    60         25
    61         92
    62        334
    63        501
    64        236
    65        999
    66        255
    67         48
    68         12
    69         12
    72          9
    73         73
    74         47
    75         85
    76         25
    77        224
    78         84
    79        482
    80         85
    81        118
    82         15
    85         25
    86         30
    87         32
    88         15
    89        147
    90         67
    91        655
    92        269
    93        687
    94         72
    95         28
    96        556
    97         45
    99         37
   100         10
   101         17
   102          7
   105         29
   106         11
   107         19
   108         11
   109         16
   111         11
   112         18
   118         16
   119         28
   121         14
   122         13
   123         18
   124        546
   125         72
   126         16
   150          0
   151          4
   152          0
   155         36
   156          3
   157         11
   158          1
   186         13
   187          1
   188          4
   189          0