##TITLE=Library Entry 1859
##JCAMP-DX=Revision 4.10 
##DATA TYPE=MASS SPECTRUM
##SAMPLE DESCRIPTION=Chemical Concepts
##NAMES=HP
##CAS NAME=Bicyclo[2.2.1]heptane-1-carbonyl chloride, 2-exo-chloro-
##MOLFORM=C8H10Cl2O
##CAS REGISTRY NO=85173-68-8
##MP= -300
##BP= -300
##MW= 192
##$RETENTION INDEX=0
##$CONDENSED SPECTRUM=NO
##NPOINTS= 89
##XYDATA=(XY..XY) 1 
    26        127
    27        505
    28        103
    29         93
    31          7
    35         25
    36         13
    37         67
    38        185
    39        999
    40        190
    41        343
    42         28
    43         14
    44          7
    45         15
    46         11
    47         13
    48          8
    49         70
    50        153
    51        327
    52        121
    53        381
    54         70
    55         48
    60         11
    61         47
    62        115
    63        289
    64         68
    65        642
    66        250
    67        293
    68         31
    72          7
    73         60
    74         33
    75         73
    76         15
    77        459
    78        142
    79        199
    80         26
    81         22
    82          7
    85         10
    86          9
    87         28
    88         28
    89         49
    90         24
    91        333
    92         73
    93        869
    94        100
    95         63
    96         10
    99         28
   100         26
   101         90
   102         16
   103         29
   104          6
   105         17
   106         11
   107         10
   110          7
   111          7
   112          8
   113         19
   114         10
   115         12
   121         48
   122          7
   127         70
   128         30
   129         92
   130         14
   131         26
   156        133
   157        406
   158         83
   159        145
   160         15
   163         44
   165         34
   192         19
   194         14