##TITLE=Library Entry 57170
##JCAMP-DX=Revision 4.10 
##DATA TYPE=MASS SPECTRUM
##SAMPLE DESCRIPTION=Chemical Concepts
##NAMES=HP
##CAS NAME=2,4-Cyclohexadien-1-one, 4,6,6-trimethyl-5-[2-(2-methyl-1,3-dioxo
lan-2-yl)ethenyl]-, (E)-
##MOLFORM=C15H20O3
##CAS REGISTRY NO=85197-97-3
##MP= -300
##BP= -300
##MW= 248
##$RETENTION INDEX=0
##$CONDENSED SPECTRUM=NO
##NPOINTS= 118
##XYDATA=(XY..XY) 1 
    25          1
    27         21
    28          5
    29          9
    39         36
    41         50
    43        357
    44          6
    45         21
    50          4
    51         22
    52         10
    53         27
    54          2
    55         16
    57          4
    58          8
    59          3
    62          2
    63         12
    64         10
    65         32
    66          6
    67         10
    69          8
    71          4
    72         13
    73         30
    74          3
    75          3
    76          3
    77         41
    78         13
    79         22
    81          7
    83         28
    86          3
    87        999
    88         22
    89         16
    90          2
    91         73
    92          9
    93         12
    94          2
    95          7
    98          2
    99         17
   100         79
   101         22
   103         16
   104          5
   105         60
   106          9
   107          8
   108          3
   109          2
   113         38
   115         34
   117         35
   119         35
   120         27
   121          9
   127          9
   128         17
   129         16
   130          8
   131         18
   132          9
   133         93
   134         12
   135          5
   136          4
   141          5
   142          2
   143         17
   144          8
   145         23
   146         15
   147         19
   148         75
   149         22
   150          2
   157          3
   158          5
   159         13
   160         11
   161        102
   162         19
   163          3
   171          5
   173          4
   174          3
   175         13
   176          8
   177          6
   185          2
   186         14
   187         10
   188          2
   189         11
   190          7
   191          2
   203         16
   204          3
   205        319
   206         35
   207          3
   215          0
   219          3
   220         12
   221          2
   233        134
   234         19
   235          2
   248        132
   249         21
   250          2