##TITLE=Library Entry 57774
##JCAMP-DX=Revision 4.10 
##DATA TYPE=MASS SPECTRUM
##SAMPLE DESCRIPTION=Chemical Concepts
##NAMES=HP
##CAS NAME=2,4-Dimethyl-nonanedioic acid, dimethyl ester
##MOLFORM=C13H24O4
##CAS REGISTRY NO=85213-25-8
##MP= -300
##BP= -300
##MW= 244
##$RETENTION INDEX=0
##$CONDENSED SPECTRUM=NO
##NPOINTS= 168
##XYDATA=(XY..XY) 1 
    26          6
    27         72
    29        141
    30          5
    31         20
    33          5
    34          2
    36          9
    38          4
    39         82
    40         32
    41        370
    42         83
    43        211
    44         20
    45         52
    46          3
    50          5
    51         10
    52          5
    53         41
    54         16
    55        462
    56        106
    57        189
    58         13
    59        256
    60         13
    61          6
    62          2
    63          9
    64          2
    65         13
    66          6
    67         77
    68         38
    69        521
    70         58
    71         33
    72          7
    73        155
    74        129
    75         11
    76          7
    77         23
    78          8
    79         32
    80          7
    81         86
    82         55
    83        351
    84         77
    85         24
    86          4
    87        172
    88        999
    89         55
    90          7
    91         13
    92          4
    93         34
    94         18
    95         91
    96         31
    97        323
    98         38
    99         16
   100          6
   101        182
   102         20
   103          5
   104          6
   105         13
   106          5
   107         66
   108         22
   109         64
   110         89
   111        228
   112        125
   113         25
   114          7
   115         56
   116          7
   117          4
   118          2
   119         14
   120         15
   121         19
   122          6
   123         24
   124         49
   125        444
   126         91
   127         16
   128         10
   129        105
   130         12
   131          4
   132          2
   133         10
   134          9
   135         70
   136         14
   137         50
   138         81
   139         85
   140         11
   141         39
   142         31
   143         26
   144         33
   145          7
   147         10
   148          2
   151         26
   152         65
   153        208
   154         31
   155         14
   156         11
   157        380
   158         47
   159          6
   160          4
   161          3
   162         14
   163         16
   164          4
   165         78
   166         12
   167         10
   168         11
   169         19
   170         40
   171         24
   172          3
   173          6
   174          2
   178          3
   179         14
   180        374
   181         56
   182          6
   183          5
   184         38
   185        249
   186         33
   187          5
   191          3
   194         25
   195         10
   196          2
   197         32
   198          5
   199          5
   201          4
   202          2
   203          2
   210          4
   211          2
   212         37
   213         86
   214         12
   215          2
   219          4
   220          2
   245          4