##TITLE=Library Entry 35220
##JCAMP-DX=Revision 4.10 
##DATA TYPE=MASS SPECTRUM
##SAMPLE DESCRIPTION=Chemical Concepts
##NAMES=HP
##CAS NAME=Carbonic acid, methyl ester, [(E)-3,7-dimethyl-2,6-octadien-1-yl]
 ester
##MOLFORM=C12H20O3
##CAS REGISTRY NO=85217-72-7
##MP= -300
##BP= -300
##MW= 212
##$RETENTION INDEX=0
##$CONDENSED SPECTRUM=NO
##NPOINTS= 101
##XYDATA=(XY..XY) 1 
    26          1
    27         54
    28          0
    29         45
    30          2
    31          5
    33          5
    38          1
    39         60
    40         22
    41        501
    42         26
    43         32
    44          8
    45         13
    46          0
    50          1
    51          7
    52          5
    53         66
    54          7
    55         42
    56          5
    57          6
    58          1
    59         56
    60          1
    61          0
    62          0
    63          1
    64          0
    65         17
    66          7
    67        168
    68        638
    69        999
    70         56
    71          6
    72          0
    73          7
    74          0
    77         28
    78          5
    79         42
    80         96
    81        121
    82         13
    83         12
    84          2
    85         10
    86          0
    89          0
    91         21
    92         56
    93        249
    94         63
    95         26
    96          6
    97          5
    98          1
    99         16
   100          1
   101          0
   103          1
   104          0
   105         10
   106          3
   107         61
   108         19
   109          4
   110          0
   111          4
   112          0
   115          0
   117          9
   118          0
   119          4
   120          1
   121        154
   122         17
   123         28
   124          2
   125          0
   129          0
   130          0
   133          0
   134          0
   135          2
   136        255
   137         63
   138          5
   142          6
   143          6
   144          0
   156          2
   157          0
   165          0
   169          2
   170          0
   212         11
   213          1