##TITLE=Library Entry 49447
##JCAMP-DX=Revision 4.10 
##DATA TYPE=MASS SPECTRUM
##SAMPLE DESCRIPTION=F. TURECEK,HEYROVSKY INST PHYS CHEM & ELECTROCHEM,PRAGU
E,CZECH
##NAMES=HP
##CAS NAME=cis-Bicyclo[4.3.0]-3-nonene
##MOLFORM=C9H14
##CAS REGISTRY NO=85236-78-8
##MP= -300
##BP= -300
##MW= 122
##$RETENTION INDEX=1038
##$CONDENSED SPECTRUM=NO
##NPOINTS= 44
##XYDATA=(XY..XY) 1 
    27        160
    29         80
    39        470
    40         50
    41        360
    42         60
    43         60
    50         30
    51         80
    52         30
    53        220
    54        270
    55        110
    56         30
    57         60
    62         20
    63         30
    65        110
    66        110
    67        820
    68        520
    69         50
    70         30
    77        230
    78         90
    79        710
    80        999
    81        760
    82         70
    83         40
    91        130
    92         60
    93        710
    94        540
    95         70
    96         40
    97         20
   105         40
   107        170
   108         40
   109         20
   121         40
   122        690
   123         90