##TITLE=Library Entry 47353
##JCAMP-DX=Revision 4.10 
##DATA TYPE=MASS SPECTRUM
##SAMPLE DESCRIPTION=A.A.Kutin, Moscow, Russia
##NAMES=HP
##CAS NAME=Thiazol-2-amine, 5-phenylazo-4-(2-thienyl)-
##MOLFORM=C13H10N4S2
##CAS REGISTRY NO=85242-87-1
##MP= -300
##BP= -300
##MW= 286
##$RETENTION INDEX=0
##$CONDENSED SPECTRUM=NO
##NPOINTS= 227
##XYDATA=(XY..XY) 1 
    33          4
    34          3
    35          0
    37         21
    38         48
    39        125
    40         17
    41         14
    42         11
    43         13
    44         16
    45        101
    46          4
    47          6
    48          1
    50         80
    51        287
    52         43
    53         10
    54          2
    55          2
    57         24
    58         40
    59         25
    60        157
    61         15
    62         35
    63         78
    64        109
    65         40
    66         15
    67          3
    69        138
    70         43
    71         74
    72         20
    73          9
    74         16
    75         22
    77        999
    78         67
    79         13
    81         38
    82         35
    83         30
    84         10
    85          8
    86          3
    87          4
    88          9
    89          7
    90         11
    91         74
    92         18
    93         64
    95        428
    96         46
    97         20
    98          4
    99          2
   100         10
   101          4
   102          5
   103          4
   104         14
   105         66
   106         28
   107          6
   108         12
   109         75
   110        144
   111         16
   112         13
   113          6
   114          8
   115          6
   116          2
   117          3
   118          7
   119          6
   120          8
   121         25
   122         10
   123          7
   124          4
   125          3
   126          6
   127         32
   128         12
   129          5
   130          5
   131          1
   132          0
   133          1
   135         20
   136          5
   137         19
   139        914
   140        127
   141         81
   142         13
   143         32
   144          3
   145          3
   146          2
   147          2
   148          2
   149          3
   150          2
   151          3
   152          8
   153         18
   154          6
   155          7
   156          1
   157          1
   158          2
   159          1
   160          1
   161          2
   162          3
   163          0
   164          0
   165          1
   166          2
   167          4
   168          2
   169          3
   171         57
   172         12
   173          8
   174          3
   175          1
   176          1
   177          1
   178          0
   179          4
   180         13
   181         52
   182         62
   183         18
   184         22
   185          6
   186          3
   187          0
   188          0
   189          0
   190          2
   191          0
   192          1
   193          1
   194          4
   195          3
   196          2
   197          3
   198          9
   199          6
   200          4
   201          2
   202          2
   203          0
   204          0
   205          0
   206          0
   207          1
   209         71
   210          8
   211          8
   212          1
   213          3
   214          5
   215         18
   216         20
   217          5
   218          2
   219          2
   220          0
   221          0
   222          0
   224          3
   225          7
   226          9
   227          3
   228          1
   229          0
   230          1
   231          1
   232          1
   233          0
   235          0
   236          0
   237          0
   239          0
   240          1
   241          1
   242          1
   243          3
   244          5
   245          1
   246          1
   247          0
   250          0
   251          1
   253         17
   254          2
   255          1
   256          2
   257         11
   258          8
   259          4
   260          4
   261          1
   262          0
   266          0
   267          0
   268          0
   276          0
   278          0
   279          0
   281          2
   282          5
   285        775
   286        505
   287        133
   288         51
   289          8
   290          1