##TITLE=Library Entry 114176
##JCAMP-DX=Revision 4.10 
##DATA TYPE=MASS SPECTRUM
##SAMPLE DESCRIPTION=Chemical Concepts
##NAMES=HP
##CAS NAME=2-Propynamide, N,N-diethyl-3-phenyl-
##MOLFORM=C13H15NO
##CAS REGISTRY NO=85241-00-5
##MP= -300
##BP= -300
##MW= 201
##$RETENTION INDEX=0
##$CONDENSED SPECTRUM=NO
##NPOINTS= 125
##XYDATA=(XY..XY) 1 
    25          0
    26          6
    27         62
    28         60
    29         78
    30          7
    37          1
    38          2
    39         15
    40          2
    41          9
    42         62
    43          4
    44         24
    45          1
    49          2
    50         19
    51         71
    52         10
    53          3
    54          3
    55          2
    56         51
    57          4
    58          1
    61          3
    62          9
    63         14
    64          1
    65          2
    66          0
    67          0
    68          1
    69          2
    70         21
    71          5
    72         39
    73          4
    74         37
    75        123
    76         20
    77         33
    78          4
    79          2
    80          0
    81          0
    82          0
    84          1
    85          0
    86          2
    87          2
    88          3
    89          8
    90          1
    91          4
    92          0
    93          2
    94          0
    95          0
    96          3
    97          1
    98          6
    99          4
   100         10
   101         58
   102         58
   103         12
   104          6
   105          3
   106          0
   108          0
   110          0
   113          0
   114          1
   115         12
   116         11
   117          6
   118          1
   119          0
   123          1
   124         13
   125          1
   126          1
   127          5
   128         17
   129        999
   130        100
   131         26
   132          6
   133          0
   134          0
   140          0
   141          0
   142          0
   143          2
   144         13
   145          3
   146          0
   147          0
   148          0
   154          1
   155          0
   156          1
   157          3
   158         16
   159          4
   160          0
   168          0
   169          0
   170          0
   171          0
   172         28
   173          9
   174          1
   184          0
   185          0
   186         72
   187          9
   188          0
   199         11
   200        153
   201        160
   202         22
   203          2
   204          0