##TITLE=Library Entry 24922
##JCAMP-DX=Revision 4.10 
##DATA TYPE=MASS SPECTRUM
##SAMPLE DESCRIPTION=Chemical Concepts
##NAMES=HP
##CAS NAME=di-tert-Butylsilyl bis(trifluoromethanesulfonate)
##MOLFORM=C10H18F6O6S2Si
##CAS REGISTRY NO=85272-31-7
##MP= -300
##BP= -300
##MW= 440
##$RETENTION INDEX=0
##$CONDENSED SPECTRUM=NO
##NPOINTS= 144
##XYDATA=(XY..XY) 1 
    26          0
    27         22
    29        108
    30          2
    31          2
    36          0
    37          0
    38          0
    39         32
    40         10
    41        167
    42         10
    43          2
    44          0
    45         36
    46          2
    47         12
    48          6
    49          1
    50          2
    51          2
    52          0
    53          4
    54          1
    55         19
    56        406
    57        999
    58         44
    59          4
    60          5
    61         12
    62          9
    63         24
    64         13
    65         35
    66          1
    67          8
    69        160
    70          2
    71          0
    72          0
    73          4
    74          0
    75         55
    76          6
    77         84
    78          7
    79        344
    80         23
    81         68
    82          3
    83          5
    84          1
    85          3
    86          0
    87          6
    88          0
    89          6
    90          0
    91          6
    92          0
    93          0
    95          0
    97          0
    98          0
    99          7
   100          1
   101         27
   102          7
   103         15
   104          2
   105          7
   106          1
   107          2
   109          0
   110          0
   111          1
   112          0
   113          0
   115          3
   116          0
   117         21
   118          2
   119         18
   120          2
   121        161
   122         15
   123         56
   124          5
   125          4
   126          4
   127          1
   128          6
   129          1
   130          2
   131          0
   133          3
   135          1
   139          0
   143          1
   144          1
   145          2
   146          0
   147          2
   148          0
   149          0
   151          0
   152          0
   159          5
   160          0
   161          5
   162          0
   165          0
   185          9
   186          0
   187          5
   188          0
   189          0
   191          0
   194          1
   195          5
   196          0
   197          0
   211          0
   231          0
   235          1
   237          0
   239          0
   251         77
   252          8
   253         23
   254          2
   255          1
   275          1
   291          1
   308          3
   309          0
   310          0
   383         28
   384          4
   385          3
   386          1
   440          1
   442          0