##TITLE=Library Entry 47314
##JCAMP-DX=Revision 4.10 
##DATA TYPE=MASS SPECTRUM
##SAMPLE DESCRIPTION=F. TURECEK,HEYROVSKY INST PHYS CHEM & ELECTROCHEM,PRAGU
E,CZECH
##NAMES=HP
##CAS NAME=1-Propyl-5-(phenylamino)-1H-tetrazole
##MOLFORM=C10H13N5
##CAS REGISTRY NO=85285-40-1
##MP= -300
##BP= -300
##MW= 203
##$RETENTION INDEX=0
##$CONDENSED SPECTRUM=NO
##NPOINTS= 69
##XYDATA=(XY..XY) 1 
    43        592
    44         33
    45         83
    46         40
    50        201
    51        635
    52        117
    53         78
    54         28
    55        419
    56         43
    57         64
    58         24
    62         26
    63        100
    64        100
    65        545
    66         85
    67         31
    69        116
    70         20
    71         18
    73         14
    74         40
    75         49
    76        152
    77        999
    78        194
    79         46
    80         13
    81         43
    82         10
    83         28
    90         31
    91        235
    92        645
    93        201
    94         28
    95         17
   103         83
   104        249
   105        136
   106        130
   107         18
   111        296
   112         19
   117         66
   118        735
   119        486
   120         52
   129         43
   130         14
   131         19
   132         40
   133        960
   134        135
   135         13
   146        206
   147        190
   148         19
   159         20
   160         64
   161         28
   174        472
   175         58
   202         83
   203        571
   204         78
   205          9