##TITLE=Library Entry 16458
##JCAMP-DX=Revision 4.10 
##DATA TYPE=MASS SPECTRUM
##SAMPLE DESCRIPTION=ASES Database, Dalian Institute, P.R. China
##NAMES=HP
##CAS NAME=2-Cyclohexyl-3,5,5-trimethyl-1,3,2-oxazaphosphorinan 2-oxide
##MOLFORM=C12H24NO2P
##CAS REGISTRY NO=85289-29-8
##MP= -300
##BP= -300
##MW= 245
##$RETENTION INDEX=0
##$CONDENSED SPECTRUM=NO
##NPOINTS= 12
##XYDATA=(XY..XY) 1 
    41        199
    44        999
    55        137
    56        100
    67         29
    68         28
    98         40
   106         29
   162         39
   190        994
   191        140
   245         89