##TITLE=Library Entry 91249
##JCAMP-DX=Revision 4.10 
##DATA TYPE=MASS SPECTRUM
##SAMPLE DESCRIPTION=Institute of Organic Chemistry, Novosibirsk, USSR 1988
##NAMES=HP
##CAS NAME=4,4,6-Trimethyl-2-[p-nitrophenylamino]-4H-1,3-thiazine
##MOLFORM=C13H15N3O2S
##CAS REGISTRY NO=85298-50-6
##MP= -300
##BP= -300
##MW= 277
##$RETENTION INDEX=0
##$CONDENSED SPECTRUM=NO
##NPOINTS= 97
##XYDATA=(XY..XY) 1 
    37         16
    38         38
    39        267
    40         52
    41        246
    42        120
    43         27
    44         25
    45        109
    46         16
    47         27
    48          3
    49          9
    50         92
    51         67
    52         42
    53        156
    54         18
    55         81
    56         17
    57         18
    58         52
    59        379
    60         26
    61         30
    62         22
    63        121
    64         64
    65        156
    66         39
    67         54
    68          5
    69         30
    70         16
    71         45
    72         27
    73         37
    74         25
    75         57
    76         79
    77         73
    78         36
    79        125
    80         39
    81         74
    82         15
    83         15
    84         30
    85         19
    86          9
    88         11
    89         11
    90        116
    91         27
    92          9
    93          9
    94          9
    95          9
    96         13
    97         69
    98         36
    99        499
   100         88
   101         32
   102         15
   103          5
   105         30
   106         14
   107         25
   108         40
   109          4
   110          4
   111         16
   113        549
   114        999
   115        265
   116         87
   117         36
   118         19
   122         12
   125          8
   128         21
   131          7
   133         55
   135         14
   147          8
   150          9
   151         11
   163         29
   179          8
   216          4
   231         18
   247         25
   262        714
   263        109
   277        136
   278         21