##TITLE=Library Entry 91074
##JCAMP-DX=Revision 4.10 
##DATA TYPE=MASS SPECTRUM
##SAMPLE DESCRIPTION=Institute of Organic Chemistry, Novosibirsk, USSR 1988
##NAMES=HP
##CAS NAME=4,4,6-Trimethyl-2-[p-bromophenylamino]-4H-1,3-thiazine
##MOLFORM=C13H15BrN2S
##CAS REGISTRY NO=85298-51-7
##MP= -300
##BP= -300
##MW= 310
##$RETENTION INDEX=0
##$CONDENSED SPECTRUM=NO
##NPOINTS= 135
##XYDATA=(XY..XY) 1 
    37         41
    38         80
    39        320
    41        278
    42        147
    43        213
    45        163
    46         24
    47         29
    48         85
    49         17
    50        131
    51        102
    52         62
    53        151
    54         30
    55        113
    56         33
    57         30
    58         94
    59        341
    60         46
    61         45
    62         50
    63        149
    64        188
    65        213
    66         53
    67         67
    68         18
    69         51
    70         25
    71         57
    72         28
    73         43
    74         54
    75        102
    76         98
    77        119
    78         92
    79        206
    80         69
    81        118
    82         43
    83         53
    84         35
    85         34
    86         12
    87          8
    88         16
    89         37
    90        240
    91         66
    92         20
    93         12
    94         16
    95         20
    96         19
    97        126
    98         76
    99        592
   100         95
   101         40
   102         29
   103          6
   104          5
   105          7
   106          9
   107         11
   108         48
   109         11
   110         12
   111        129
   112        120
   113        666
   114        999
   115        315
   116         88
   117        154
   118         32
   119         17
   120          3
   121          3
   122          6
   123          5
   124          4
   125         14
   126         12
   127          7
   128         23
   129          7
   130          6
   131          8
   133          9
   134         42
   135         37
   136          5
   139          4
   140          7
   141          5
   143         15
   145         13
   150          7
   151          9
   153          3
   155         45
   156         11
   157         42
   158          7
   169         40
   170         16
   171         67
   172         17
   173         32
   181          8
   182          9
   183          9
   184          6
   196        247
   198        247
   199          9
   213         27
   214         21
   215         35
   216         20
   238         14
   240         14
   295        419
   296         69
   297        434
   298         64
   310        123
   311         24
   312        125
   313         20