##TITLE=Library Entry 91248
##JCAMP-DX=Revision 4.10 
##DATA TYPE=MASS SPECTRUM
##SAMPLE DESCRIPTION=Institute of Organic Chemistry, Novosibirsk, USSR 1988
##NAMES=HP
##CAS NAME=4,4,6-Trimethyl-2-[m-chlorophenylamino]-4H-1,3-thiazine
##MOLFORM=C13H15ClN2S
##CAS REGISTRY NO=85298-48-2
##MP= -300
##BP= -300
##MW= 266
##$RETENTION INDEX=0
##$CONDENSED SPECTRUM=NO
##NPOINTS= 93
##XYDATA=(XY..XY) 1 
    38         34
    39        174
    40        110
    41        178
    42         79
    43         40
    44         64
    45         90
    47         31
    48         11
    49         13
    50         61
    51         88
    52         68
    53        144
    54         27
    55         77
    56         22
    57         21
    58         54
    59        302
    60         27
    61         34
    62         27
    63         69
    64         39
    65        139
    66         39
    67         46
    68          6
    69         28
    70         15
    71         41
    72         24
    73         49
    74         30
    75        123
    76         33
    77         74
    78         17
    79        125
    80         37
    81         82
    82         24
    83         23
    84         33
    85         37
    86         22
    87         13
    88         11
    89         12
    90         67
    91         27
    92          9
    93          9
    94          8
    95         11
    96         14
    97         83
    98         45
    99        621
   100         99
   101         47
   102         16
   108         39
   111        146
   112         59
   113        741
   114        999
   115         27
   116         81
   117         43
   118         37
   119         10
   125        108
   126         46
   127         64
   128         35
   129         12
   137         11
   140         13
   152        172
   153         53
   154         62
   155         17
   251        779
   252        126
   253        269
   254         41
   266        194
   267         34
   268         64
   269         10