##TITLE=Library Entry 91246
##JCAMP-DX=Revision 4.10 
##DATA TYPE=MASS SPECTRUM
##SAMPLE DESCRIPTION=Institute of Organic Chemistry, Novosibirsk, USSR 1988
##NAMES=HP
##CAS NAME=4,4,6-Trimethyl-2-[p-methoxyphenylamino]-4H-1,3-thiazine
##MOLFORM=C14H18N2OS
##CAS REGISTRY NO=85298-47-1
##MP= -300
##BP= -300
##MW= 262
##$RETENTION INDEX=0
##$CONDENSED SPECTRUM=NO
##NPOINTS= 101
##XYDATA=(XY..XY) 1 
    37         17
    38         41
    39        229
    41        249
    42         84
    43         63
    46         13
    47         33
    48         23
    49          8
    50         47
    51         88
    52         86
    53        188
    54         31
    55         83
    56         22
    57         18
    58         59
    59        289
    60         33
    61         28
    62         22
    63         72
    64         79
    65        166
    66         41
    67         57
    68         11
    69         34
    70         16
    71         39
    72         20
    73         37
    74         19
    75         16
    76         22
    77        110
    78         87
    79        173
    80         63
    81         76
    82         19
    83         24
    84         31
    85         28
    86          8
    87          5
    88          6
    89          7
    90         31
    91         13
    92         35
    93          9
    94          9
    95         36
    96         13
    97         66
    98         37
    99        334
   100         50
   101         19
   102         32
   103         11
   104         11
   105        146
   106         29
   107         12
   108         48
   111         52
   112         52
   113        373
   114        999
   115        189
   116         82
   117         14
   118          6
   119          9
   120          7
   121          7
   122         61
   125         13
   128         18
   131         11
   133        373
   134         67
   135         10
   139          6
   140         12
   147         44
   148        543
   149        126
   150         36
   151         16
   165         31
   181         16
   191         20
   247        589
   248         96
   262        229
   263         39