##TITLE=Library Entry 58156
##JCAMP-DX=Revision 4.10 
##DATA TYPE=MASS SPECTRUM
##SAMPLE DESCRIPTION=K. Jacobson, LBC, NIDDK, NIH, Bethesda, MD 20892
##NAMES=HP
##CAS NAME=4-Nitrophenylalanine, methyl(ester)
##MOLFORM=C10H12N2O4
##CAS REGISTRY NO=85317-52-8
##MP= -300
##BP= -300
##MW= 224
##$RETENTION INDEX=0
##$CONDENSED SPECTRUM=NO
##NPOINTS= 85
##XYDATA=(XY..XY) 1 
    41          3
    42         24
    43         17
    44         14
    45         16
    46         10
    50         12
    51         21
    52          8
    53          5
    54          3
    55          4
    56          6
    57          7
    59         26
    60         30
    61          1
    62          6
    63         23
    64         10
    65         22
    66          4
    67          6
    68          1
    69          6
    71          1
    73          1
    74          5
    75          6
    76          7
    77         17
    78         18
    79          5
    80          8
    81          4
    82          3
    83          3
    88        999
    89         77
    90         55
    91         70
    92         18
    93          3
    94          1
    95          3
    97          1
    99          5
   102          5
   103          1
   104          6
   105          1
   106         14
   107         28
   108          2
   110          1
   116          3
   117         18
   118         50
   119        100
   120         26
   121         17
   122          3
   123          1
   124          4
   125          4
   134          4
   135          3
   136          4
   137         46
   138          4
   148          4
   149          4
   152          6
   153         12
   155          3
   163          1
   164          1
   165        340
   166         32
   167          3
   169          1
   170         30
   171          1
   224          8
   225          4