##TITLE=Library Entry 16519
##JCAMP-DX=Revision 4.10 
##DATA TYPE=MASS SPECTRUM
##SAMPLE DESCRIPTION=V. PRELOG, LAB ORG CHEM, SWISS FED INST TECHNOL, ZURICH
, SWITZ
##NAMES=HP
##CAS NAME=3-Methyl-1-[(1-phenylethyl)carbamoyl]-1-cyclobutanecarboxylic aci
d
##MOLFORM=C15H19NO3
##CAS REGISTRY NO=85317-98-2
##MP= -300
##BP= -300
##MW= 261
##$RETENTION INDEX=0
##$CONDENSED SPECTRUM=NO
##NPOINTS= 80
##XYDATA=(XY..XY) 1 
    27        120
    28        110
    29         45
    30         15
    36         30
    38         15
    39         80
    40         20
    41        330
    42        135
    43         75
    44        999
    45         35
    50         20
    51         60
    52         20
    53         40
    54         25
    55        220
    56         35
    57         40
    59         25
    60         25
    65         30
    67         40
    68         25
    69        330
    70         50
    71         20
    72         55
    73         20
    76         30
    77        220
    78         80
    79        160
    80         20
    91         55
    93         15
    97        100
    98         60
    99         15
   102         30
   103        120
   104        450
   105        730
   106        800
   107        100
   111         35
   112         20
   113         40
   118         45
   119         55
   120        830
   121        140
   122         15
   126         30
   129         20
   130         35
   131        270
   132         70
   133         15
   146        125
   147         55
   148         15
   158         20
   160        385
   161        100
   162         15
   169         15
   173         50
   174        670
   175        310
   176         55
   188         20
   189         15
   202         50
   216         25
   217        900
   218        180
   219         15