##TITLE=Library Entry 82225
##JCAMP-DX=Revision 4.10 
##DATA TYPE=MASS SPECTRUM
##SAMPLE DESCRIPTION=Chemical Concepts
##NAMES=HP
##CAS NAME=Ethyl 3-phenyl-1-[(1-phenylethyl)carbamoyl]cyclobutanecarboxylate
##MOLFORM=C22H25NO3
##CAS REGISTRY NO=85318-03-2
##MP= -300
##BP= -300
##MW= 351
##$RETENTION INDEX=0
##$CONDENSED SPECTRUM=NO
##NPOINTS= 254
##XYDATA=(XY..XY) 1 
    26          6
    27         48
    28          0
    29        101
    30          7
    31          6
    36          9
    38          3
    39         18
    40          7
    41         61
    42         47
    43         88
    44         27
    45         27
    46          4
    47          3
    50          7
    51         33
    52         13
    53         22
    54         16
    55         86
    56         30
    57         92
    58          8
    59          6
    60         32
    61          7
    62          2
    63          9
    64         11
    65         20
    66          5
    67         21
    68         26
    69        104
    70         34
    71         64
    72         12
    73         29
    74          6
    75          6
    76          9
    77        156
    78         92
    79        136
    80         17
    81         54
    82         27
    83         55
    84         24
    85         38
    86          4
    87          8
    88          3
    89         11
    90          6
    91        198
    92         20
    93         16
    94         11
    95         31
    96         22
    97         45
    98         32
    99         89
   100         11
   101         13
   102         27
   103        155
   104        260
   105        999
   106        203
   107         30
   108         11
   109         22
   110         14
   111         26
   112         18
   113         19
   114          6
   115         71
   116         33
   117         27
   118         26
   119         32
   120        363
   121         91
   122         17
   123         21
   124         13
   125         21
   126         13
   127        175
   128        142
   129        400
   130        119
   131         81
   132         45
   133         14
   134          7
   135         13
   136         16
   137         21
   138          8
   139         11
   140          8
   141         13
   142          7
   143         17
   144        393
   145         60
   146         47
   147         28
   148         13
   150          7
   151         11
   152          8
   153          9
   154          8
   155         21
   156         34
   157        159
   158        134
   159         31
   160         23
   161          7
   162          6
   163          9
   164          5
   165          9
   166          7
   167         24
   168          9
   169         11
   170          7
   171         14
   172        102
   173         94
   174        217
   175        128
   176         26
   177         10
   178          5
   179          5
   180          5
   181          5
   182          6
   183         58
   184        426
   185        118
   186        114
   187         19
   188         12
   189          7
   190          9
   191          9
   192          8
   193          7
   194          7
   195          5
   196          7
   197          5
   198          4
   199          9
   200         65
   201        137
   202        136
   203        100
   204        400
   205         99
   206         15
   207          5
   208          6
   209          5
   210          4
   211          7
   212          3
   213          9
   214          6
   215          2
   216          4
   217         14
   218         17
   219         10
   220         18
   221          5
   222          5
   223          6
   224          6
   225          4
   226          3
   227          4
   228         11
   229         42
   230        222
   231         57
   232         36
   233         17
   234         10
   235          4
   236          4
   244          9
   246        316
   247        138
   248        139
   249         23
   250          4
   251          3
   252          4
   253          4
   256         17
   257          6
   258          3
   259          3
   260          4
   261          4
   262          9
   263          3
   264          4
   273          4
   274          3
   275          3
   276          5
   277         26
   278         56
   279         28
   280          7
   281          3
   282          3
   283          2
   284          8
   285          3
   290         10
   291          3
   298          4
   299          3
   304          3
   305          4
   306         83
   307         22
   308          4
   322          8
   323          4
   336         32
   337          9
   338          3
   349          6
   350         11
   351        514
   352        191
   353         31
   354          5