##TITLE=Library Entry 80907
##JCAMP-DX=Revision 4.10 
##DATA TYPE=MASS SPECTRUM
##SAMPLE DESCRIPTION=V. PRELOG, LAB ORG CHEM, SWISS FED INST TECHNOL, ZURICH
, SWITZ
##NAMES=HP
##CAS NAME=3-Methyl-1-[(1-phenylethyl)carbamoyl]cyclobutanemethanol
##MOLFORM=C15H21NO2
##CAS REGISTRY NO=85318-01-0
##MP= -300
##BP= -300
##MW= 247
##$RETENTION INDEX=0
##$CONDENSED SPECTRUM=NO
##NPOINTS= 87
##XYDATA=(XY..XY) 1 
    15         40
    16         10
    17        100
    18        380
    27        270
    28        120
    29        330
    30         75
    31        185
    39        235
    40        120
    41        410
    42        275
    43        165
    44        140
    45         25
    50         40
    51        155
    52         50
    53        195
    54         80
    55        150
    56         40
    57        170
    63         30
    65         65
    66         40
    67        310
    68        100
    69         75
    70         20
    71         30
    75         20
    76         25
    77        410
    78        130
    79        370
    80         40
    81        480
    82        100
    83         40
    84         20
    85        140
    86         15
    91         60
    95         30
    96         25
    97         25
    99         30
   100         60
   101         20
   102         30
   103        150
   104        300
   105        999
   106        610
   107         50
   109         30
   110         50
   112         50
   119         20
   120        640
   121         90
   127         20
   128         30
   129         25
   132         40
   143         35
   144         30
   146         25
   158         45
   159         40
   172        385
   173         55
   174         20
   186         30
   187         25
   188         60
   189         15
   190         25
   204        230
   205         65
   216         20
   228         15
   232         30
   247        210
   248         40