##TITLE=Library Entry 5537
##JCAMP-DX=Revision 4.10 
##DATA TYPE=MASS SPECTRUM
##SAMPLE DESCRIPTION=Institute of Organic Chemistry, Novosibirsk, USSR 1988
##NAMES=HP
##CAS NAME=4,5-Dimethyltetrahydro-1,3-oxazine-2-thione
##MOLFORM=C6H11NOS
##CAS REGISTRY NO=85333-95-5
##MP= -300
##BP= -300
##MW= 145
##$RETENTION INDEX=0
##$CONDENSED SPECTRUM=NO
##NPOINTS= 62
##XYDATA=(XY..XY) 1 
    26         18
    27        147
    28        612
    29        137
    30         74
    31         82
    32         24
    33          3
    37          2
    38         45
    39        384
    40         92
    41         99
    42        424
    43        999
    44        139
    45        237
    46         18
    47          2
    52          3
    53         70
    54        101
    55        424
    56        572
    57        274
    58         33
    59         90
    60        107
    61         27
    67         75
    68         57
    69        196
    70        136
    71         90
    72         30
    81          6
    82          4
    83         60
    84         52
    85         46
    86         61
    87          6
   102          5
   103         29
   104          2
   109          3
   110          2
   111         30
   112         65
   113         15
   114          3
   115         34
   116         22
   117         45
   118          2
   128          2
   129         18
   130         22
   131          1
   145        581
   146         57
   147         31