##TITLE=Library Entry 55644
##JCAMP-DX=Revision 4.10 
##DATA TYPE=MASS SPECTRUM
##SAMPLE DESCRIPTION=Humboldt-Universitat zu Berlin, Department of Chemistry
, Analytical Group
##NAMES=HP
##CAS NAME=Thiobenzamide, 4-chloro-N-morpholinomethylidene-
##MOLFORM=C12H13ClN2OS
##CAS REGISTRY NO=85377-58-8
##MP= -300
##BP= -300
##MW= 268
##$RETENTION INDEX=0
##$CONDENSED SPECTRUM=NO
##NPOINTS= 202
##XYDATA=(XY..XY) 1 
    12          3
    13          1
    14         14
    15        110
    16          8
    17         21
    18         80
    19         13
    25          1
    26         40
    27        186
    28        495
    29        179
    30        149
    31         25
    32          9
    33          2
    34          2
    35          5
    36          8
    37          8
    38         14
    39         31
    40         32
    41        275
    42        152
    43        133
    44         82
    45        164
    46         74
    47         27
    48          5
    49          6
    50         69
    51         45
    52         14
    53          8
    54        191
    55         62
    56        185
    57         43
    58        190
    59         33
    60         55
    61         20
    62         18
    63         23
    64          5
    65          2
    66          2
    67          7
    68         27
    69        135
    70         71
    71         39
    72         86
    73         49
    74         55
    75        175
    76         47
    77         19
    79          6
    80          1
    81         14
    82         11
    83         27
    84         17
    85        121
    86        999
    87         69
    88         34
    89         20
    90          7
    91          3
    92          2
    93         27
    94         23
    95          5
    96          3
    97         16
    98        197
    99         28
   100         20
   101          9
   102         40
   103         20
   104          4
   105          4
   106          2
   107          4
   108         19
   109          3
   110          4
   111        142
   112         22
   113         80
   114         12
   115          3
   116          3
   117          8
   118          3
   119         32
   120         79
   121         17
   122          5
   123          6
   124          1
   125         23
   126          2
   127          3
   128          4
   129          6
   130         13
   131         29
   132          7
   133          5
   134          5
   135          1
   136          1
   137         24
   138         74
   139         16
   140         23
   141          4
   142          3
   143         25
   144          3
   145          9
   146         13
   147          4
   148          8
   149          2
   150          4
   151          8
   152          3
   153          4
   155        378
   156         70
   157        189
   158         30
   159          9
   160          1
   162          1
   163          6
   164         10
   165          5
   166          4
   167          0
   168          0
   169          2
   170          2
   171          2
   172          1
   173          1
   174          1
   175          1
   176          1
   177          3
   178          4
   179          3
   180          5
   181          1
   182          5
   183         12
   184          4
   185          6
   186          1
   189          0
   191          3
   192          4
   193          2
   194          2
   195          1
   196          2
   197          2
   198          1
   199          1
   200          5
   201          1
   205          5
   206          1
   207          8
   208          2
   209          3
   210          1
   211          1
   212          1
   223          0
   225          1
   227          0
   233          1
   235        108
   236         15
   237         36
   238          5
   239          1
   252          0
   268        110
   269         18
   270         40
   271          6
   272          2