##TITLE=Library Entry 53638
##JCAMP-DX=Revision 4.10 
##DATA TYPE=MASS SPECTRUM
##SAMPLE DESCRIPTION=Japan AIST/NIMC Database- Spectrum MS-IW-2389
##NAMES=HP
##CAS NAME=1,2-Propanediol, 3-(1-pyrrolidinyl)-
##MOLFORM=C7H15NO2
##CAS REGISTRY NO=85391-19-1
##MP= -300
##BP= -300
##MW= 145
##$RETENTION INDEX=0
##$CONDENSED SPECTRUM=NO
##NPOINTS= 65
##XYDATA=(XY..XY) 1 
    15          8
    17          3
    18         10
    26          2
    27         16
    28         33
    29         20
    30         25
    31         13
    38          1
    39         12
    40          4
    41         33
    42        139
    43         46
    44         25
    45          5
    51          1
    52          1
    53          4
    54          8
    55         84
    56         27
    57         21
    58          4
    59          2
    60          1
    61          1
    65          1
    67          4
    68          8
    69          4
    70         54
    71         20
    72          9
    73          1
    75          1
    77          1
    80          2
    81          1
    82          9
    83          7
    84        999
    85         62
    86          2
    89          1
    91          6
    96          5
    97          1
    98          2
   100          1
   101          1
   110          2
   111          1
   112          7
   113          4
   114        114
   115          9
   121          4
   126          1
   128          1
   143          1
   144          3
   145         18
   146          1