##TITLE=Library Entry 633
##JCAMP-DX=Revision 4.10 
##DATA TYPE=MASS SPECTRUM
##SAMPLE DESCRIPTION=NIST Mass Spectrometry Data Center, 1994
##NAMES=HP
##CAS NAME=Ethyl N-(3-chloro-4-methylphenyl)carbamate
##MOLFORM=C10H12ClNO2
##CAS REGISTRY NO=85419-40-5
##MP= -300
##BP= -300
##MW= 213
##$RETENTION INDEX=0
##$CONDENSED SPECTRUM=NO
##NPOINTS= 128
##XYDATA=(XY..XY) 1 
     4          4
    12          4
    13          3
    14         17
    15         66
    16          8
    17          1
    18          7
    19         14
    25          6
    26         76
    27        409
    28        116
    29        999
    30         51
    31         79
    32          3
    35          5
    36          6
    37         20
    38         36
    39         89
    40         13
    41         10
    42         12
    43         26
    44         16
    45         61
    46         13
    47          3
    49         17
    50        112
    51        270
    52        123
    53         30
    54         11
    55          2
    60          7
    61         21
    62         45
    63         91
    64         23
    65         33
    66          8
    67          3
    69          2
    71          1
    72          5
    73         26
    74         14
    75         76
    76         95
    77        478
    78        140
    79         50
    80          8
    84          4
    85          9
    86         13
    87         16
    88         12
    89         60
    90         22
    91         44
    92          7
    93          3
    97          7
    98          3
    99         25
   100          6
   101          9
   102         52
   103         30
   104        184
   105         59
   106        341
   107         36
   108          3
   111         10
   112         28
   113         69
   114         29
   115         27
   116          7
   117          7
   118         16
   119         20
   120          2
   123          3
   124          5
   125         34
   126         14
   127         20
   128          5
   129          3
   132        224
   133         25
   134         12
   135          1
   138         16
   140        435
   141        363
   142        168
   143        104
   144         11
   149          2
   150          2
   152          5
   154        439
   155         43
   156        131
   157         12
   166         46
   167        117
   168         72
   169         50
   170         20
   182          1
   185         55
   186          8
   187         18
   188          2
   211          3
   213        364
   214         45
   215        113
   216         14
   217          1