##TITLE=Library Entry 83945
##JCAMP-DX=Revision 4.10 
##DATA TYPE=MASS SPECTRUM
##SAMPLE DESCRIPTION=V.G.Zaikin, TIPS, Russian Acad. Sci.
##NAMES=HP
##CAS NAME=3-Hydroxy-3-(4-methylcyclohex-3-enyl)propionic acid
##MOLFORM=C10H16O3
##CAS REGISTRY NO=85426-39-7
##MP= -300
##BP= -300
##MW= 184
##$RETENTION INDEX=0
##$CONDENSED SPECTRUM=NO
##NPOINTS= 57
##XYDATA=(XY..XY) 1 
    41        522
    42        111
    43        367
    44         22
    45        111
    46         11
    47         44
    51         89
    52         55
    53        300
    54         89
    55        422
    56         33
    57         78
    65        105
    66         55
    67        467
    68        256
    69         55
    71        244
    74        178
    77        278
    78         83
    79        444
    80        133
    81        233
    82         33
    89         61
    91        500
    92        311
    93        667
    94        178
    95        294
    96         67
    97         44
   105        300
   106        889
   107        999
   108         55
   119         28
   120         78
   121         72
   122         11
   123         33
   124         33
   125         44
   133         50
   138         11
   148         44
   149         78
   150         11
   151         17
   166        472
   167         44
   168         11
   184         12
   185          1