##TITLE=Library Entry 69484
##JCAMP-DX=Revision 4.10 
##DATA TYPE=MASS SPECTRUM
##SAMPLE DESCRIPTION=V.G.Zaikin, TIPS, Russian Acad. Sci.
##NAMES=HP
##CAS NAME=Ethyl 3-hydroxy-3-(2,2,4-trimethylcyclohex-3-enyl)-propionate
##MOLFORM=C14H24O3
##CAS REGISTRY NO=85426-50-2
##MP= -300
##BP= -300
##MW= 240
##$RETENTION INDEX=0
##$CONDENSED SPECTRUM=NO
##NPOINTS= 63
##XYDATA=(XY..XY) 1 
    41         44
    42         19
    43         76
    44         25
    45         57
    54         31
    55         50
    57         25
    59         25
    65         63
    67         76
    69         76
    71        291
    75         76
    77        291
    78         63
    79        329
    80        101
    81        671
    88        171
    89        202
    91        544
    92         82
    93        899
    94        101
    95        240
    96        999
   102        633
   103         63
   105        316
   106         76
   107        468
   108        190
   109        620
   117        436
   118         38
   119        999
   120        114
   121        620
   122        126
   123        291
   124         50
   133        266
   134        215
   135        177
   136         12
   137         44
   147         38
   148         76
   149         63
   153        177
   154         12
   161        304
   162         38
   176         25
   177         31
   178         12
   179         25
   207         25
   222        177
   223         25
   240         12
   241          2