##TITLE=Library Entry 77505
##JCAMP-DX=Revision 4.10 
##DATA TYPE=MASS SPECTRUM
##SAMPLE DESCRIPTION=V.G.Zaikin, TIPS, Russian Acad. Sci.
##NAMES=HP
##CAS NAME=1,1-Dimethyl-1-sila-3-thia-cyclopentane
##MOLFORM=C5H12SSi
##CAS REGISTRY NO=85465-27-6
##MP= -300
##BP= -300
##MW= 132
##$RETENTION INDEX=0
##$CONDENSED SPECTRUM=NO
##NPOINTS= 50
##XYDATA=(XY..XY) 1 
    31        155
    32        310
    39         25
    40         27
    41         30
    42         70
    43        540
    44        130
    45        140
    46         50
    47         20
    53         30
    55         80
    56         20
    57         50
    58        520
    59        450
    60         80
    61        180
    67         10
    69         10
    70         20
    71         30
    72         60
    73         60
    74         40
    75        270
    76        310
    77        110
    78         30
    83         20
    85         20
    86         10
    87         20
    88         20
    89        430
    90         60
    91         60
   103         50
   104        999
   105        110
   106         80
   116         30
   117        560
   118         60
   119         50
   132        400
   133         46
   134         33
   135          3