##TITLE=Library Entry 81054
##JCAMP-DX=Revision 4.10 
##DATA TYPE=MASS SPECTRUM
##SAMPLE DESCRIPTION=V.G.Zaikin, TIPS, Russian Acad. Sci.
##NAMES=HP
##CAS NAME=1,1,3-Trimethyl-1-sila-4-thiacyclopentane
##MOLFORM=C6H14SSi
##CAS REGISTRY NO=85465-24-3
##MP= -300
##BP= -300
##MW= 146
##$RETENTION INDEX=0
##$CONDENSED SPECTRUM=NO
##NPOINTS= 62
##XYDATA=(XY..XY) 1 
    15         30
    25         10
    26         20
    27         90
    28        200
    29        120
    30         20
    31        300
    32         30
    36         10
    38         10
    39         60
    40         20
    41         70
    42         60
    43        265
    44         80
    45        190
    46         60
    53         30
    55         50
    57         20
    58        190
    59        310
    60         40
    61         70
    67         20
    69         10
    71         20
    72         40
    73         60
    74         10
    75        100
    76        180
    77         90
    78         20
    79         20
    81         10
    83         10
    85         40
    89        255
    90         50
    91        120
    92         20
    93         20
    96         40
    98         30
   104         30
   105        999
   106        150
   107         10
   108         30
   114         10
   115         10
   129         10
   131        465
   132         50
   133         40
   146        290
   147         36
   148         24
   149          2