##TITLE=Library Entry 12471
##JCAMP-DX=Revision 4.10 
##DATA TYPE=MASS SPECTRUM
##SAMPLE DESCRIPTION=P.A. Leclercq, Lab. Instrum. Anal., Tech. Univ. Eindhov
en, Netherlands
##NAMES=HP
##CAS NAME=Turinabol
##MOLFORM=C21H29ClO3
##CAS REGISTRY NO=855-19-6
##MP= -300
##BP= -300
##MW= 364
##$RETENTION INDEX=0
##$CONDENSED SPECTRUM=NO
##NPOINTS= 150
##XYDATA=(XY..XY) 1 
    39         52
    41        185
    43        999
    44         30
    45         11
    51         22
    53         68
    55        205
    56         10
    57         26
    65         57
    66         20
    67         99
    68         10
    69         31
    71         11
    75         11
    77        148
    78         35
    79        166
    80         21
    81        101
    82         11
    83         14
    89         15
    91        278
    92         41
    93        209
    94         42
    95         71
    97         29
   103         34
   105        178
   106         38
   107        128
   108         23
   109         32
   110         21
   111         16
   113         19
   115         63
   116         19
   117         64
   118         23
   119         94
   120         54
   121        113
   122         40
   123         37
   124         14
   125         15
   127         29
   128         43
   129         63
   130         50
   131        126
   132         32
   133        180
   134         65
   135         40
   136         22
   137         14
   139         15
   141         41
   142         30
   143         84
   144         58
   145        128
   146         78
   147        321
   148         74
   149         47
   151         28
   153         20
   154         13
   155         56
   156         53
   157         91
   158        304
   159        102
   160        150
   161         58
   162         65
   163         23
   164         13
   165         39
   166         11
   167         21
   168         23
   169         27
   170         21
   171         66
   172         36
   173         67
   174         61
   175         50
   176         13
   179         17
   181         22
   182         11
   183         37
   184         14
   185         33
   186         21
   187         39
   188         64
   189         13
   193         16
   195         24
   197         23
   199         25
   200         11
   201         13
   207         19
   209         20
   210         12
   211         32
   212         17
   213         24
   221         12
   223         11
   225         34
   226         31
   227        146
   228         33
   235         17
   239         11
   240         28
   241         14
   245         23
   250         19
   251         37
   252          9
   253         28
   268         65
   269         95
   270         16
   286         30
   287         97
   288         19
   289         10
   304         21
   307         12
   322         49
   323         11
   324         16
   328        171
   329         67
   346         15
   364         15