##TITLE=Library Entry 87320
##JCAMP-DX=Revision 4.10 
##DATA TYPE=MASS SPECTRUM
##SAMPLE DESCRIPTION=A. Brossi, LC, NIDDK, NIH, Bethesda, MD 20892
##NAMES=HP
##CAS NAME=Spiro[cyclohexanol-3,2'-piperidine], 2-butyl-
##MOLFORM=C14H27NO
##CAS REGISTRY NO=85506-00-9
##MP= -300
##BP= -300
##MW= 225
##$RETENTION INDEX=0
##$CONDENSED SPECTRUM=NO
##NPOINTS= 169
##XYDATA=(XY..XY) 1 
    41        145
    42         41
    43         89
    44         65
    45         21
    46          9
    47          1
    48         15
    49          1
    50          5
    51          9
    52          5
    53         44
    54         61
    55        151
    56        127
    57         93
    58         12
    59         13
    60          8
    61          4
    62         10
    63         14
    64         42
    65         26
    66         15
    67        112
    68         41
    69         74
    70         96
    71         28
    72         13
    73         12
    74         22
    75         33
    76          5
    77         43
    78         15
    79         69
    80         37
    81         79
    82        131
    83         47
    84        513
    85         40
    86          5
    87          2
    88          1
    89          4
    90          2
    91         55
    92          9
    93         34
    94         44
    95         66
    96        157
    97        845
    98        124
    99         19
   100         17
   101          1
   103          4
   104          2
   105         18
   106         15
   107         20
   108         41
   109         40
   110        999
   111        329
   112         50
   113         39
   114          5
   115          5
   116          1
   117          4
   118          2
   119         11
   120         23
   121         19
   122         41
   123         31
   124        132
   125         31
   126        357
   127         47
   128          3
   129          4
   130          1
   131          2
   132          2
   133         14
   134         20
   135         17
   136         49
   137         31
   138         30
   139          7
   140         24
   141          8
   142          8
   143          2
   145          2
   146          1
   147          6
   148         16
   149         12
   150         36
   151         13
   152        117
   153         23
   154        294
   155         61
   156          6
   157          1
   159          2
   160          1
   161          5
   162          8
   163          7
   164        119
   165         19
   166         15
   167          9
   168        173
   169         48
   170         14
   171          2
   175          1
   176          2
   177          1
   178         19
   179          4
   180         28
   182        504
   183         82
   184         10
   185          2
   187          1
   189          1
   190          3
   191          3
   192          7
   193          2
   194         10
   196         69
   197         13
   198         13
   199          5
   200          1
   204          2
   205          1
   206         22
   207         12
   208        233
   209         40
   210         12
   211          1
   213          2
   214          2
   215          1
   219          1
   221          1
   222          5
   223          3
   224         38
   225        362
   226        112
   227         22