##TITLE=Library Entry 41352
##JCAMP-DX=Revision 4.10 
##DATA TYPE=MASS SPECTRUM
##SAMPLE DESCRIPTION=F. ROCCHICCIOLI, FAC. MED., UNITE 75-INSERM, PARIS, FR.
##NAMES=HP
##CAS NAME=Phenylpropionylglycine, TMS derivative
##MOLFORM=C14H21NO3Si
##CAS REGISTRY NO=85538-32-5
##MP= -300
##BP= -300
##MW= 279
##$RETENTION INDEX=0
##$CONDENSED SPECTRUM=NO
##NPOINTS= 16
##XYDATA=(XY..XY) 1 
    73        999
    75        680
    91        370
   104        580
   105        250
   117        140
   131        200
   133        160
   147        180
   148        240
   189        180
   264         50
   265          8
   279        100
   280         13
   281          3