##TITLE=Library Entry 49533
##JCAMP-DX=Revision 4.10 
##DATA TYPE=MASS SPECTRUM
##SAMPLE DESCRIPTION=Chemical Concepts
##NAMES=HP
##CAS NAME=Tricyclo[4.3.1.1(2,5)]undecane, 10-methoxy-, stereoisomer
##MOLFORM=C12H20O
##CAS REGISTRY NO=85538-50-7
##MP= -300
##BP= -300
##MW= 180
##$RETENTION INDEX=0
##$CONDENSED SPECTRUM=NO
##NPOINTS= 108
##XYDATA=(XY..XY) 1 
    26          6
    27         93
    28         19
    29         78
    31         14
    33          4
    38          5
    39        164
    40         31
    41        403
    42         35
    43         47
    44         21
    45        143
    46          4
    47          5
    50         10
    51         40
    52         22
    53        120
    54         39
    55        129
    56         24
    57         35
    58         28
    59         16
    63         15
    64          6
    65         88
    66        736
    67        589
    68         58
    69         75
    70         37
    71        191
    72         20
    73          4
    74          5
    75         13
    76          6
    77        170
    78        340
    79        812
    80        999
    81        467
    82        109
    83         31
    84         69
    85         34
    86          4
    87          9
    89          8
    91        378
    92        232
    93        233
    94        302
    95         66
    96         14
    97         85
    98         25
    99         14
   103         28
   104         18
   105        226
   106        165
   107        732
   108         80
   109         65
   110         24
   111         63
   112         20
   113          7
   115         22
   116          8
   117         26
   118         24
   119        473
   121         58
   122         28
   123        210
   124         33
   125         13
   127          5
   128          8
   129          8
   131          9
   133        158
   134         23
   135         55
   136         10
   137         59
   138         13
   139          9
   140          5
   141          8
   146         22
   147         27
   148        762
   149        157
   150         16
   151         85
   152         25
   153          6
   165         29
   166          6
   179          7
   180         86
   181         15