##TITLE=Library Entry 6180
##JCAMP-DX=Revision 4.10 
##DATA TYPE=MASS SPECTRUM
##SAMPLE DESCRIPTION=W. KELLER-SCHIERLEIN, ORG.-CHEM. LAB., ETH-Z, ZURICH, S
WITZ.
##NAMES=HP
##CAS NAME=(2R,4S)-2,4-Dimethyladipic acid dimethyl ester
##MOLFORM=C10H18O4
##CAS REGISTRY NO=85547-49-5
##MP= -300
##BP= -300
##MW= 202
##$RETENTION INDEX=1272
##$CONDENSED SPECTRUM=NO
##NPOINTS= 18
##XYDATA=(XY..XY) 1 
    27        210
    29        360
    41        750
    43        999
    55        680
    57        570
    59        390
    69        750
    83        430
    85        250
    88        320
    97        140
    99        290
   112        210
   130        180
   142        140
   143        110
   171         50