##TITLE=Library Entry 57696
##JCAMP-DX=Revision 4.10 
##DATA TYPE=MASS SPECTRUM
##SAMPLE DESCRIPTION=W. KELLER-SCHIERLEIN, ORG.-CHEM. LAB., ETH-Z, ZURICH, S
WITZ.
##NAMES=HP
##CAS NAME=(2S,4S)-2,4-Dimethyldecanedioic acid dimethyl ester
##MOLFORM=C14H26O4
##CAS REGISTRY NO=85547-47-3
##MP= -300
##BP= -300
##MW= 258
##$RETENTION INDEX=0
##$CONDENSED SPECTRUM=NO
##NPOINTS= 22
##XYDATA=(XY..XY) 1 
    29        140
    41        420
    43        220
    55        530
    59        240
    69        440
    73        110
    74        110
    83        220
    88        999
    97        250
   101        170
   111        100
   112        100
   125        100
   126        180
   129        100
   139        330
   167        100
   171        430
   199        140
   227        100