##TITLE=Library Entry 57695
##JCAMP-DX=Revision 4.10 
##DATA TYPE=MASS SPECTRUM
##SAMPLE DESCRIPTION=W. KELLER-SCHIERLEIN, ORG.-CHEM. LAB., ETH-Z, ZURICH, S
WITZ.
##NAMES=HP
##CAS NAME=(2S,4S)-2,4-Dimethylnonanedioic acid dimethyl ester
##MOLFORM=C13H24O4
##CAS REGISTRY NO=85547-46-2
##MP= -300
##BP= -300
##MW= 244
##$RETENTION INDEX=0
##$CONDENSED SPECTRUM=NO
##NPOINTS= 24
##XYDATA=(XY..XY) 1 
    29        120
    41        330
    43        160
    55        480
    57        140
    59        310
    69        480
    73        130
    74        120
    83        330
    85        120
    87        160
    88        999
    97        280
   101        180
   111        180
   112        120
   125        380
   129        110
   153        150
   157        330
   180        250
   185        170
   213         70