##TITLE=Library Entry 26655
##JCAMP-DX=Revision 4.10 
##DATA TYPE=MASS SPECTRUM
##SAMPLE DESCRIPTION=W.Jennings, T.Shibamoto
##NAMES=HP
##CAS NAME=Octanoic acid, 2-hexenyl ester, (E)-
##MOLFORM=C14H26O2
##CAS REGISTRY NO=85554-72-9
##MP= -300
##BP= -300
##MW= 226
##$RETENTION INDEX=1573
##$CONDENSED SPECTRUM=NO
##NPOINTS= 56
##XYDATA=(XY..XY) 1 
    26         79
    28          7
    29         28
    31          7
    33         19
    37         39
    39         19
    41        179
    42         19
    43        229
    44          7
    53          7
    54         68
    55        551
    56         59
    57        999
    58         59
    59         19
    60         48
    61          7
    65         19
    66          7
    67        368
    68         19
    69         28
    70          7
    71         39
    73         19
    81         39
    82        431
    83        332
    84         59
    85         19
    87          7
    91        189
    92        129
    93          7
    94         19
    96          7
    97         48
    98         19
    99         48
   100         48
   101         19
   109         48
   122         48
   125         39
   127        708
   128         79
   142          7
   143          7
   144          7
   145          7
   155         28
   197         19
   226         19