##TITLE=Library Entry 83551
##JCAMP-DX=Revision 4.10 
##DATA TYPE=MASS SPECTRUM
##SAMPLE DESCRIPTION=V.A.Korolev, Moscow, Russia
##NAMES=HP
##CAS NAME=3-[1-(3-Hydroxy-benzyl)-1H-benzoimidazol-2-yl]-phenol
##MOLFORM=C20H16N2O2
##CAS REGISTRY NO=85573-16-6
##MP= -300
##BP= -300
##MW= 316
##$RETENTION INDEX=0
##$CONDENSED SPECTRUM=NO
##NPOINTS= 155
##XYDATA=(XY..XY) 1 
    38         11
    39        119
    40         19
    41         18
    42         12
    43         90
    44          8
    45          9
    50         24
    51         86
    52         39
    53         53
    54          6
    55         33
    57          3
    62         12
    63         87
    64         68
    65        130
    66         24
    67         28
    68          8
    69         28
    74          5
    75         18
    76         41
    77        436
    78         97
    79         87
    80          9
    81         16
    83          4
    84          3
    85         53
    87          3
    88          5
    89         22
    90        116
    91         74
    92         34
    93         24
    94         13
    95          9
   101          7
   102         38
   103         24
   104         10
   105         14
   106          9
   107        999
   108         82
   109         12
   111          5
   113          5
   114          9
   115         44
   116         13
   117          9
   118         15
   119        145
   120         38
   121          6
   125          4
   126          6
   127         17
   128         15
   129         27
   130         25
   131         18
   132          6
   133          4
   138          3
   139         31
   140         25
   141         17
   142          8
   143         15
   144          9
   145          6
   149          9
   150          3
   151         16
   152         18
   153         18
   154         26
   155         12
   156         12
   157         11
   158         21
   159         11
   164          7
   165          6
   166         24
   167         43
   168         29
   169         15
   170          4
   171          8
   172          3
   177          4
   178          6
   179         21
   180         16
   181         51
   182         57
   183         14
   185          3
   191         10
   192         11
   193         13
   194          7
   195         19
   196         32
   197         20
   198         13
   204          2
   205          6
   206          7
   207          4
   208         11
   209         47
   210        105
   211         66
   212          9
   218          3
   219          5
   221         17
   222         15
   223         41
   224          8
   235          9
   237          9
   242         16
   243         18
   244          3
   247          3
   248          4
   249         11
   255         22
   256          8
   257          4
   263          4
   269          5
   272          5
   273          4
   287         17
   288          5
   289          4
   299         18
   300          4
   315        219
   316        369
   317         78
   318          9
   319          8