##TITLE=Library Entry 3691
##JCAMP-DX=Revision 4.10 
##DATA TYPE=MASS SPECTRUM
##SAMPLE DESCRIPTION=NIST Mass Spectrometry Data Center
##NAMES=HP
##CAS NAME=(E)-6-Methylhept-4-en-1-ol
##MOLFORM=C8H16O
##CAS REGISTRY NO=855901-81-4
##MP= -300
##BP= -300
##MW= 128
##$RETENTION INDEX=1020
##$CONDENSED SPECTRUM=NO
##NPOINTS= 73
##XYDATA=(XY..XY) 1 
    19          1
    26          9
    27        150
    28         27
    29        151
    30          5
    31        151
    33          1
    36          1
    37          4
    38         16
    39        332
    40         56
    41        999
    42        104
    43        337
    44         71
    45         38
    46          3
    49          2
    50         24
    51         54
    52         25
    53        196
    54        101
    55        751
    56        389
    57        207
    58         17
    59          9
    61          1
    62          6
    63         13
    64          3
    65         62
    66         45
    67        751
    68        224
    69        760
    70         60
    71         39
    72          9
    73          4
    74          2
    75          1
    77         55
    78          7
    79         67
    80         26
    81        127
    82        908
    83         84
    84         28
    85         30
    86          4
    87          2
    91         16
    92          1
    93         47
    94          4
    95        589
    96         46
    97         10
    98          1
    99          2
   100          9
   105          1
   109          9
   110         54
   111          5
   113          6
   128         42
   129          3