##TITLE=Library Entry 67356
##JCAMP-DX=Revision 4.10 
##DATA TYPE=MASS SPECTRUM
##SAMPLE DESCRIPTION=K. KIMURA, DEP. FOOD & NUTR., JPN WOMEN'S UNIV., TOKYO,
 JAPAN
##NAMES=HP
##CAS NAME=3-Ethoxy-p-menth-1-en-8-ol
##MOLFORM=C12H22O2
##CAS REGISTRY NO=85612-20-0
##MP= -300
##BP= -300
##MW= 198
##$RETENTION INDEX=0
##$CONDENSED SPECTRUM=NO
##NPOINTS= 83
##XYDATA=(XY..XY) 1 
    39         76
    40         18
    41        139
    42         18
    43        390
    44         24
    45        109
    46         46
    50         13
    51         37
    52         19
    53         49
    54         16
    55         75
    56         31
    57         35
    58         38
    59        530
    60         25
    63         19
    65         51
    66         24
    67         53
    68         25
    69         52
    70         13
    71         35
    77        137
    78         41
    79        556
    80         50
    81         42
    82         16
    83        164
    84        158
    85         45
    87         22
    89         15
    91        158
    92         51
    93        233
    94        999
    95        172
    96         23
    97        239
    98         28
   100         31
   103         14
   105         34
   106         14
   107         22
   108         22
   109         94
   110         24
   111         60
   112        603
   113         54
   115         24
   117         33
   119        127
   120         21
   121         28
   123         18
   124         22
   125         89
   126         14
   132         24
   133         18
   134         87
   135         50
   136         25
   137        148
   138         48
   139         20
   140        156
   141         23
   151         17
   152         67
   153         15
   165        114
   166         21
   180        160
   181         30