##TITLE=Library Entry 85956
##JCAMP-DX=Revision 4.10 
##DATA TYPE=MASS SPECTRUM
##SAMPLE DESCRIPTION=Chemical Concepts
##NAMES=HP
##CAS NAME=2-Oxabicyclo[2.2.1]heptane-1-carboxylic acid, 4,7,7-trimethyl-3-o
xo-, 2,3-dimethylbutyl ester, [1.alpha.(S*),4.beta.]-
##MOLFORM=C16H26O4
##CAS REGISTRY NO=85654-45-1
##MP= -300
##BP= -300
##MW= 282
##$RETENTION INDEX=0
##$CONDENSED SPECTRUM=NO
##NPOINTS= 143
##XYDATA=(XY..XY) 1 
    26          5
    27         88
    28         15
    29         93
    30          2
    31         10
    35         12
    37          4
    38          4
    39         94
    40         22
    41        497
    42         70
    43        656
    44         24
    45         20
    47         23
    49          6
    50          3
    51         11
    52          8
    53         62
    54         25
    55        353
    56         35
    57         94
    58         15
    59         31
    61          2
    63          3
    65         19
    66          9
    67        162
    68         31
    69        241
    70         35
    71         31
    72          2
    77         44
    78          9
    79         59
    80          8
    81         54
    82        110
    83        745
    84        348
    85        511
    86         26
    87          6
    88         21
    89          3
    91         39
    92          8
    93         92
    94         28
    95         75
    96         43
    97        240
    98         33
    99          9
   100          3
   101         11
   103          2
   105          9
   106         14
   107        145
   108         46
   109        999
   110         99
   111         70
   112         27
   113          7
   114          3
   115          2
   117        171
   119        154
   120          4
   121         62
   122         20
   123         23
   124         84
   125        534
   126         40
   127         46
   128          4
   129          2
   133          2
   134          9
   135         17
   136         66
   137        154
   138         24
   139        515
   140         42
   141          6
   142         18
   143         10
   149          2
   150          8
   151         29
   152        726
   153        374
   154        258
   155        102
   156          9
   162          3
   164         30
   165          6
   167          2
   169         13
   170        132
   171         21
   172         24
   173          2
   180          9
   181         95
   182         22
   183          5
   193          3
   194          3
   196          2
   198          9
   199         47
   200          4
   209          7
   211          2
   221          4
   222         11
   223        164
   224         25
   225          7
   226          4
   236        359
   237         56
   238         11
   239         23
   240         10
   254        109
   255         18
   265          6
   267          5
   283         31
   284          5