##TITLE=Library Entry 47500
##JCAMP-DX=Revision 4.10 
##DATA TYPE=MASS SPECTRUM
##SAMPLE DESCRIPTION=Chemical Concepts
##NAMES=HP
##CAS NAME=Silane, (3,4-dimethyl-1-pentenyl)fluorodimethyl-, [R-(E)]-
##MOLFORM=C9H19FSi
##CAS REGISTRY NO=85654-43-9
##MP= -300
##BP= -300
##MW= 174
##$RETENTION INDEX=0
##$CONDENSED SPECTRUM=NO
##NPOINTS= 104
##XYDATA=(XY..XY) 1 
    26          4
    27         49
    28          8
    29         26
    38          3
    39         40
    40          7
    41         91
    42         24
    43        207
    44          8
    45          2
    47         81
    48          6
    49         63
    50          5
    51          8
    52          3
    53         23
    54         11
    55         92
    56         34
    57         15
    58          3
    59          5
    61          4
    62         30
    63         94
    64          7
    65          7
    66          3
    67         28
    68          6
    69         27
    70        250
    71         19
    72          1
    73         10
    74          3
    75         13
    76         17
    77        999
    78         90
    79         46
    80          3
    81         78
    82         15
    83         91
    84          6
    85          3
    86          2
    87         22
    88          4
    89         94
    90         13
    91         13
    93          3
    95         22
    96         62
    97         26
    98          3
    99          6
   100          3
   101         50
   102         16
   103        293
   104         32
   105         20
   106          2
   109          1
   111          5
   112         14
   113          7
   114          2
   115         42
   116         24
   117         82
   118         15
   119          7
   120          3
   127          2
   129          4
   130          6
   131         43
   132         89
   133         12
   134          3
   139          1
   140          1
   143          3
   145          8
   146          4
   147          2
   149          1
   150          1
   155         24
   159        509
   160         78
   161         22
   162          2
   172          2
   174        123
   175         19
   176          6