##TITLE=Library Entry 10016
##JCAMP-DX=Revision 4.10 
##DATA TYPE=MASS SPECTRUM
##SAMPLE DESCRIPTION=A.A.Kutin, Moscow, Russia
##NAMES=HP
##CAS NAME=Acetic acid, (2,2-dichlorocyclopropyl)methyl ester
##MOLFORM=C6H8Cl2O2
##CAS REGISTRY NO=85653-80-1
##MP= -300
##BP= -300
##MW= 182
##$RETENTION INDEX=0
##$CONDENSED SPECTRUM=NO
##NPOINTS= 87
##XYDATA=(XY..XY) 1 
    35          1
    36          3
    37          5
    38         11
    39         43
    40          5
    41         15
    43        999
    44         42
    45          4
    47          4
    48          1
    49         14
    50         13
    51         57
    52          8
    53         14
    54          0
    55          1
    56          0
    57          2
    58          0
    60          4
    61         28
    62          4
    63          9
    64          1
    65          1
    66          0
    67          3
    68          3
    69         12
    70          0
    71          0
    72          0
    73         36
    74          3
    75         16
    76         12
    77          4
    78          4
    79          0
    82          3
    83         10
    84          3
    85         11
    86        223
    87        114
    88          8
    89         33
    90          2
    94          0
    96         32
    97          2
    98         21
    99          3
   100          3
   101          0
   102          0
   103          2
   104          7
   105          3
   106          2
   107          1
   109          5
   110          0
   111          4
   112          0
   113          0
   122        123
   123         14
   124         80
   125          8
   126         14
   127          1
   128          0
   139          0
   140          0
   141          0
   142          0
   147          4
   148          0
   149          1
   182          1
   183          0
   184          1
   185          0