##TITLE=Library Entry 79852
##JCAMP-DX=Revision 4.10 
##DATA TYPE=MASS SPECTRUM
##SAMPLE DESCRIPTION=A.A.Kutin, Moscow, Russia
##NAMES=HP
##CAS NAME=Quinoline, 1,2,3,4-tetrahydro-1-benzoyl-2-methyl-4-phenylamino-
##MOLFORM=C23H22N2O
##CAS REGISTRY NO=857-45-4
##MP= -300
##BP= -300
##MW= 342
##$RETENTION INDEX=0
##$CONDENSED SPECTRUM=NO
##NPOINTS= 201
##XYDATA=(XY..XY) 1 
    33          4
    34          0
    36          0
    37          1
    39         22
    40          9
    41          7
    42          4
    43          3
    44          4
    45          2
    46          0
    51        105
    52          8
    53          3
    54          1
    55          1
    56          0
    57          1
    58          1
    59          0
    60          0
    61          0
    62          2
    63          8
    64          6
    65         23
    66          9
    67          1
    68          0
    69          0
    70          0
    71          0
    72          0
    73          0
    74          4
    75         11
    77        557
    78         36
    79          4
    80          0
    81          0
    82          0
    83          0
    84          0
    86          0
    87          1
    88          2
    89          8
    90          8
    91         21
    92         10
    93         23
    94          3
    95          0
    96          0
    97          0
    98          0
    99          0
   101          6
   102         14
   103         36
   105        999
   106         60
   107          5
   108          0
   109          0
   110          0
   111          0
   113          1
   115         13
   116          6
   117         17
   118         21
   119          4
   120         20
   121          2
   122          0
   123          0
   124          0
   125          0
   126          0
   127          4
   128         14
   130         91
   131         10
   132          3
   133          0
   134          1
   137          0
   139          2
   140          2
   141          1
   143         40
   144        109
   145         21
   146         12
   147          2
   148          0
   149          0
   150          0
   151          3
   152          6
   153          2
   154          1
   155          0
   156          0
   157          0
   158          0
   159          0
   160          0
   162          0
   163          0
   164          1
   165          2
   166          2
   167          4
   168          1
   169          0
   170          0
   171          0
   172          5
   173          0
   176          1
   177          1
   178          4
   179          2
   180         21
   181          3
   182          0
   187          0
   189          0
   190          0
   191          1
   192          1
   193          3
   194          4
   195          7
   196          2
   197          1
   198          1
   199          1
   200          0
   202          0
   203          0
   204          2
   205          1
   206          2
   208         45
   209          6
   210          0
   214          0
   215          0
   216          0
   217          1
   218          1
   219          3
   220          2
   221          6
   222          3
   223          4
   224          0
   227          0
   228          0
   229          0
   230          0
   232         14
   233          4
   234         16
   235          6
   237         10
   238          1
   239          0
   244          0
   249         69
   250        357
   251         64
   252          6
   253          0
   265          0
   266          0
   271          0
   281          0
   294          0
   299          0
   300          0
   309          0
   323          0
   324          0
   325          0
   326          0
   327          0
   328          0
   337          0
   338          0
   339          0
   340          2
   341          8
   342         68
   343         17
   344          2