##TITLE=Library Entry 85080
##JCAMP-DX=Revision 4.10 
##DATA TYPE=MASS SPECTRUM
##SAMPLE DESCRIPTION=A.A.Kutin, Moscow, Russia
##NAMES=HP
##CAS NAME=Benzene, 1-(1,1-dimethylpropoxy)-4-methyl-
##MOLFORM=C12H18O
##CAS REGISTRY NO=85709-98-4
##MP= -300
##BP= -300
##MW= 178
##$RETENTION INDEX=0
##$CONDENSED SPECTRUM=NO
##NPOINTS= 85
##XYDATA=(XY..XY) 1 
    35          0
    36          1
    37          1
    38          6
    39         81
    40         12
    41         79
    42         17
    43        132
    44          5
    45          0
    49          0
    50         16
    51         43
    52         25
    53         39
    54          4
    55         55
    56          5
    57          1
    58          1
    59          0
    60          1
    61          0
    62          4
    63         17
    64          5
    65         48
    66          3
    67          3
    68          1
    69          6
    70         15
    71         30
    72          2
    73          2
    74          3
    75          5
    77        111
    78         30
    79         51
    80         27
    81          4
    82          1
    86          0
    87          0
    89         13
    90         28
    91         53
    92          4
    93          1
    94          1
    95          0
   103          0
   104          0
   105          7
   107        231
   108        999
   109        112
   110          7
   111          0
   112          0
   115          0
   116          0
   117          0
   118          0
   119          1
   121         17
   122          1
   128          0
   129          0
   131          0
   133          0
   134          1
   135          1
   136          0
   147          0
   149         69
   150          7
   151          0
   161          0
   163         18
   164          2
   178         14
   179          1