##TITLE=Library Entry 84089
##JCAMP-DX=Revision 4.10 
##DATA TYPE=MASS SPECTRUM
##SAMPLE DESCRIPTION=Chuck Anderson, Aldrich Chemical Co.
##NAMES=HP
##CAS NAME=9,10-Dibromo-(+)-camphor
##MOLFORM=C10H14Br2O
##CAS REGISTRY NO=85706-53-2
##MP= -300
##BP= -300
##MW= 308
##$RETENTION INDEX=0
##$CONDENSED SPECTRUM=NO
##NPOINTS= 67
##XYDATA=(XY..XY) 1 
    18          0
    26         10
    27        115
    28         24
    29         57
    38         10
    39        171
    40         39
    41        189
    42         22
    43         42
    50         13
    51         45
    52         27
    53        104
    54         20
    55         76
    58         11
    59         13
    63         15
    65         77
    66         29
    67        144
    68         26
    69         30
    77        173
    78         35
    79        365
    80         53
    81         97
    82          8
    91        193
    92         30
    93        338
    94         47
    95         38
   103         12
   105        113
   106         23
   107        999
   108        104
   109         14
   119         27
   121        852
   122        101
   123         13
   131         11
   133         14
   135         22
   145          5
   147         14
   149        168
   150         19
   159         21
   161         22
   173          7
   175          3
   185          7
   187         64
   188          3
   189         56
   201          3
   203          3
   229        129
   230         14
   231        123
   232         12