##TITLE=Library Entry 14942
##JCAMP-DX=Revision 4.10 
##DATA TYPE=MASS SPECTRUM
##SAMPLE DESCRIPTION=LAC, NIDDK, NIH, Bethesda, MD 20892
##NAMES=HP
##CAS NAME=7-Dehydrodiosgenin
##MOLFORM=C27H40O3
##CAS REGISTRY NO=85706-84-9
##MP= -300
##BP= -300
##MW= 412
##$RETENTION INDEX=0
##$CONDENSED SPECTRUM=NO
##NPOINTS= 232
##XYDATA=(XY..XY) 1 
    41        208
    42        275
    43        999
    44          9
    45         44
    47          7
    48          2
    49         20
    50          2
    51         11
    52          2
    53         52
    54         20
    55        464
    56         61
    57         56
    58          4
    59          3
    60          3
    61         10
    63          2
    65         23
    66         10
    67        100
    68         20
    69        217
    70         30
    71         25
    72          6
    73         31
    74          4
    77         44
    78          9
    79         57
    80         11
    81        147
    82         23
    83         35
    84         23
    85         21
    86         11
    89          1
    91         93
    92         18
    93         81
    94         17
    95        110
    96         27
    97         81
    98          7
    99         14
   100          2
   102          2
   103         13
   104         10
   105        115
   106         20
   107         50
   108         18
   109         35
   110         11
   111         16
   112          6
   113         15
   114          4
   115         70
   116         19
   117         48
   118         16
   119         39
   120         11
   121         38
   122          9
   123         17
   124          5
   125         31
   126         50
   127         22
   128         41
   129         48
   130         15
   131         47
   132         13
   133         29
   134         11
   135         19
   136          7
   137          7
   138          2
   139        101
   140         12
   141         63
   142         38
   143        156
   144         44
   145        112
   146         30
   147         19
   148          3
   149          5
   151          5
   152          8
   153         19
   154         15
   155         59
   156         29
   157         92
   158        129
   159         40
   160         10
   161         14
   162          4
   163          5
   164          2
   165         30
   166         16
   167         34
   168         16
   169         34
   170         13
   171         25
   172         10
   173         13
   174          6
   175          8
   176          3
   177          5
   178          7
   179         14
   180          7
   181         22
   182         12
   183         30
   184         11
   185         16
   186          6
   187          6
   189          2
   191          4
   192          3
   193         12
   194          8
   195         33
   196         15
   197         42
   198          9
   199          7
   200          2
   201          2
   203          3
   204          2
   205          5
   206          3
   207         11
   208          5
   209         16
   210          7
   211         20
   212         23
   213         11
   214          4
   215          2
   217          2
   219          3
   221          6
   222          4
   223         11
   224          5
   225         12
   226         43
   227         15
   228          2
   233          5
   234          3
   235         30
   236          9
   237          9
   238          4
   239          5
   247          3
   248          3
   249          9
   250         33
   251         40
   252         10
   253          7
   254          2
   263          5
   264          4
   265         59
   266         14
   267          8
   268          6
   269          2
   275          1
   277          1
   278          4
   279          8
   280         17
   281          6
   282          7
   283          3
   296          2
   297          1
   298          6
   307          7
   308          2
   309         10
   310          2
   322         25
   323          9
   324         20
   325          7
   326          3
   327          2
   335          2
   340          2
   361          2
   377          4
   378          2
   379         40
   380          8
   392         14
   393         17
   394        486
   395        187
   396         41
   397          7
   409          2
   410          5
   411          3
   412          8