##TITLE=Library Entry 22974
##JCAMP-DX=Revision 4.10 
##DATA TYPE=MASS SPECTRUM
##SAMPLE DESCRIPTION=Finnigan MAT: Toxicological Library (LIBR-TX)
##NAMES=HP
##CAS NAME=Ciprofloxacin
##MOLFORM=C17H18FN3O3
##CAS REGISTRY NO=85721-33-1
##MP= -300
##BP= -300
##MW= 331
##$RETENTION INDEX=0
##$CONDENSED SPECTRUM=NO
##NPOINTS= 46
##XYDATA=(XY..XY) 1 
    55        466
    56        999
    57        747
    69        231
    71        218
    73        359
    83        171
    85        138
    87        106
    95         83
    97        109
   107         86
   115         71
   121         65
   129        123
   133         94
   134         85
   146         78
   147         82
   149        132
   157         93
   161        122
   172         98
   173         84
   174        119
   185         63
   188         66
   189         68
   201        127
   202        107
   204        101
   215         85
   218         55
   229        119
   230        104
   231         61
   245        840
   246        126
   256         29
   257         41
   272          6
   287        553
   288         99
   289        291
   331        133
   332         24