##TITLE=Library Entry 96905
##JCAMP-DX=Revision 4.10 
##DATA TYPE=MASS SPECTRUM
##SAMPLE DESCRIPTION=A.A.Kutin, Moscow, Russia
##NAMES=HP
##CAS NAME=Indole-2,3(2H,3H)-dione, 1-(2-chloroethyl)-, 3-semicarbazone
##MOLFORM=C11H11ClN4O2
##CAS REGISTRY NO=85731-62-0
##MP= -300
##BP= -300
##MW= 266
##$RETENTION INDEX=0
##$CONDENSED SPECTRUM=NO
##NPOINTS= 189
##XYDATA=(XY..XY) 1 
    33          2
    34          2
    35         15
    36         52
    37         41
    38         98
    39        174
    40         35
    41         36
    42         48
    43        142
    44        778
    45         17
    47          4
    49         78
    50        194
    51        275
    52         96
    53         45
    54         10
    55          9
    56          3
    57          4
    58          4
    59          8
    60         11
    61         50
    62        135
    63        369
    64        138
    65        234
    67          9
    69          7
    70          1
    71          2
    73         32
    74         76
    75        215
    76        325
    77        418
    78         69
    79         14
    80          6
    81          2
    82          3
    83          1
    84          2
    85          8
    86         19
    87         35
    88         66
    89        326
    90        402
    91        274
    92         77
    93          8
    94          1
    95          0
    96          0
    97          1
    98          2
    99         13
   100         15
   101         51
   102        290
   103        268
   104        182
   105         65
   106          9
   107          1
   110          0
   111          2
   112          2
   113          3
   114         19
   115         40
   116        268
   117        999
   118        231
   119         83
   120          8
   121          1
   123          1
   124          2
   125          9
   126          4
   127          9
   128         49
   129        215
   130        385
   131        150
   132        470
   133         45
   134          6
   135          1
   136          1
   137          3
   138          2
   139          4
   140          3
   141          5
   142         18
   144        378
   145        417
   146        629
   147         67
   148          4
   149          1
   150          2
   151          1
   152          3
   153         10
   154          0
   155          3
   156          1
   157          4
   158         30
   159         52
   160         16
   161         23
   162          3
   163          1
   164          3
   165          1
   166          7
   167          2
   168          2
   170          0
   171          2
   172          9
   174        536
   175         52
   176          4
   177          2
   178          3
   179          2
   180          2
   181          9
   182          1
   183          3
   185          0
   186          5
   187          5
   188          8
   189          8
   190          0
   191          0
   192          3
   193         30
   194        167
   195         31
   196         54
   197          8
   198          0
   199          0
   200          1
   201          0
   202          0
   203          1
   205          0
   207         12
   208         11
   209         83
   210         12
   211         27
   212          2
   214          0
   217          0
   219          3
   222        507
   223        693
   224        217
   225        217
   226         23
   227          1
   231          0
   232          0
   247          0
   248          2
   249         29
   250          5
   251          9
   252          1
   263          1
   264          3
   266        164
   267         23
   268         52
   269          6