##TITLE=Library Entry 34139
##JCAMP-DX=Revision 4.10 
##DATA TYPE=MASS SPECTRUM
##SAMPLE DESCRIPTION=Exported from NIST MS Search
##NAMES=HP
##CAS NAME=11-Methyldodecanol
##MOLFORM=C13H28O
##CAS REGISTRY NO=85763-57-1
##MP= -300
##BP= -300
##MW= 200
##$RETENTION INDEX=0
##$CONDENSED SPECTRUM=NO
##NPOINTS= 112
##XYDATA=(XY..XY) 1 
    35          1
    38          2
    39        128
    40         14
    41        648
    42         92
    43        616
    44         29
    45         27
    46          1
    47          1
    50          2
    51          3
    52          3
    53         50
    54         11
    55        604
    56        138
    57        388
    58         17
    59          9
    61          1
    64          1
    65         10
    66          2
    67        135
    68         52
    69        999
    70        404
    71        467
    72         20
    73          7
    77         18
    78          1
    79         26
    80         11
    81         82
    82         83
    83        442
    84        157
    85        121
    86         13
    87         25
    88          2
    91          8
    92          1
    93          6
    94          3
    95         57
    96         36
    97        210
    98         72
    99         20
   100          1
   101         42
   102          1
   104          1
   107          2
   108          2
   109         22
   110         42
   111        171
   112         51
   113         12
   114          3
   115         32
   116          4
   117          1
   121          2
   122          1
   123         10
   124         20
   125         70
   126         44
   127         11
   128          6
   129         45
   130          3
   135          1
   136          1
   137         12
   138         13
   139         19
   140         21
   141          4
   142          2
   143          7
   144          2
   147          1
   151          3
   152          4
   153         16
   154         57
   155          4
   157         10
   158          1
   165          3
   166          1
   167          1
   168          1
   170          4
   171         32
   172          4
   178          1
   180          1
   182          3
   183          2
   184          1
   185          3
   186          1
   195          2
   198          1