##TITLE=Library Entry 14477
##JCAMP-DX=Revision 4.10 
##DATA TYPE=MASS SPECTRUM
##SAMPLE DESCRIPTION=A.A.Kutin, Moscow, Russia
##NAMES=HP
##CAS NAME=Propenone, 1-(4-acetamidophenyl)-3-(4-methoxyphenyl)-
##MOLFORM=C18H17NO3
##CAS REGISTRY NO=85791-65-7
##MP= -300
##BP= -300
##MW= 295
##$RETENTION INDEX=0
##$CONDENSED SPECTRUM=NO
##NPOINTS= 176
##XYDATA=(XY..XY) 1 
    34          6
    36          1
    37         17
    38         44
    39        175
    40         92
    41         82
    43        999
    44         82
    45         41
    46          4
    48          1
    49          9
    50         88
    51         81
    52         43
    54         29
    55         44
    56         14
    57         30
    58          7
    60          3
    61         11
    62         61
    63        171
    64         85
    65        118
    66         20
    67          9
    68          6
    69         17
    70          9
    71          8
    72          2
    73          6
    74         21
    75         45
    76         45
    77        105
    78         23
    79         30
    80          8
    81          9
    82          8
    83          9
    84          7
    86          7
    87         10
    88         13
    89         58
    90        155
    91         79
    92        116
    93         30
    94          9
    95          7
    97          9
    99          3
   101         23
   102         25
   103         27
   104         16
   105         18
   106          8
   107         12
   108         21
   109          4
   110          1
   112         10
   113         18
   115         18
   117         15
   118         74
   120        161
   121         36
   122          3
   123          3
   125          2
   126          5
   127         19
   128         19
   129          2
   131          7
   132         15
   133         55
   135         37
   136         18
   137          3
   138          4
   139          7
   140          7
   141          2
   143          2
   144          2
   145         53
   146         18
   150          6
   151          4
   152         17
   153         34
   154         16
   155          3
   157          1
   158          3
   159          4
   160         13
   161         75
   162         23
   163          5
   165         29
   166         36
   167         11
   168          2
   169          0
   172          4
   173         27
   174          2
   176          1
   177         10
   178          5
   179          3
   180         15
   181         21
   182         22
   183          3
   184          1
   186          1
   190          5
   191          3
   192          2
   193         10
   194         10
   196          4
   197          5
   198          1
   199          1
   206          0
   207          3
   208         12
   209         16
   210         53
   211          5
   213          1
   217          1
   218          1
   219          2
   221          5
   222          9
   223         10
   224         61
   225         39
   226         11
   228          1
   235          2
   236         11
   237         17
   238         65
   239          9
   249          1
   250          5
   251         11
   252         40
   253         38
   254         10
   264         11
   265          9
   266          5
   267          9
   279          7
   280         25
   281          3
   293          4
   294        130
   295        196
   296         32
   297          4