##TITLE=Library Entry 64770
##JCAMP-DX=Revision 4.10 
##DATA TYPE=MASS SPECTRUM
##SAMPLE DESCRIPTION=Organic Synthesis Lab, MSU, Moscow.TRC 872
##NAMES=HP
##CAS NAME=3-(Phenylmethoxy)estra-1,3,5(10)-trien-17-one
##MOLFORM=C25H28O2
##CAS REGISTRY NO=858-98-0
##MP= -300
##BP= -300
##MW= 360
##$RETENTION INDEX=0
##$CONDENSED SPECTRUM=NO
##NPOINTS= 85
##XYDATA=(XY..XY) 1 
    27          2
    29          2
    39          7
    41         14
    43          1
    51          2
    52          0
    53          4
    55         10
    63          1
    65         24
    66          0
    67          5
    68          0
    69          0
    77          6
    78          1
    79          5
    81          4
    89          3
    90          1
    91        999
    92         73
    93          3
    95          1
    97          5
   102          0
   103          2
   104          0
   105          3
   107          5
   115         11
   116          4
   117          3
   119          0
   121          1
   127          2
   128          9
   129          9
   130          2
   131          2
   133          6
   141          4
   142          1
   143          1
   144          1
   145          4
   146          2
   147          0
   152          0
   153          1
   154          0
   155          1
   157          4
   158          3
   159          4
   160          0
   165          1
   167          1
   169          0
   170          0
   171          2
   172          3
   173          1
   181          0
   183          0
   185          2
   195          1
   196          3
   197          1
   198          0
   199          0
   209          0
   211          0
   213          0
   225          0
   227          0
   251          0
   269          3
   270          4
   358          1
   359          0
   360        211
   361         57
   362          7