##TITLE=Library Entry 30552
##JCAMP-DX=Revision 4.10 
##DATA TYPE=MASS SPECTRUM
##SAMPLE DESCRIPTION=Chemical Concepts
##NAMES=HP
##CAS NAME=Pentanedioic acid, 2-chloro-, dimethyl ester
##MOLFORM=C7H11ClO4
##CAS REGISTRY NO=85822-17-9
##MP= -300
##BP= -300
##MW= 194
##$RETENTION INDEX=0
##$CONDENSED SPECTRUM=NO
##NPOINTS= 106
##XYDATA=(XY..XY) 1 
    26         27
    27        171
    28         30
    29        128
    30         16
    31         54
    33          5
    36          4
    37         15
    38         38
    39        347
    40         55
    41        523
    42        399
    43        345
    44         20
    45         65
    47          4
    48          9
    49         43
    50          5
    51         21
    52          6
    53         20
    54          7
    55        330
    56         20
    57         26
    58        133
    59        999
    60         24
    61         17
    63         15
    64          6
    65          6
    66          3
    67          8
    68         49
    69         60
    70          5
    71        697
    72         38
    73         15
    74        190
    75        191
    76         77
    77         76
    78         26
    79         22
    81          6
    83         13
    84          5
    85         73
    86          4
    87        389
    88        314
    89         32
    91         12
    92         35
    93        129
    94         16
    95        129
    96          7
    98        101
    99        325
   100         73
   101         19
   102         14
   103         74
   104         23
   105         32
   106        116
   107         12
   108         99
   109          4
   110         21
   113          5
   114          7
   115         32
   119         23
   121         62
   122         13
   123         18
   124          3
   126        157
   127        355
   128         22
   129          5
   131          4
   132         86
   133         11
   134        749
   135        598
   136        273
   137        165
   138         11
   148          4
   149          3
   159         11
   162        416
   163        738
   164        166
   165        220
   166         16
   177          4
   195          1