##TITLE=Library Entry 4821
##JCAMP-DX=Revision 4.10 
##DATA TYPE=MASS SPECTRUM
##SAMPLE DESCRIPTION=James Little, Eastman Chemical Co.
##NAMES=HP
##CAS NAME=2H-Pyran-2,4(3H)-dione, dihydro-6-methyl-
##MOLFORM=C6H8O3
##CAS REGISTRY NO=85825-79-2
##MP= -300
##BP= -300
##MW= 128
##$RETENTION INDEX=0
##$CONDENSED SPECTRUM=NO
##NPOINTS= 52
##XYDATA=(XY..XY) 1 
    29         72
    30          5
    31         11
    32          2
    36          8
    37         25
    38         73
    39        345
    40         74
    41        471
    42        999
    43        572
    44        337
    45         36
    46          5
    47          1
    49          5
    50         15
    51         13
    52          4
    53         13
    54          6
    55         18
    56        112
    57          6
    58          3
    59          1
    60          2
    61          2
    62          3
    63          1
    65          3
    66          1
    67          4
    68         25
    69        886
    70         43
    71        120
    72          5
    80          2
    81          1
    82          6
    83          8
    84        126
    85         18
    86          3
    87         11
   113         15
   114          1
   127          3
   128         77
   129          5