##TITLE=Library Entry 55750
##JCAMP-DX=Revision 4.10 
##DATA TYPE=MASS SPECTRUM
##SAMPLE DESCRIPTION=Div. of Experiment Therapeutics WRAIR, WRAMC, Washingto
n DC 20307
##NAMES=HP
##CAS NAME=5,8-Dimethoxy-6-[4-diethylamino-1-methylbutylamino]quinazoline
##MOLFORM=C19H30N4O2
##CAS REGISTRY NO=85867-84-1
##MP= -300
##BP= -300
##MW= 346
##$RETENTION INDEX=0
##$CONDENSED SPECTRUM=NO
##NPOINTS= 201
##XYDATA=(XY..XY) 1 
    41        313
    42        418
    43        182
    44        163
    45        208
    46         15
    47          2
    49         44
    50        170
    51        306
    52        402
    53        391
    54         74
    55        100
    56        118
    58        368
    59         14
    61         60
    62         83
    63        108
    64         15
    65         19
    66         37
    67         28
    68         59
    69        214
    70         68
    71         71
    72        116
    73         61
    74          8
    76         18
    77         45
    78         22
    82         12
    84         60
    86        999
    89         12
    90         13
    91          9
    92          9
    93          9
    94         15
    95         50
    96         10
    97         21
    98         32
    99         52
   100         10
   101          4
   102          3
   103          7
   104         18
   105         11
   112         51
   114          4
   115          2
   116          4
   117          9
   118          7
   119          6
   120          5
   121          3
   122          3
   123          1
   124          2
   125          5
   126         19
   127          1
   129          5
   130          5
   131          9
   132         10
   133          9
   134          8
   140         26
   141          3
   142         19
   144          8
   145          4
   146          6
   147          6
   148          4
   149          3
   150          2
   151          1
   152          1
   157          3
   158          9
   159          5
   160          7
   161         13
   162          8
   163          7
   165          3
   166          0
   167          0
   168          0
   169          1
   170          2
   171          2
   172          6
   173          3
   174          6
   175          9
   176          6
   177          6
   179          2
   180          0
   182          0
   183          0
   184          2
   185          2
   186          4
   187          4
   188         18
   189          7
   190         13
   191          3
   192          2
   195          1
   196          0
   197          0
   198          2
   199          1
   200          3
   202         33
   203          8
   204          4
   205          6
   206          5
   207          1
   208          1
   211          0
   212          1
   213          1
   214          7
   216         18
   217          7
   218          7
   220          2
   221          1
   222          0
   224          0
   226          1
   228          3
   229          1
   230         11
   231          3
   232         17
   233          4
   234          3
   235          1
   236          0
   240          0
   242         22
   244         20
   245          7
   246          4
   247          1
   248          1
   249          0
   256          1
   258         33
   259          6
   260          6
   261          1
   262          1
   263          0
   272         14
   273          4
   274         15
   275          2
   276          1
   284          0
   286          0
   287          0
   288          1
   289          0
   290          0
   292          0
   296          0
   301          0
   302          0
   303          0
   304          0
   307          0
   313          0
   315         34
   316          5
   317          3
   318          1
   319          0
   330          0
   331          8
   332          2
   333          0
   346         28
   347          8
   348          2
   349          0