##TITLE=Library Entry 41334
##JCAMP-DX=Revision 4.10 
##DATA TYPE=MASS SPECTRUM
##SAMPLE DESCRIPTION=B.R. PETTIT, QUEEN CHARLOTTE'S MAT. HOSP., LONDON, U.K.
##NAMES=HP
##CAS NAME=4,6-Dioxoheptanoic acid dimethoxime, TMS derivative
##MOLFORM=C12H24N2O4Si
##CAS REGISTRY NO=85863-67-8
##MP= -300
##BP= -300
##MW= 288
##$RETENTION INDEX=0
##$CONDENSED SPECTRUM=NO
##NPOINTS= 142
##XYDATA=(XY..XY) 1 
    41        104
    42        130
    45        427
    46         12
    47         56
    48          2
    53         34
    54        127
    55        280
    56         59
    58         44
    59         68
    60         15
    61         46
    62          5
    64          4
    65          5
    66         10
    67         45
    68         55
    69          5
    70         10
    72        104
    73        999
    74        136
    75        489
    76         31
    80         34
    81         33
    82         33
    83         11
    84         19
    85         11
    86         91
    87         46
    88         12
    89        469
    90         40
    91         29
    92         11
    93         16
    94         23
    95         42
    96         22
    97         10
    98         33
    99         13
   100         13
   101          8
   102          5
   103        145
   104         13
   105         11
   106          5
   107        109
   108        169
   109        434
   110         51
   111          7
   112         15
   113         16
   114          6
   115          8
   116         10
   117         13
   118          5
   119         67
   121         20
   122          8
   123          7
   124         17
   125        113
   126         53
   127         15
   128          8
   129         48
   130         21
   134          4
   135        115
   136         60
   137         24
   138         15
   139        352
   140         92
   141         17
   142         15
   143          9
   144          5
   145         14
   146          4
   150          1
   151          4
   152          7
   153          6
   154          9
   155          4
   156         44
   157          4
   158          6
   161         10
   165         12
   166          6
   167         99
   168         29
   169         55
   170         18
   171        153
   172         25
   181        254
   182         48
   183         17
   184         17
   185          6
   186          4
   196          3
   197          3
   198         40
   199         10
   200          9
   201         13
   202          5
   207          1
   209          5
   210          5
   211         15
   216          5
   221          1
   225         20
   226        117
   227         26
   228          7
   232          9
   241          3
   242          5
   257         46
   258          9
   259          3
   273          3
   281          3
   288        161
   289         30
   290          9