##TITLE=Library Entry 73295
##JCAMP-DX=Revision 4.10 
##DATA TYPE=MASS SPECTRUM
##SAMPLE DESCRIPTION=Div. of Experiment Therapeutics WRAIR, WRAMC, Washingto
n DC 20307
##NAMES=HP
##CAS NAME=4-Amino-2,5-dimethoxy-N,N-bis[2-diethylaminoethyl]aniline
##MOLFORM=C20H38N4O2
##CAS REGISTRY NO=85867-95-4
##MP= -300
##BP= -300
##MW= 366
##$RETENTION INDEX=0
##$CONDENSED SPECTRUM=NO
##NPOINTS= 176
##XYDATA=(XY..XY) 1 
    41         64
    42        140
    43         44
    44        341
    45        114
    46          7
    47          1
    48          2
    49         20
    50        110
    51        198
    52        203
    53        176
    54         44
    55         50
    56         76
    57         29
    58        175
    59          4
    60          3
    61         20
    62         35
    63         47
    64          6
    65          9
    66         20
    67         12
    68          2
    69        148
    70         42
    71         39
    72         65
    73         11
    74          2
    77         36
    78          1
    83          3
    84         38
    86        889
    87         37
    88          1
    90          2
    91          6
    92          7
    93          6
    94          9
    95         92
    97         20
    98         16
    99         44
   100        999
   101          8
   102          1
   104          1
   105         28
   106          5
   107         47
   111          2
   112          2
   113          1
   115          6
   116          4
   117          2
   119          2
   121         17
   122         20
   123         12
   124          4
   125         13
   126          2
   127          3
   129         13
   131          3
   132          2
   133          2
   140         10
   142          3
   145          1
   147          5
   148          3
   149          7
   150         24
   151         37
   152         11
   159          1
   160          1
   161          2
   162          4
   163         10
   164         16
   165        101
   166         72
   167         14
   168          2
   175          3
   176          3
   177         14
   178        166
   179         64
   180         51
   181        224
   182         22
   183          2
   190          2
   191          2
   192          7
   193         10
   194         46
   195        111
   196         12
   202          1
   204          1
   205          3
   206          2
   207          9
   208          5
   209        220
   210         24
   211          3
   213          2
   214          1
   218          1
   219          2
   220          6
   221          4
   222          2
   223          6
   224          1
   226          1
   232          1
   233          1
   234          2
   235          2
   236          3
   237          5
   238          1
   242          2
   248          2
   249          2
   250         12
   251          4
   252          4
   256          1
   257         62
   258          8
   259          1
   264          5
   265         12
   266          6
   267        258
   268         40
   269          4
   278          6
   279         10
   280        595
   281         96
   282         12
   284          5
   285          1
   292          4
   293        171
   294         38
   295          9
   296          1
   306          1
   308          3
   309          1
   321          2
   322          1
   333          1
   336          1
   364          1
   365          6
   366        226
   367         53
   368          7