##TITLE=Library Entry 67741
##JCAMP-DX=Revision 4.10 
##DATA TYPE=MASS SPECTRUM
##SAMPLE DESCRIPTION=Japan AIST/NIMC Database- Spectrum MS-NW-9925
##NAMES=HP
##CAS NAME=7-Octene-1,2-diol
##MOLFORM=C8H16O2
##CAS REGISTRY NO=85866-02-0
##MP= -300
##BP= -300
##MW= 144
##$RETENTION INDEX=0
##$CONDENSED SPECTRUM=NO
##NPOINTS= 90
##XYDATA=(XY..XY) 1 
    15         20
    17          3
    18         15
    19          1
    26          4
    27         77
    28         26
    29        119
    30          6
    31         82
    32          2
    33          2
    37          1
    38          3
    39        113
    40         18
    41        498
    42         53
    43        309
    44         42
    45        102
    46          2
    47          2
    49          1
    50          3
    51          8
    52          4
    53         58
    54        109
    55        265
    56         55
    57        245
    58         29
    59          9
    60         11
    61        160
    62          4
    63          2
    65         17
    66         12
    67        364
    68        133
    69        402
    70         60
    71         77
    72          5
    73          3
    74         16
    75          4
    77         15
    78         10
    79         78
    80         54
    81         27
    82         58
    83         40
    84         22
    85         14
    86          2
    87         26
    88          2
    89          2
    91         14
    92          2
    93        114
    94         15
    95        999
    96         81
    97         23
    98         18
    99          2
   100          1
   101          4
   102          1
   103          1
   105          1
   107          3
   108         12
   109         16
   110          2
   111          7
   112          1
   113        103
   114          8
   115          2
   117          6
   125          1
   126          1
   127          2
   143          1