##TITLE=Library Entry 30764
##JCAMP-DX=Revision 4.10 
##DATA TYPE=MASS SPECTRUM
##SAMPLE DESCRIPTION=Chemical Concepts
##NAMES=HP
##CAS NAME=1,3,2-Dioxaphospholane-4,5-dicarboxylic acid, 2-t-butyl-, bis(2-m
ethoxyethyl) ester
##MOLFORM=C14H25O8P
##CAS REGISTRY NO=85862-01-7
##MP= -300
##BP= -300
##MW= 352
##$RETENTION INDEX=0
##$CONDENSED SPECTRUM=NO
##NPOINTS= 214
##XYDATA=(XY..XY) 1 
    26          5
    27         16
    28         13
    29         26
    30          3
    31         97
    32          1
    33          3
    36          0
    38          0
    39         11
    40          1
    41         58
    42          3
    43         28
    44          2
    45        103
    46          2
    47          9
    48          0
    49          0
    50          0
    51          0
    53         11
    54          6
    55          9
    56          8
    57        153
    58         86
    59        999
    60         35
    61          3
    62          3
    63          4
    64          0
    65          1
    67          0
    68          1
    69          4
    70          1
    71          8
    72          0
    73          3
    74          0
    75          1
    76          0
    77          6
    78          0
    79          4
    80          0
    81          1
    82          6
    83          1
    84          0
    85          1
    86          0
    87          3
    88          3
    89          8
    90          0
    91          2
    92          0
    93          0
    95          0
    96          0
    97          0
    98          1
    99          4
   100          0
   101          1
   102          5
   103          2
   104          0
   105          3
   106          2
   107          5
   108          0
   109          0
   110          0
   111          0
   112          0
   113          2
   114          0
   115          1
   116          0
   117         23
   118          2
   119          1
   120          0
   121          1
   122          1
   123         35
   124          1
   125          0
   126          1
   127          0
   128          1
   129          0
   131          1
   132          0
   133          1
   134          9
   135          3
   136          2
   137          2
   138          0
   139          2
   140          0
   141          0
   143          1
   144          0
   145          2
   146          0
   147          3
   148          0
   149          2
   150          0
   151          1
   153          0
   155          0
   156          0
   157          4
   158          0
   159          0
   160          0
   161          2
   162          1
   163         13
   164          2
   165          3
   166          0
   167          2
   169          0
   173          0
   175          1
   177          2
   178          0
   179          1
   180          0
   181         22
   182          1
   183          0
   185          0
   189          0
   190          0
   191         49
   192          3
   193          8
   194          0
   195          0
   197          0
   201          3
   202          0
   203          0
   205          1
   206          0
   207          0
   209          7
   210          1
   211          0
   215          0
   217          0
   219          3
   220          5
   221          2
   223          1
   231          0
   233          1
   234          0
   235         13
   236          1
   237          6
   238          1
   239          5
   240          0
   241          0
   242          0
   243          0
   247          0
   248          0
   249          7
   250          1
   251          0
   253          0
   255          3
   256          0
   264          0
   265          0
   267        175
   268         17
   269          3
   270          0
   273          0
   277          0
   279          0
   281          0
   282          1
   283          0
   285          0
   293          0
   295         46
   296          5
   297          0
   311          2
   312          0
   313          2
   314          0
   331          1
   333          0
   337          3
   338          0
   352          8
   353          3
   354          0