##TITLE=Library Entry 56806
##JCAMP-DX=Revision 4.10 
##DATA TYPE=MASS SPECTRUM
##SAMPLE DESCRIPTION=Div. of Experiment Therapeutics WRAIR, WRAMC, Washingto
n DC 20307
##NAMES=HP
##CAS NAME=6-[2,2,2-Trifluoroethoxy]-4-[4-diethylamino-1-methylbutylamino]-1
,5-naphthyridine
##MOLFORM=C19H27F3N4O
##CAS REGISTRY NO=85867-97-6
##MP= -300
##BP= -300
##MW= 384
##$RETENTION INDEX=0
##$CONDENSED SPECTRUM=NO
##NPOINTS= 203
##XYDATA=(XY..XY) 1 
    41          3
    42          4
    43          2
    44          1
    45          3
    49          2
    50          3
    51          8
    52         10
    53         11
    54          4
    55          7
    56         14
    57         10
    58         38
    59          1
    60          1
    61          2
    62          4
    63          8
    64          4
    65          3
    66          3
    67          6
    68          5
    69         32
    70         13
    71         16
    72         21
    73         27
    74          2
    76          2
    77          6
    78          8
    82          7
    83          6
    84         49
    86        999
    87         60
    88          2
    89          4
    90          8
    91          6
    92          2
    93          2
    95         29
    96          6
    97          5
    98         21
    99         49
   101          8
   102          7
   103          5
   104          7
   105          7
   106          5
   110         17
   111          1
   112         48
   113          8
   114          8
   116          9
   117         20
   118         20
   119         14
   120          1
   121          1
   124          6
   125          7
   126         20
   128          1
   129         31
   130          9
   131          9
   132          8
   133         14
   134          2
   135          0
   138          3
   140         45
   142         47
   144         48
   145          9
   146         27
   147          2
   149          3
   151          1
   152          1
   156         11
   157         10
   158         16
   159          9
   160          5
   161          9
   162         11
   164          1
   165          0
   167          1
   168          3
   169          4
   170         23
   172        242
   173         32
   174         17
   175          3
   177         16
   180          7
   181          3
   182          6
   183          5
   184         11
   185         20
   186         54
   188         22
   189          1
   190          0
   192         11
   193          1
   194          1
   195          1
   196          2
   197          2
   198         14
   199          8
   200         32
   201         22
   202          7
   203          1
   204          0
   206          0
   207          1
   208          1
   210          2
   211          1
   212         14
   213          4
   214          8
   215          1
   216          1
   224          2
   225          0
   226          6
   228        203
   229         33
   230         43
   231          6
   233          0
   234          2
   236          4
   238          1
   241          0
   242          6
   243         11
   244         47
   245          5
   248          0
   250          5
   251          0
   254          1
   255          2
   256         54
   257          8
   258          4
   259          0
   265          0
   268          7
   270        113
   271         18
   273          3
   274          0
   280          0
   281          1
   282         10
   284         46
   285          7
   286          2
   288          0
   292          7
   294          5
   296         19
   297          4
   298          5
   299          1
   301         79
   302         14
   303          1
   308          1
   309          1
   310        148
   311         12
   312        103
   313         16
   314          1
   355         25
   356          4
   365          4
   366          1
   369          9
   370          1
   383          0
   384        107
   385         24
   386          2