##TITLE=Library Entry 60756
##JCAMP-DX=Revision 4.10 
##DATA TYPE=MASS SPECTRUM
##SAMPLE DESCRIPTION=P.A. Leclercq, Lab. Instrum. Anal., Eindhoven Univ. Tec
hnol., Netherlands
##NAMES=HP
##CAS NAME=Benzene, 1-[2-(4-butylcyclohexyl)ethyl]-4-(4-pentylcyclohexyl)-
##MOLFORM=C29H48
##CAS REGISTRY NO=85872-16-8
##MP= -300
##BP= -300
##MW= 396
##$RETENTION INDEX=0
##$CONDENSED SPECTRUM=NO
##NPOINTS= 100
##XYDATA=(XY..XY) 1 
    39         89
    41        568
    42         74
    43        414
    44         53
    45         23
    53         59
    55        841
    56         83
    57        322
    58         21
    65         34
    67        193
    69        470
    70         52
    71        175
    73         37
    75         21
    77         49
    78         28
    79         99
    81        266
    82        140
    83        613
    84         52
    85         59
    86         26
    91        999
    92        545
    93        163
    95        201
    96        229
    97        876
    98         72
    99         24
   104        278
   105        446
   106         93
   107         47
   109         90
   111        360
   112         40
   113         29
   115        117
   117        626
   118        419
   119        152
   120         29
   121         25
   123         44
   124         74
   125        122
   126         21
   127         34
   128         88
   129        228
   130        273
   131        328
   132        128
   133        148
   134         35
   135         23
   137         58
   138         21
   139         54
   141         36
   142         30
   143        111
   144         36
   145         96
   147        167
   148         30
   149         39
   150         44
   152        635
   153        395
   154         55
   157         37
   159         48
   161         36
   163         22
   171         42
   172         21
   173         43
   185         25
   187         19
   229        115
   230         50
   243        418
   244        228
   245         50
   256         22
   257         36
   270        292
   271         74
   283         92
   284         52
   396        498
   397        155
   398         25