##TITLE=Library Entry 74775
##JCAMP-DX=Revision 4.10 
##DATA TYPE=MASS SPECTRUM
##SAMPLE DESCRIPTION=W. KELLER-SCHIERLEIN, ORG.-CHEM. LAB., ETH-Z, ZURICH, S
WITZ.
##NAMES=HP
##CAS NAME=1,3,5,7,9,11-Hexahydroxy-2-methylundecane
##MOLFORM=C12H26O6
##CAS REGISTRY NO=85888-01-3
##MP= -300
##BP= -300
##MW= 266
##$RETENTION INDEX=0
##$CONDENSED SPECTRUM=NO
##NPOINTS= 31
##XYDATA=(XY..XY) 1 
    31        320
    41        540
    43        820
    45        550
    55        730
    57        730
    69        500
    71        820
    73        450
    75        720
    81        640
    83        550
    89        550
    97        230
    99        590
   101        999
   115        900
   125        230
   127        720
   141        500
   145         90
   153        360
   171        360
   185        130
   194         20
   195         20
   212         20
   213         20
   231         20
   249         20
   267         80