##TITLE=Library Entry 58332
##JCAMP-DX=Revision 4.10 
##DATA TYPE=MASS SPECTRUM
##SAMPLE DESCRIPTION=W. KELLER-SCHIERLEIN, ORG.-CHEM. LAB., ETH-Z, ZURICH, S
WITZ.
##NAMES=HP
##CAS NAME=2,4,6-Trimethyldecane-1,3,10-triol
##MOLFORM=C13H28O3
##CAS REGISTRY NO=85887-96-3
##MP= -300
##BP= -300
##MW= 232
##$RETENTION INDEX=0
##$CONDENSED SPECTRUM=NO
##NPOINTS= 20
##XYDATA=(XY..XY) 1 
    41        320
    43        430
    55        620
    69        450
    71        400
    81        190
    83        290
    89        999
    95        180
    97        290
    99        150
   109         50
   111         80
   115         50
   137        390
   143         20
   155        110
   173        140
   214         20
   233          5