##TITLE=Library Entry 19191
##JCAMP-DX=Revision 4.10 
##DATA TYPE=MASS SPECTRUM
##SAMPLE DESCRIPTION=T. Jones, LC, NHLBI, NIH, Bethesda, MD 20892
##NAMES=HP
##CAS NAME=13-Tetradecenal
##MOLFORM=C14H26O
##CAS REGISTRY NO=85896-31-7
##MP= -300
##BP= -300
##MW= 210
##$RETENTION INDEX=1608
##$CONDENSED SPECTRUM=NO
##NPOINTS= 170
##XYDATA=(XY..XY) 1 
    41        757
    42        177
    43        404
    44        209
    45         35
    46          2
    47          3
    48          2
    49         10
    50          4
    51         18
    52         10
    53        125
    54        310
    55        999
    56        253
    57        392
    58         45
    59         16
    60          1
    61          0
    62          1
    63          2
    64          1
    65         29
    66         55
    67        609
    68        405
    69        596
    70        304
    71        146
    72         56
    73         13
    74          1
    75          1
    76          0
    77         21
    78         16
    79        176
    80        153
    81        547
    82        445
    83        420
    84        254
    85         92
    86         39
    87          6
    88          1
    89          0
    91         16
    92          8
    93        149
    94        137
    95        370
    96        309
    97        326
    98        410
    99         48
   100         12
   101          2
   102          0
   103          1
   104          0
   105          4
   107         93
   108         84
   109        135
   110        163
   111        204
   112        116
   113         16
   114         11
   115          2
   116          0
   117          1
   118          0
   119          2
   120          3
   121        200
   122         63
   123         47
   124         59
   125         57
   126         20
   127          6
   128          8
   129          1
   130          0
   131          1
   132          0
   133          2
   134          3
   135         99
   136         35
   137         20
   138         25
   139         22
   140          9
   141          4
   142          3
   143          1
   144          0
   145          0
   146          0
   147          1
   149         41
   150         17
   151          9
   152          3
   153         14
   154          8
   155          3
   156          1
   157          0
   158          0
   159          0
   160          0
   161          1
   162          0
   163         23
   164         10
   165          3
   166         21
   167         15
   168          5
   169          2
   170          1
   171          0
   172          0
   173          0
   174          0
   175          0
   176          0
   177          3
   178          0
   179          5
   180          1
   181          8
   182          3
   183          0
   184          0
   185          0
   186          0
   187          0
   188          0
   189          0
   190          0
   191          1
   192         14
   193          2
   194          1
   195          2
   196          0
   197          0
   198          0
   199          0
   200          0
   201          0
   202          0
   203          0
   204          0
   205          0
   206          0
   207          1
   208          1
   209          1
   210          2
   211          0
   212          0
   213          0