##TITLE=Library Entry 64599
##JCAMP-DX=Revision 4.10 
##DATA TYPE=MASS SPECTRUM
##SAMPLE DESCRIPTION=A.A.Kutin, Moscow, Russia
##NAMES=HP
##CAS NAME=Pyrrole-2-carboxylic acid, 5-acetoxymethyl-4-(3-methoxy-3-oxoprop
yl)-3-methyl-, benzyl ester
##MOLFORM=C20H23NO6
##CAS REGISTRY NO=859-38-1
##MP= -300
##BP= -300
##MW= 373
##$RETENTION INDEX=0
##$CONDENSED SPECTRUM=NO
##NPOINTS= 230
##XYDATA=(XY..XY) 1 
    38          0
    39          4
    41          3
    43         42
    45          4
    50          1
    51          5
    52          3
    53          4
    55          4
    56          0
    57          0
    59         10
    61          3
    63          6
    65         46
    66          7
    67          3
    68          0
    69          0
    71          0
    74          1
    75          1
    77         35
    78         14
    79         20
    80          5
    81          1
    82          1
    83          0
    84          0
    87          0
    89         19
    91        999
    92         65
    93         10
    94         21
    95          2
    96          1
    97          0
   102          2
   104         31
   105         14
   106         12
   107         13
   108         11
   109          4
   110          4
   111          0
   116         11
   117         12
   118         32
   119         21
   120         18
   121          8
   122         15
   123          5
   124          1
   125          0
   127          0
   128          0
   129          0
   130          0
   131          0
   132          9
   133          8
   134         28
   135         10
   136         26
   137          7
   138         13
   139          1
   140          0
   141          1
   142          0
   143          0
   144          5
   145          7
   146         47
   147         18
   148         25
   150         23
   151          4
   152          7
   153          2
   154          3
   155          1
   156          0
   159          0
   160          3
   162         26
   163         12
   164         47
   165         10
   166         29
   167          9
   168         25
   169          2
   170          0
   171          0
   172          2
   173          7
   174          4
   175          2
   176          5
   177          3
   178         13
   179         99
   180         51
   181         17
   182         12
   184         14
   185          1
   188          1
   190         13
   191          4
   192         16
   193          6
   194         24
   196        155
   197         24
   198          5
   199          1
   200          2
   204         33
   205         13
   206         53
   207         30
   208        106
   209         16
   210         13
   211          3
   212          5
   214          1
   215          0
   216          6
   217          1
   218          0
   219          0
   220          1
   222        223
   223         34
   224         17
   225          3
   226         17
   227          3
   228         11
   229          1
   230          0
   234          0
   235          0
   236          4
   237          2
   238         15
   239         19
   240        223
   241         30
   242         26
   244         74
   245         11
   246          1
   250          0
   251          0
   252          4
   253         10
   254         49
   255          9
   256         17
   257         17
   258         14
   259          2
   262          0
   264          0
   265          1
   266         17
   267          4
   268         26
   269         23
   270         12
   271          4
   272          1
   273          0
   274          0
   280          0
   281          2
   282         28
   283          6
   284          3
   285          2
   286          2
   287          0
   288          0
   294          2
   295          1
   296          4
   297          1
   298         12
   299         16
   300         81
   301         20
   302          3
   303          0
   310          0
   311          1
   313        375
   314        252
   315         71
   316         12
   317          1
   318          0
   328          1
   329          3
   330          2
   331          4
   332          0
   333          0
   342         76
   343         15
   344          1
   345          0
   356          0
   358          0
   359          5
   360          1
   361          0
   371          1
   373        370
   374         81
   375         13
   376          1