##TITLE=Library Entry 87697
##JCAMP-DX=Revision 4.10 
##DATA TYPE=MASS SPECTRUM
##SAMPLE DESCRIPTION=ASES Database, Dalian Institute, P.R. China
##NAMES=HP
##CAS NAME=Cyclic ester of bis-benzene-1,2-diol bis-pentanedioate
##MOLFORM=C22H20O8
##CAS REGISTRY NO=85933-06-8
##MP= -300
##BP= -300
##MW= 412
##$RETENTION INDEX=0
##$CONDENSED SPECTRUM=NO
##NPOINTS= 50
##XYDATA=(XY..XY) 1 
    41        309
    42        279
    52        153
    55        939
    63        114
    69        205
    71         46
    80        109
    81         68
    92        103
    94         49
    95         54
    96         13
    97        503
    98         33
   109         53
   110        999
   111        109
   121         33
   123         67
   124         14
   125         46
   137         92
   139         77
   147        146
   148         22
   151        155
   152         23
   165        521
   166         55
   167         45
   178         44
   179         46
   193        774
   194         92
   195         25
   206        110
   207        340
   208         50
   233         34
   261         31
   275         92
   285        117
   286         22
   303        969
   304        148
   305         38
   412        371
   413         82
   414         11