##TITLE=Library Entry 21586
##JCAMP-DX=Revision 4.10 
##DATA TYPE=MASS SPECTRUM
##SAMPLE DESCRIPTION=ASES Database, Dalian Institute, P.R. China
##NAMES=HP
##CAS NAME=Cyclic ester of bis-benzene-1,2-diol bis-nonanedioate
##MOLFORM=C30H36O8
##CAS REGISTRY NO=85933-08-0
##MP= -300
##BP= -300
##MW= 524
##$RETENTION INDEX=0
##$CONDENSED SPECTRUM=NO
##NPOINTS= 50
##XYDATA=(XY..XY) 1 
    41        335
    43        236
    55        999
    57        146
    67        158
    69        232
    70         53
    71         30
    79        105
    80         57
    81        260
    82         82
    83        262
    84         80
    85         37
    91        106
    92        105
    93         64
    94         42
    95         66
    96         38
    97        269
    98         76
   109         61
   110        731
   111        118
   125        247
   126         25
   127         24
   135         71
   136         23
   152        292
   153        977
   154        107
   213         39
   227         90
   228         12
   262         38
   263        248
   264         49
   277         25
   278         21
   305        127
   306         25
   397         24
   415        860
   416        132
   417         41
   524         75
   525         28