##TITLE=Library Entry 45619
##JCAMP-DX=Revision 4.10 
##DATA TYPE=MASS SPECTRUM
##SAMPLE DESCRIPTION=Chemical Concepts
##NAMES=HP
##CAS NAME=1,2-O-Isopropylidene-D-xylofuranose, TBDMS derivative
##MOLFORM=C14H28O5Si
##CAS REGISTRY NO=85951-12-8
##MP= -300
##BP= -300
##MW= 304
##$RETENTION INDEX=0
##$CONDENSED SPECTRUM=NO
##NPOINTS= 177
##XYDATA=(XY..XY) 1 
    26          3
    27         24
    28          3
    29         61
    30          2
    31         49
    37          0
    39         25
    40         14
    41        104
    42         11
    43        307
    44         12
    45         40
    46          2
    47         57
    48          3
    49          2
    53          6
    54          2
    55         75
    56         10
    57         49
    58         35
    59        434
    60         31
    61         49
    62          3
    63          3
    65          0
    67          3
    68          7
    69         89
    70          8
    71         70
    72          8
    73        450
    74         43
    75        999
    76         73
    77         82
    78          4
    79          2
    81          8
    82          1
    83         57
    84          3
    85        129
    86         10
    87         11
    88          5
    89        275
    90         24
    91         16
    92          1
    93         13
    94          1
    95         45
    96          2
    97         93
    98          8
    99         25
   100        252
   101        179
   102         14
   103        107
   104          9
   105         76
   106          6
   107          4
   108          2
   109          4
   111         10
   112          1
   113         45
   114          5
   115         53
   116         43
   117        885
   118         89
   119         42
   120          2
   121         10
   122          0
   123          1
   125          6
   126          2
   127         15
   128          3
   129        338
   130         33
   131        286
   132         28
   133         37
   134          4
   135          1
   137          9
   138          0
   139          2
   141          6
   142          4
   143        199
   144         26
   145         53
   146          6
   147        115
   148         11
   149          5
   153          0
   155          6
   156          0
   157          7
   158          2
   159        163
   160         19
   161        106
   162         13
   163          5
   165          0
   168          0
   169          4
   170          0
   171        355
   172         55
   173         29
   174          4
   175         25
   176          3
   177          1
   181          1
   182          1
   183          3
   184          1
   185          5
   186          1
   187         15
   189        376
   190         46
   191         18
   192          1
   195          0
   199          8
   200          2
   201         11
   202          2
   203         12
   204          1
   205          3
   206          0
   211         18
   212          2
   213         22
   214          3
   215          1
   217          0
   229        121
   230         22
   231         20
   232          2
   233          1
   241          4
   242          0
   243          0
   247        357
   248         58
   249         20
   250          2
   251          0
   253          0
   261          4
   262          2
   271          2
   272          0
   289        128
   290         21
   291          7
   292          0