##TITLE=Library Entry 12521
##JCAMP-DX=Revision 4.10 
##DATA TYPE=MASS SPECTRUM
##SAMPLE DESCRIPTION=A.A.Kutin, Moscow, Russia
##NAMES=HP
##CAS NAME=Butanoic acid, 2-(4-nitrobenzoyl)-3-oxo-, methyl ester
##MOLFORM=C12H11NO6
##CAS REGISTRY NO=85963-91-3
##MP= -300
##BP= -300
##MW= 265
##$RETENTION INDEX=0
##$CONDENSED SPECTRUM=NO
##NPOINTS= 165
##XYDATA=(XY..XY) 1 
    33         21
    34          3
    36          6
    37         32
    38         66
    39        178
    40         71
    41         35
    43        999
    44         72
    46         69
    50        358
    51        178
    52         28
    53         66
    54         10
    55         29
    56          4
    57          8
    59         63
    61         24
    62         63
    63        124
    64         73
    65        300
    66         33
    67         32
    69        176
    70          8
    71          4
    73         26
    74        143
    75        225
    76        325
    77        120
    78         29
    79         13
    80          5
    81         38
    82          6
    83          6
    84          6
    85          8
    86         11
    87         18
    88         25
    89         72
    90         29
    91         53
    92        170
    93         32
    94          4
    96          0
    97          1
    98          3
    99          6
   100          6
   101         22
   102         15
   103         70
   104        256
   105         66
   106         12
   107          7
   109         42
   110          4
   111         19
   112          1
   113          6
   114          2
   115          5
   116          8
   117         11
   118          9
   119         63
   120         99
   121         72
   122         15
   123          2
   125          1
   127          1
   128          6
   129          4
   130          4
   131         11
   132          7
   133         13
   134         20
   135          6
   136          6
   137         32
   139         35
   140          4
   141         11
   142          0
   143         21
   144          4
   145         12
   146         17
   147          9
   148          9
   150        649
   151         52
   152          6
   153          1
   155          3
   157          4
   158          3
   159          9
   160          3
   161          3
   162          5
   163         24
   164          4
   165          5
   167        104
   168          8
   169          1
   171          1
   172          7
   173          2
   174          5
   175          6
   176          4
   177         12
   178          2
   182          0
   183          4
   185          5
   186         18
   187         17
   188         12
   189          4
   190          3
   191         22
   192         36
   193          3
   200          0
   201          0
   202          4
   203          7
   204          4
   205         23
   206          5
   215          0
   216         78
   217         14
   218         13
   219          4
   222          0
   223         44
   224          5
   230          0
   232         20
   233         21
   234         18
   235          4
   248         87
   249         14
   250         44
   251          4
   252          1
   264         32
   265         28
   266          4