##TITLE=Library Entry 70070
##JCAMP-DX=Revision 4.10 
##DATA TYPE=MASS SPECTRUM
##SAMPLE DESCRIPTION=R.E.Ardrey ET AL.Pharmaceutical Mass Spectra,L.,1985
##NAMES=HP
##CAS NAME=Thenalidine
##MOLFORM=C17H22N2S
##CAS REGISTRY NO=86-12-4
##MP= -300
##BP= -300
##MW= 286
##$RETENTION INDEX=2256
##$CONDENSED SPECTRUM=NO
##NPOINTS= 57
##XYDATA=(XY..XY) 1 
    27         30
    29         70
    30         40
    31         40
    39         40
    41         30
    42        270
    43        490
    44        270
    45         70
    51         40
    53         50
    54         20
    55        160
    56         30
    57         50
    58         60
    59         30
    60         10
    65         10
    68         20
    69         20
    70        550
    71        260
    72         20
    76        130
    77        130
    78         10
    82        110
    83         10
    84         10
    88         10
    91         20
    94         10
    95         20
    96        250
    97        999
    98        330
    99        520
   100         30
   104         40
   105         30
   113         30
   117         10
   118         30
   119         10
   130         10
   132         20
   143         20
   146         70
   147         10
   187         10
   188        260
   189        120
   190         30
   286         60
   287         20