##TITLE=Library Entry 77799
##JCAMP-DX=Revision 4.10 
##DATA TYPE=MASS SPECTRUM
##SAMPLE DESCRIPTION=NIST Mass Spectrometry Data Center, 1990.
##NAMES=HP
##CAS NAME=Phensuximide
##MOLFORM=C11H11NO2
##CAS REGISTRY NO=86-34-0
##MP= -300
##BP= -300
##MW= 189
##$RETENTION INDEX=1612
##$CONDENSED SPECTRUM=NO
##NPOINTS= 53
##XYDATA=(XY..XY) 1 
    14          4
    15          4
    26          4
    27         13
    28         28
    29          9
    38          8
    39         29
    40          4
    41          2
    42          6
    44          6
    50         41
    51         93
    52         32
    53          6
    55          5
    56         15
    57          5
    58          7
    61          3
    62         12
    63         33
    64          7
    65         11
    66          2
    70          3
    73          1
    74         16
    75         16
    76         30
    77        132
    78        173
    79         10
    87          3
    89         19
    90          7
    91          9
    98          2
   102         53
   103        193
   104        999
   105         83
   106          3
   117          2
   118          7
   131          6
   132          3
   160          2
   161          5
   187          7
   189        226
   190         29