##TITLE=Library Entry 56502
##JCAMP-DX=Revision 4.10 
##DATA TYPE=MASS SPECTRUM
##SAMPLE DESCRIPTION=Tox21 Consortium/NIST Mass Spectrometry Data Center, 20
12
##NAMES=HP
##CAS NAME=Benzoic acid, 4-amino-2-propoxy-, 2-(diethylamino)ethyl ester
##MOLFORM=C16H26N2O3
##CAS REGISTRY NO=86-43-1
##MP= -300
##BP= -300
##MW= 294
##$RETENTION INDEX=0
##$CONDENSED SPECTRUM=NO
##NPOINTS= 117
##XYDATA=(XY..XY) 1 
    15          1
    17          2
    18          4
    26          2
    27         20
    28         23
    29         23
    30         34
    31          1
    34          1
    35          1
    36          1
    38          1
    39          8
    40          2
    41         27
    42         33
    43         23
    44         28
    45          3
    47          1
    50          1
    51          3
    52         11
    53         11
    54          7
    55          5
    56         49
    57         11
    58         53
    59          2
    60          1
    63          6
    64          4
    65         10
    66          3
    67          2
    68          8
    69          4
    70         31
    71         73
    72         18
    73          4
    74          1
    75          2
    77          3
    78          6
    79         20
    80         54
    81          6
    82          2
    83          1
    84         55
    86        999
    87         58
    88          2
    89          1
    90          2
    91          9
    92         10
    93          4
    94          2
    96          4
    97          6
    99        405
   100         53
   101          4
   102          6
   103          1
   104          2
   105          1
   106          8
   107         17
   108          8
   109          4
   110          1
   111          3
   114          3
   116          6
   117          1
   119          3
   120          9
   121          3
   122          3
   124          1
   125          1
   128          1
   130          1
   133          1
   134          4
   135         23
   136        138
   137         11
   138          2
   139          1
   148          5
   149          2
   150          8
   151          1
   152          1
   153          2
   160          2
   161          1
   162          1
   164          1
   165          1
   167          1
   176          1
   177          1
   178         67
   179         12
   180          4
   193          1
   195          1
   222          5
   223          1
   236          1