##TITLE=Library Entry 29415
##JCAMP-DX=Revision 4.10 
##DATA TYPE=MASS SPECTRUM
##SAMPLE DESCRIPTION=R.E.Ardrey ET AL.Pharmaceutical Mass Spectra,L.,1985
##NAMES=HP
##CAS NAME=Amodiaquine
##MOLFORM=C20H22ClN3O
##CAS REGISTRY NO=86-42-0
##MP= -300
##BP= -300
##MW= 355
##$RETENTION INDEX=0
##$CONDENSED SPECTRUM=NO
##NPOINTS= 61
##XYDATA=(XY..XY) 1 
    27         60
    28        130
    29        110
    30        660
    39         10
    41         20
    42         50
    43         20
    44        250
    51         10
    56         30
    58        999
    59         30
    72        230
    73        280
    74        170
    75         10
    77         10
    86         20
    95         10
    99         20
   109         10
   124         10
   127         10
   135         20
   162         10
   163         10
   170         40
   171         20
   177         10
   190         10
   191         10
   205         10
   216         10
   217         20
   218        120
   219         60
   220         20
   227         10
   228         10
   229         10
   234         10
   239         20
   246         10
   247         50
   248         30
   253        160
   254        110
   255         60
   256         30
   268         10
   270         20
   282        700
   283        250
   284        370
   285        100
   286         40
   355        320
   356         80
   357        110
   358         20