##TITLE=Library Entry 38861
##JCAMP-DX=Revision 4.10 
##DATA TYPE=MASS SPECTRUM
##SAMPLE DESCRIPTION=AAFS Toxicology Section MS DB Committee, U. Alberta, Ca
nada
##NAMES=HP
##CAS NAME=Quinisocaine
##MOLFORM=C17H24N2O
##CAS REGISTRY NO=86-80-6
##MP= -300
##BP= -300
##MW= 272
##$RETENTION INDEX=2030
##$CONDENSED SPECTRUM=NO
##NPOINTS= 103
##XYDATA=(XY..XY) 1 
    48          2
    50          3
    51          8
    52          4
    53          4
    54          8
    55         17
    56        124
    58        581
    59         24
    62         11
    63         31
    64          6
    65          9
    70        103
    71        999
    72        139
    73          5
    74          5
    75         16
    76         17
    77         46
    78         12
    79          2
    80          2
    85          5
    87         10
    88         29
    89        124
    90         31
    91         14
    92          3
    99          2
   100          7
   101         24
   102         41
   103         83
   104         16
   105          3
   113         30
   114         86
   115        205
   116        120
   117         24
   118         15
   125          4
   126         14
   127         68
   128         72
   129         34
   130         66
   131         87
   132         20
   133          2
   137          2
   139         13
   140        161
   141         89
   142        124
   143         75
   144         19
   145          8
   146          5
   150          4
   152         17
   153         16
   154         68
   155         25
   156         16
   157          9
   158         72
   159        452
   160         48
   161          4
   165          6
   166         19
   167         40
   168         30
   169         12
   170         12
   171         43
   172         46
   173         11
   180          6
   181          6
   182         20
   183         10
   184         54
   185         20
   186         12
   196          4
   197          2
   198         14
   199          8
   200          4
   201        116
   202         54
   203          6
   212          4
   213         12
   214          5
   226          5
   228         11