##TITLE=Library Entry 65167
##JCAMP-DX=Revision 4.10 
##DATA TYPE=MASS SPECTRUM
##SAMPLE DESCRIPTION=F. TURECEK,HEYROVSKY INST PHYS CHEM & ELECTROCHEM,PRAGU
E,CZECH
##NAMES=HP
##CAS NAME=Bicyclo[4.4.1]undeca-2,4,8-triene
##MOLFORM=C11H14
##CAS REGISTRY NO=86067-58-5
##MP= -300
##BP= -300
##MW= 146
##$RETENTION INDEX=0
##$CONDENSED SPECTRUM=NO
##NPOINTS= 57
##XYDATA=(XY..XY) 1 
    26          8
    27         79
    29          9
    37          2
    38         12
    39        160
    40         24
    41         69
    42          3
    50         27
    51         82
    52         28
    53         43
    54         11
    55         13
    61          3
    62         13
    63         44
    64         17
    65        140
    66         36
    67         43
    68        175
    69         15
    74          6
    75          6
    76          6
    77        120
    78         59
    79        190
    80        160
    81         22
    89         23
    90          8
    91        950
    92        999
    93         78
    94          3
   102          8
   103         32
   104        158
   105         94
   106          8
   115         52
   116         20
   117         92
   118         36
   119          6
   127         12
   128         27
   129         24
   130          7
   131         77
   132          8
   145          9
   146         86
   147         10