##TITLE=Library Entry 76963
##JCAMP-DX=Revision 4.10 
##DATA TYPE=MASS SPECTRUM
##SAMPLE DESCRIPTION=Institute of Organic Chemistry, Novosibirsk, USSR 1988
##NAMES=HP
##CAS NAME=4-Phenyltetrahydro-1,3-oxazine-2-thione
##MOLFORM=C10H11NOS
##CAS REGISTRY NO=86071-92-3
##MP= -300
##BP= -300
##MW= 193
##$RETENTION INDEX=0
##$CONDENSED SPECTRUM=NO
##NPOINTS= 110
##XYDATA=(XY..XY) 1 
    26          7
    27         42
    28        140
    29         75
    30          8
    31          2
    32         31
    33          6
    34          6
    35          1
    36          8
    37          4
    38         16
    39        121
    40         19
    41        164
    42         40
    43        133
    44         30
    45         39
    46          8
    49          7
    50        238
    51        520
    52          8
    53         80
    54         62
    55        235
    56        159
    57        272
    58         49
    59        331
    60         82
    61         80
    62        109
    63        282
    64         71
    65        204
    66         60
    67         15
    68         62
    69         25
    70         11
    71         18
    73          4
    74          8
    75        101
    76        139
    77        760
    78        862
    79        228
    80         43
    81         11
    82         50
    83         25
    84         39
    85         58
    86         46
    87         24
    89        122
    90         60
    91        439
    92        170
    93         40
    95         69
    96         35
    97         42
   101          8
   102        100
   103        461
   104        999
   105        584
   106         71
   107          5
   109         38
   110          4
   111         40
   115        200
   116        144
   117        462
   118         80
   119         39
   120          7
   121         77
   122         60
   123         28
   128         41
   129         35
   130         44
   131         59
   132        111
   133         64
   134          9
   135          2
   136         42
   137          8
   142         41
   143         84
   144          7
   148         15
   149          7
   150          5
   159         40
   160         52
   161         51
   162          8
   193        463
   194         90
   195         39
   196          8