##TITLE=Library Entry 76949
##JCAMP-DX=Revision 4.10 
##DATA TYPE=MASS SPECTRUM
##SAMPLE DESCRIPTION=Institute of Organic Chemistry, Novosibirsk, USSR 1988
##NAMES=HP
##CAS NAME=6-Phenyltetrahydro-1,3-oxazine-2-thione
##MOLFORM=C10H11NOS
##CAS REGISTRY NO=86071-93-4
##MP= -300
##BP= -300
##MW= 193
##$RETENTION INDEX=0
##$CONDENSED SPECTRUM=NO
##NPOINTS= 113
##XYDATA=(XY..XY) 1 
    26          8
    27         40
    28        122
    29         27
    30         30
    31          8
    32          9
    33         11
    34          2
    36         10
    37          5
    38          9
    39         51
    40          7
    41         40
    42        178
    43         35
    44         43
    45         13
    49          6
    50         64
    51        211
    52         36
    53         15
    54         23
    55        126
    56         61
    57         46
    58         11
    59         11
    60         65
    61         23
    62         15
    63         31
    64         11
    65         48
    66          8
    67          7
    68         20
    69         10
    70         25
    71          7
    72         16
    73          8
    74         25
    75         24
    76         40
    77        585
    78        226
    79         39
    80          9
    81         10
    82         20
    83         11
    84         24
    85          7
    87          9
    88         39
    89         31
    90         16
    91        156
    92         36
    93          5
   100          6
   101         65
   102        136
   103        154
   104        999
   105        251
   106         22
   107          4
   109         14
   110          5
   111          1
   113          1
   114          8
   115        121
   116        105
   117        303
   118        154
   119         58
   120         59
   121         32
   122          8
   123          9
   128          7
   129         22
   130         24
   131         39
   132         62
   133        133
   134         33
   135         27
   136          6
   137          5
   146          4
   147         34
   148         24
   149          8
   158         11
   159         23
   160         62
   161        147
   162         37
   163          8
   164          5
   165         10
   166          4
   192          7
   193        421
   194         73
   195         23
   196          6