##TITLE=Library Entry 97233
##JCAMP-DX=Revision 4.10 
##DATA TYPE=MASS SPECTRUM
##SAMPLE DESCRIPTION=Institute of Organic Chemistry, Novosibirsk, USSR 1988
##NAMES=HP
##CAS NAME=5-Methyl-6-phenyltetrahydro-1,3-oxazine-2-thione
##MOLFORM=C11H13NOS
##CAS REGISTRY NO=86071-95-6
##MP= -300
##BP= -300
##MW= 207
##$RETENTION INDEX=0
##$CONDENSED SPECTRUM=NO
##NPOINTS= 111
##XYDATA=(XY..XY) 1 
    25          4
    26         26
    27         92
    28        110
    29        151
    30        123
    31         69
    32         18
    37          2
    38          3
    39        300
    40         39
    41        343
    42        145
    43        232
    44         94
    45         55
    46          2
    47          2
    50        114
    51        287
    52          8
    53         97
    54         48
    55        335
    56        166
    57        493
    58         95
    59        352
    60        144
    61         66
    62          7
    63        165
    64         64
    65        261
    66         20
    67         19
    68          8
    69         42
    70         20
    71         38
    72          2
    73          8
    74         31
    75         76
    76         79
    77        827
    78        280
    79        641
    80         84
    81         22
    82         12
    83          3
    84         11
    85         79
    86         24
    87         46
    89        118
    90         52
    91        987
    92        116
    93          8
    94         42
    95        207
    96        124
    97        208
    98          8
    99          6
   101          3
   102         84
   103        131
   104        111
   105        207
   106        165
   107         80
   108          8
   111         91
   112         23
   113         40
   115        402
   116        182
   117        999
   118        642
   119        114
   121         71
   122          5
   124          2
   125         41
   127         27
   128         40
   129         47
   130         44
   131         76
   132         87
   133         45
   135          2
   144          3
   145          2
   146         42
   147         44
   148         29
   149          3
   151          2
   152          2
   153          2
   163          2
   174         54
   175         25
   207        162
   208         20
   209          2