##TITLE=Library Entry 24961
##JCAMP-DX=Revision 4.10 
##DATA TYPE=MASS SPECTRUM
##SAMPLE DESCRIPTION=Chuck Anderson, Aldrich Chemical Co.
##NAMES=HP
##CAS NAME=(S)-(+)-3-Hydroxytetrahydrofuran
##MOLFORM=C4H8O2
##CAS REGISTRY NO=86087-23-2
##MP= -300
##BP= -300
##MW= 88
##$RETENTION INDEX=0
##$CONDENSED SPECTRUM=NO
##NPOINTS= 47
##XYDATA=(XY..XY) 1 
    13          1
    14         10
    15         36
    16          4
    17          0
    18          1
    19          3
    25          2
    26         25
    27         93
    28        140
    29        341
    30        191
    31        413
    32         85
    33         10
    36          1
    37         11
    38         20
    39        125
    40         93
    41        104
    42        116
    43        220
    44        158
    47          3
    49          1
    50          1
    51          0
    52          0
    53          0
    55         16
    56          3
    57        999
    58        640
    59         37
    60         71
    61          8
    68          1
    69          8
    70        139
    71          0
    72          0
    87          5
    88         97
    89          5
    90          0