##TITLE=Library Entry 64205
##JCAMP-DX=Revision 4.10 
##DATA TYPE=MASS SPECTRUM
##SAMPLE DESCRIPTION=K. Kirk, LC, NIDDK, NIH, Bethesda, MD 20892
##NAMES=HP
##CAS NAME=Benzeneethanamine, 4-benzyloxy-3-ethoxy-.beta.-hydroxy-
##MOLFORM=C17H21NO3
##CAS REGISTRY NO=86153-41-5
##MP= -300
##BP= -300
##MW= 287
##$RETENTION INDEX=0
##$CONDENSED SPECTRUM=NO
##NPOINTS= 104
##XYDATA=(XY..XY) 1 
    41         10
    42          5
    43         13
    44          9
    45          3
    49          3
    50          5
    51         18
    52         10
    53         17
    54          9
    55         10
    56          0
    57          2
    58          1
    59          0
    60          2
    62          3
    63         14
    64          7
    65        107
    66         14
    67          4
    68          1
    69          2
    71          0
    73          3
    75          2
    76          1
    77         13
    78          5
    79          7
    80          3
    81         18
    82         17
    83          4
    84          2
    86          1
    89         14
    91        999
    92         75
    93         65
    94         11
    95          5
    97          1
   104          2
   105          5
   106          3
   107          3
   109          5
   110          6
   111         30
   112          3
   115          2
   118          1
   119          5
   120          2
   121          9
   122         27
   123         10
   124          1
   133          1
   134          1
   135          2
   137         10
   138          7
   139         13
   140          2
   141          3
   149          2
   150          2
   151         16
   152          3
   153          2
   155          3
   164          2
   165         19
   166          8
   167         54
   168          7
   169          1
   178          2
   179          2
   180          1
   181          2
   183         14
   184          3
   197          1
   201          0
   211          7
   229          2
   246          5
   255          2
   256         38
   257        556
   258        134
   259         18
   260          2
   262          1
   270         15
   271          4
   287         78
   288         19
   289          3