##TITLE=Library Entry 64197
##JCAMP-DX=Revision 4.10 
##DATA TYPE=MASS SPECTRUM
##SAMPLE DESCRIPTION=K. Kirk, LC, NIDDK, NIH, Bethesda, MD 20892
##NAMES=HP
##CAS NAME=Benzeneethanol, 4-benzyloxy-3-ethoxy-.beta.-hydroxy-
##MOLFORM=C17H20O4
##CAS REGISTRY NO=86153-43-7
##MP= -300
##BP= -300
##MW= 288
##$RETENTION INDEX=0
##$CONDENSED SPECTRUM=NO
##NPOINTS= 66
##XYDATA=(XY..XY) 1 
    41          6
    43          8
    50          6
    51         19
    52         12
    53         18
    54         10
    55         14
    62          2
    63         17
    65        147
    66         19
    67          8
    76          2
    77         18
    78          5
    79         11
    81         33
    82         20
    83         18
    89         31
    90         11
    91        999
    92         79
    93         80
    94         16
    95         15
   105         11
   107         12
   109         11
   110         10
   111        114
   112          8
   119          4
   121         18
   122         35
   123         42
   124          2
   133         14
   135          2
   136          2
   137         13
   138          2
   139         44
   140          1
   149          4
   151         41
   152          7
   153          2
   155          1
   162          4
   163          1
   165         21
   167         21
   179          2
   181          2
   183          5
   197         10
   211          2
   252          1
   257        238
   258         41
   259          6
   270          7
   288        141
   289         27