##TITLE=Library Entry 15882
##JCAMP-DX=Revision 4.10 
##DATA TYPE=MASS SPECTRUM
##SAMPLE DESCRIPTION=Div. of Experiment Therapeutics WRAIR, WRAMC, Washingto
n DC 20307
##NAMES=HP
##CAS NAME=4-Biguanidoantipyrine
##MOLFORM=C13H17N7O
##CAS REGISTRY NO=86166-20-3
##MP= -300
##BP= -300
##MW= 287
##$RETENTION INDEX=0
##$CONDENSED SPECTRUM=NO
##NPOINTS= 101
##XYDATA=(XY..XY) 1 
    42         83
    43        387
    44        999
    45         21
    46          1
    49          7
    51         33
    53         22
    54         16
    56        386
    57         82
    59         73
    60         68
    61          1
    63         11
    64         19
    65         12
    67         23
    68         22
    69          3
    70         52
    71          1
    73          3
    77         52
    78          6
    79          2
    81          1
    82          2
    83         98
    84        115
    86        473
    87          5
    89          1
    90          1
    91         25
    92          2
    93         32
    94          1
    95          5
    96          1
    97          3
    98          2
    99          1
   104          5
   106         12
   108          6
   109         18
   110          7
   111          4
   112         25
   118          8
   119         18
   120          1
   121          4
   122          2
   123          2
   124          6
   125          4
   126         57
   135          1
   136          6
   137          2
   138          2
   140          2
   144         15
   145          7
   146          1
   147          1
   149          1
   151         23
   153        244
   154         13
   161          6
   166          2
   167         27
   168         86
   169          2
   171          1
   185          3
   186          1
   187          5
   192          2
   195         11
   199          4
   202          4
   203         32
   204          3
   206          1
   213          2
   216          6
   227          2
   228         17
   229          5
   230          3
   231          2
   245         31
   246          7
   271          5
   287        152
   288         35
   289          2