##TITLE=Library Entry 109458
##JCAMP-DX=Revision 4.10 
##DATA TYPE=MASS SPECTRUM
##SAMPLE DESCRIPTION=Humboldt-Universitat zu Berlin, Department of Chemistry
, Analytical Group
##NAMES=HP
##CAS NAME=Benzeneethanethiamide, 4-chloro-N,N-diethyl
##MOLFORM=C12H16ClNS
##CAS REGISTRY NO=86170-17-4
##MP= -300
##BP= -300
##MW= 241
##$RETENTION INDEX=0
##$CONDENSED SPECTRUM=NO
##NPOINTS= 204
##XYDATA=(XY..XY) 1 
    30        105
    31         48
    32        147
    33          7
    34          6
    35         22
    36         17
    37         33
    38         65
    39        238
    40         35
    41        196
    42        329
    43        234
    44        697
    45        238
    46         26
    47         38
    48          7
    49         29
    50        170
    51        184
    52        102
    53         15
    54         53
    55         31
    56        131
    57         60
    58        159
    59        110
    60        513
    61        390
    62        103
    63        251
    64         42
    65         45
    66         16
    67         19
    68         11
    69         61
    70        110
    71         28
    72        173
    73         85
    74         94
    75        133
    76         46
    77        137
    78        342
    79         29
    80          3
    81         10
    82         19
    83         11
    84         18
    85         22
    86         85
    87         46
    88        804
    89        564
    90        186
    91        229
    92         14
    93         33
    94          7
    95          8
    96          7
    97         18
    98        285
    99        138
   100         59
   101         77
   102        228
   103         54
   104         19
   105         10
   106          7
   107          7
   108         21
   109          7
   110          6
   111         20
   112         22
   113         12
   114         28
   115         43
   116        873
   117         96
   118         44
   119          8
   121         48
   122         22
   123         47
   124         33
   125        999
   126        105
   127        332
   128         41
   129         10
   130         16
   131          6
   132         18
   133        122
   134        320
   135         58
   136         35
   137         18
   138         53
   139        177
   140         32
   141         58
   142          9
   143         11
   144         14
   145          7
   146          6
   147          6
   148         13
   149         20
   150         37
   151        110
   152         88
   153         69
   154         69
   155         47
   156         24
   157         72
   158         28
   159         24
   160          6
   161          5
   162         18
   163          6
   164         16
   165          6
   166         10
   167          5
   168        138
   169         98
   170         61
   171         49
   172         11
   173         15
   174          4
   175          2
   176          6
   177         14
   178          8
   179         80
   180         80
   181         35
   182         28
   183          9
   184          7
   185          3
   186          2
   190         17
   191          9
   192          6
   193          4
   194          6
   195          2
   196          6
   197          3
   198          1
   199          1
   200         16
   201          2
   202          7
   203          1
   204          0
   205          5
   206         10
   207          6
   208        140
   209         25
   210         48
   211          9
   212         46
   213         14
   214         17
   215          6
   216         42
   217          6
   218         16
   219          2
   220          1
   224          0
   225          2
   226          3
   227          3
   228          1
   229          1
   230          7
   231          1
   232          3
   238          1
   240         32
   241        414
   242         72
   243        144
   244         21
   245          7
   246          0