##TITLE=Library Entry 84618
##JCAMP-DX=Revision 4.10 
##DATA TYPE=MASS SPECTRUM
##SAMPLE DESCRIPTION=A.Pleshkova, Nesmeyanov Inst.Org.Elem.Cpds, Moscow
##NAMES=HP
##CAS NAME=N-(2-Propynyl)-N,N-di(2-propenyl)amine
##MOLFORM=C9H13N
##CAS REGISTRY NO=86199-28-2
##MP= -300
##BP= -300
##MW= 135
##$RETENTION INDEX=0
##$CONDENSED SPECTRUM=NO
##NPOINTS= 39
##XYDATA=(XY..XY) 1 
    38         12
    39        307
    40         36
    41        883
    42        218
    43         21
    52         12
    53         50
    54         79
    55         53
    56         50
    57          6
    65         53
    66         98
    67         84
    68         84
    77         53
    78         12
    79         60
    80         36
    81         12
    82         12
    91         12
    92         24
    93         53
    94        221
    95         12
    96         53
   106         91
   107         19
   108        999
   109         60
   110         43
   111          7
   118         50
   120         43
   134         89
   135        190
   136         20