##TITLE=Library Entry 30355
##JCAMP-DX=Revision 4.10 
##DATA TYPE=MASS SPECTRUM
##SAMPLE DESCRIPTION=F.K. CARTLEDGE, DEP. CHEM., LA. STATE UNIV., BATON ROUG
E, USA
##NAMES=HP
##CAS NAME=1,1,4,4-Tetramethylsilacyclohexane
##MOLFORM=C9H20Si
##CAS REGISTRY NO=86236-96-6
##MP= -300
##BP= -300
##MW= 156
##$RETENTION INDEX=0
##$CONDENSED SPECTRUM=NO
##NPOINTS= 18
##XYDATA=(XY..XY) 1 
    53        110
    55        270
    58        430
    59        999
    71        150
    72        610
    73        600
    85        470
    86        170
    87        140
    99        330
   100        750
   113        500
   114        170
   128        650
   129        100
   141        280
   156        130