##TITLE=Library Entry 17105
##JCAMP-DX=Revision 4.10 
##DATA TYPE=MASS SPECTRUM
##SAMPLE DESCRIPTION=Dennis Rohrbaugh, CBDCOM/ERDEC, Edgewood, MD
##NAMES=HP
##CAS NAME=1-(2-Hydroxyethoxy)-2-(vinylthio)ethane
##MOLFORM=C6H12O2S
##CAS REGISTRY NO=86241-10-3
##MP= -300
##BP= -300
##MW= 148
##$RETENTION INDEX=0
##$CONDENSED SPECTRUM=NO
##NPOINTS= 22
##XYDATA=(XY..XY) 1 
    43         78
    44         68
    45        999
    46         55
    47         73
    57         38
    58        168
    59        246
    60        136
    61         68
    73         86
    74         34
    75         55
    85         41
    86         24
    87        180
    88         46
    89         23
   102         30
   104          2
   117         12
   148         41