##TITLE=Library Entry 7254
##JCAMP-DX=Revision 4.10 
##DATA TYPE=MASS SPECTRUM
##SAMPLE DESCRIPTION=J. Klune, Insect Chem. Ecol. Lab., USDA, Beltsville, MD
 20705
##NAMES=HP
##CAS NAME=Z,Z-3,14-Octadecadien-1-ol acetate
##MOLFORM=C20H36O2
##CAS REGISTRY NO=86252-66-6
##MP= -300
##BP= -300
##MW= 308
##$RETENTION INDEX=0
##$CONDENSED SPECTRUM=NO
##NPOINTS= 130
##XYDATA=(XY..XY) 1 
    41        573
    42         89
    43        999
    44         41
    50          4
    52          8
    53         92
    54        317
    55        693
    56         73
    57         65
    58          5
    61         20
    65         44
    66         46
    67        641
    68        460
    69        283
    70         30
    71         15
    72          5
    73         35
    74          4
    77         34
    78         23
    79        167
    80        226
    81        530
    82        505
    83        189
    84         17
    85         14
    87          4
    91         15
    92         19
    93        108
    94        155
    95        394
    96        372
    97        123
    98          5
   101          2
   103          2
   106          9
   107         95
   108         97
   109        216
   110        143
   111         26
   112          1
   118          2
   120         10
   121        138
   122         88
   123        108
   124         62
   125          4
   126          4
   128          3
   134          6
   135        130
   136         61
   137         40
   138         33
   140          2
   145          2
   147          3
   148          2
   149         79
   150         32
   151         17
   152         36
   153         11
   154          2
   155          3
   156          2
   157          2
   161          2
   163         46
   164         16
   165          3
   166         23
   167          2
   168          4
   169          2
   173          3
   175          2
   176          2
   177         32
   178         16
   179         77
   180         28
   181          9
   182          2
   183          3
   185          2
   189          2
   191         23
   192         14
   194         25
   195          6
   198          5
   203          2
   205         39
   206         14
   208          3
   209          3
   210          7
   211          2
   214          5
   215          5
   219         43
   220         17
   221          3
   226          4
   233          8
   236          6
   237          7
   239          2
   240          1
   241          2
   248        126
   249         26
   264          7
   265          8
   279          8
   280          4
   293          4
   308          8
   309          2