##TITLE=Library Entry 46533
##JCAMP-DX=Revision 4.10 
##DATA TYPE=MASS SPECTRUM
##SAMPLE DESCRIPTION=Chemical Concepts
##NAMES=HP
##CAS NAME=1-Phenyl-5-(.alpha.,.beta.-dibromophenethyl)-1H-tetrazole
##MOLFORM=C15H12Br2N4
##CAS REGISTRY NO=86269-41-2
##MP= -300
##BP= -300
##MW= 406
##$RETENTION INDEX=0
##$CONDENSED SPECTRUM=NO
##NPOINTS= 95
##XYDATA=(XY..XY) 1 
    38        488
    40         34
    41         36
    42          4
    43          4
    44          1
    50        967
    52         96
    53         14
    54          2
    55          2
    56          1
    57          5
    60          2
    63        452
    64        230
    65        164
    66         11
    74         97
    77        999
    78         65
    79         22
    80         19
    81         21
    82         16
    83          2
    86         24
    87         30
    89        160
    90        111
    91        181
    92         13
    93          1
    95          3
    96          2
    98          7
    99          7
   102        202
   103        117
   104         15
   105          5
   109         22
   111          1
   113         15
   115         90
   116         81
   117         39
   118         13
   119          1
   128         62
   129         57
   130          5
   139          2
   140          2
   142         16
   143         30
   144          2
   152          2
   155          1
   160          1
   163          2
   165         18
   166          3
   167          2
   169          9
   171          7
   172          1
   178          2
   180          4
   182         18
   184         16
   185          1
   189          3
   190          2
   191          5
   193         35
   194          4
   195          1
   196          1
   197          1
   204          1
   205          1
   206          1
   208          1
   209          2
   210          1
   211          1
   216          1
   219        205
   220         22
   221          2
   247         33
   248          5
   327          1
   329          1