##TITLE=Library Entry 45331
##JCAMP-DX=Revision 4.10 
##DATA TYPE=MASS SPECTRUM
##SAMPLE DESCRIPTION=V.G.Zaikin, TIPS RAS, Moscow, Russia
##NAMES=HP
##CAS NAME=3-Octen-2-ol, (E)-, TMS derivative
##MOLFORM=C11H24OSi
##CAS REGISTRY NO=86297-58-7
##MP= -300
##BP= -300
##MW= 200
##$RETENTION INDEX=0
##$CONDENSED SPECTRUM=NO
##NPOINTS= 93
##XYDATA=(XY..XY) 1 
    37         20
    38         30
    39        240
    40         68
    41        325
    42         88
    43        230
    44         45
    45        197
    46         15
    47         88
    48          6
    49          8
    50         25
    51         40
    52         30
    53        110
    54        108
    55        180
    56         45
    57         42
    58         30
    59        115
    60         20
    61         65
    63         15
    65         35
    66         45
    67        230
    68        100
    69        143
    70         25
    71         20
    72         20
    73        950
    74         93
    75        999
    76         75
    77         68
    78         13
    79         52
    80         13
    81        130
    82         47
    83         20
    84          8
    85         20
    87          9
    91         17
    93         17
    95         48
    96          6
    97         13
    99         20
   101         18
   103         23
   109         13
   110         65
   111        120
   112         13
   113         30
   115         41
   117         65
   127         40
   128         15
   129        180
   130        160
   131         40
   132          8
   133         15
   141         25
   142         32
   143        760
   144        130
   145         39
   146          7
   147         39
   148          6
   149         13
   155          6
   156          6
   157        148
   158         33
   159          8
   171         19
   184          5
   185        242
   186         45
   187         10
   199         20
   200         55
   201          8
   202          1