##TITLE=Library Entry 35145
##JCAMP-DX=Revision 4.10 
##DATA TYPE=MASS SPECTRUM
##SAMPLE DESCRIPTION=V.G.Zaikin, TIPS, Russian Acad. Sci.
##NAMES=HP
##CAS NAME=Di(1-methylcyclobutyl) ether
##MOLFORM=C10H18O
##CAS REGISTRY NO=86301-90-8
##MP= -300
##BP= -300
##MW= 154
##$RETENTION INDEX=0
##$CONDENSED SPECTRUM=NO
##NPOINTS= 19
##XYDATA=(XY..XY) 1 
    53         20
    58        200
    59         20
    67         50
    68         80
    69        999
    70         60
    71         20
    86         45
    88         40
    96         15
    97         20
    98        100
   109         15
   111         20
   126         40
   127          4
   139          1
   154          1