##TITLE=Library Entry 88163
##JCAMP-DX=Revision 4.10 
##DATA TYPE=MASS SPECTRUM
##SAMPLE DESCRIPTION=NIST Mass Spectrometry Data Center, 1994
##NAMES=HP
##CAS NAME=3-(t-Octylamino)propionitrile
##MOLFORM=C11H22N2
##CAS REGISTRY NO=86375-28-2
##MP= -300
##BP= -300
##MW= 182
##$RETENTION INDEX=0
##$CONDENSED SPECTRUM=NO
##NPOINTS= 54
##XYDATA=(XY..XY) 1 
    14          4
    15         24
    26          7
    27         68
    28         53
    29        129
    30        131
    31          2
    39         79
    40         23
    41        244
    42        163
    43         45
    44         10
    48          8
    50          2
    51          5
    52          6
    53         21
    54         33
    55         70
    56         69
    57        212
    58         42
    59          2
    65          3
    66          2
    67          7
    68         10
    69          2
    70        394
    71         77
    72          4
    77          2
    79          3
    80          2
    82         45
    83          5
    84         17
    85          6
    94          6
    95         10
    96          4
    97         15
    98          3
   108          0
   109          2
   111        999
   112         73
   113          3
   125          4
   126          2
   167         25
   168          3