##TITLE=Library Entry 96832
##JCAMP-DX=Revision 4.10 
##DATA TYPE=MASS SPECTRUM
##SAMPLE DESCRIPTION=Chemical Concepts
##NAMES=HP
##CAS NAME=Vanadium, bis(.eta.5-2,4-cyclopentadien-1-yl)[.mu.-[(1,2,3,4,5,6-
.eta.:1,2,3,4,5,6-.eta.)-methylbenzene]]di-
##MOLFORM=C17H18V2
##CAS REGISTRY NO=86374-47-2
##MP= -300
##BP= -300
##MW= 324
##$RETENTION INDEX=0
##$CONDENSED SPECTRUM=NO
##NPOINTS= 173
##XYDATA=(XY..XY) 1 
    26          8
    27         11
    28         19
    29          5
    31         10
    37          3
    38          7
    39         40
    40          7
    41          7
    43          3
    44          1
    45          9
    46          4
    49          1
    50         10
    51        268
    52          6
    53          1
    55          1
    57          1
    59          3
    61          3
    62          6
    63         13
    64          8
    65         25
    66          9
    67          1
    70          1
    74          3
    75          1
    76         45
    77          4
    78         10
    79          1
    86          1
    87          1
    88         24
    89         62
    90        181
    91        150
    92        102
    93          8
   100          4
   101          6
   102         11
   103          1
   104         13
   105          1
   112          1
   113          4
   114         11
   115         17
   116        999
   117         56
   118          1
   124          1
   126          7
   127         36
   128          9
   129          9
   130          2
   138          5
   139         13
   140         20
   141          9
   142          8
   143         93
   144          8
   150          2
   151          9
   152         26
   153         34
   154          5
   155          6
   162         14
   163          5
   164         24
   165         22
   166         14
   167          3
   175          2
   176          7
   177         21
   178         22
   179          7
   180          2
   181        217
   182         24
   183          1
   188          2
   189          6
   190         20
   191         34
   192         14
   193          1
   194          8
   195          1
   200          1
   201          2
   202         14
   203         30
   204         55
   205         18
   206          5
   207         15
   208        143
   209         20
   210          1
   215          5
   216          5
   217          5
   218          1
   226         10
   227          8
   228         83
   229         58
   230        253
   231         59
   232        271
   233         29
   234          2
   236          2
   239          1
   240          5
   241          8
   242         24
   243          5
   244          6
   245          1
   251          1
   252          2
   253          3
   254         10
   255         11
   256          7
   257          3
   264          1
   265          3
   266         11
   267          6
   268         18
   269          5
   270          1
   272          1
   278          5
   279          6
   280          3
   281          3
   282          4
   283          1
   290          4
   291          8
   292         22
   293          8
   294         37
   295          8
   296         24
   297          4
   314          6
   315          4
   316         26
   317         16
   318        108
   319         36
   320        137
   321         38
   322        175
   323         58
   324        771
   325        138
   326         13