##TITLE=Library Entry 66296
##JCAMP-DX=Revision 4.10 
##DATA TYPE=MASS SPECTRUM
##SAMPLE DESCRIPTION=NIST Mass Spectrometry Data Center
##NAMES=HP
##CAS NAME=2,2-Dichloroethanol, TBDMS derivative
##MOLFORM=C8H18Cl2OSi
##CAS REGISTRY NO=86379-31-9
##MP= -300
##BP= -300
##MW= 228
##$RETENTION INDEX=1167
##$CONDENSED SPECTRUM=NO
##NPOINTS= 109
##XYDATA=(XY..XY) 1 
    15          3
    26          2
    27         14
    28          3
    29         35
    30          1
    31          5
    38          1
    39         22
    40          4
    41         80
    42         10
    43         44
    44          6
    45         59
    46          4
    47         21
    48          2
    49          3
    50          2
    51          2
    52          1
    53          6
    54          2
    55         12
    56         29
    57        257
    58         56
    59         63
    60         12
    61         17
    62          9
    63         30
    64          6
    65         45
    66          3
    67         15
    68          1
    69          3
    70          1
    71          3
    73        175
    74         17
    75         43
    76          3
    77          3
    78          5
    79         23
    80          4
    81          9
    82          1
    83         18
    84          1
    85         18
    86          2
    87          3
    88         20
    89        118
    90         11
    91          5
    93        999
    94         88
    95        410
    96         29
    97         22
    98          2
    99          6
   100          2
   101          5
   102          1
   103          1
   105          3
   106          1
   107          2
   112          1
   113         12
   114          2
   115         25
   116          3
   117          3
   119          2
   121         24
   122          2
   123          9
   124          1
   125          1
   133          1
   135         86
   136         10
   137         32
   138          4
   139          1
   141          1
   143          1
   145          5
   146          1
   155          2
   157         11
   158          1
   159          7
   160          1
   161          1
   171        121
   172         13
   173         82
   174          8
   175         15
   176          1
   177          1