##TITLE=Library Entry 76916
##JCAMP-DX=Revision 4.10 
##DATA TYPE=MASS SPECTRUM
##SAMPLE DESCRIPTION=Institute of Organic Chemistry, Novosibirsk, USSR 1988
##NAMES=HP
##CAS NAME=4-Benzyl-5,6-dihydro-2-phenylamino-4H-1,3-thiazin-5-one
##MOLFORM=C17H16N2OS
##CAS REGISTRY NO=86387-93-1
##MP= -300
##BP= -300
##MW= 296
##$RETENTION INDEX=0
##$CONDENSED SPECTRUM=NO
##NPOINTS= 122
##XYDATA=(XY..XY) 1 
    40         39
    41         74
    42        103
    43         68
    44         21
    45         98
    46         87
    47         69
    48          5
    49         15
    50        140
    51        440
    52         82
    53         24
    54         20
    55         28
    56         11
    57         22
    58         20
    59         93
    60         19
    61         17
    62         24
    63         91
    64         62
    65        233
    66         51
    67         13
    69         19
    70         16
    71         16
    72         16
    73         15
    74         60
    75         45
    76         81
    77        655
    78        158
    79         24
    80         11
    81         10
    83         11
    84         11
    85         10
    86         10
    87         22
    88         11
    89         40
    90         50
    91        404
    92        121
    93        106
    94         22
    95         11
    96          6
    97          5
   101         20
   102        137
   103        187
   104        999
   105        108
   106         13
   108          5
   109         35
   110         18
   111          5
   115         17
   116         21
   117         47
   118        130
   119        247
   120         36
   121          5
   127          5
   128         76
   129         19
   130         91
   131         42
   132          7
   134         16
   135        228
   136        128
   137         21
   138          7
   143          5
   144          9
   145         11
   148          5
   149         24
   150         10
   151          4
   161          4
   162          4
   163          5
   173          7
   175          5
   176         12
   177        170
   178         28
   179         21
   180          6
   191          5
   194          6
   203          8
   204         25
   205        323
   206         48
   207         19
   219          6
   220          5
   221         66
   222         11
   253         13
   254         99
   255         20
   256          5
   263          2
   294          4
   295         11
   296        150
   297         52
   298         10