##TITLE=Library Entry 96828
##JCAMP-DX=Revision 4.10 
##DATA TYPE=MASS SPECTRUM
##SAMPLE DESCRIPTION=Chemical Concepts
##NAMES=HP
##CAS NAME=bis(.eta.5-Cyclopentadienyl)(.mu.,.eta.6-mesitylene)divanadium
##MOLFORM=C16H16V2
##CAS REGISTRY NO=86409-35-0
##MP= -300
##BP= -300
##MW= 310
##$RETENTION INDEX=0
##$CONDENSED SPECTRUM=NO
##NPOINTS= 160
##XYDATA=(XY..XY) 1 
    27          9
    31          1
    36          2
    37          8
    38         16
    39         53
    40          6
    41          2
    42          6
    43          0
    48          0
    49          6
    50         39
    51        339
    52         38
    53          1
    55          0
    59          0
    60          0
    61          3
    62          5
    63         17
    64         11
    65          9
    66          5
    67          0
    69          0
    70          3
    71          0
    73          1
    74          7
    75          3
    76         83
    77         33
    78        166
    79         13
    83          0
    84          0
    86          1
    87          1
    88         39
    89         89
    90        245
    91          1
    94          0
    97         14
   100         10
   101          8
   102         14
   103          2
   104          5
   105          3
   106          0
   112          2
   113          7
   114         10
   115         24
   116        999
   117         60
   118          3
   120         40
   121         21
   122          2
   124          1
   126          8
   127         23
   128          4
   129         47
   130          2
   138          5
   139         12
   140         14
   141          8
   142          1
   143          1
   150          1
   151          9
   152         19
   153         27
   154          5
   155         12
   162          1
   163          6
   164         22
   165         19
   166         14
   167          4
   173          1
   174          2
   175          1
   176          5
   177         14
   178         14
   179          2
   180          3
   181        190
   182         25
   183          0
   187          1
   188          3
   189          5
   190         21
   191         27
   192         11
   193          4
   194        137
   195         18
   196          0
   200          1
   201          1
   202         10
   203         14
   204         40
   205          8
   206          3
   214          1
   215          4
   216          3
   217          3
   226         10
   228         70
   229         39
   230        180
   231         32
   232        212
   233         25
   234          1
   237          1
   240          2
   241          3
   242          4
   243          1
   250          1
   252          2
   253          2
   254         12
   255          9
   256          5
   257          2
   266          1
   267          1
   276          1
   277          1
   278         14
   279          9
   280         17
   281          8
   282          4
   283          2
   284          1
   302          6
   304         39
   305         15
   306         93
   307         21
   308        103
   309         29
   310        468
   311         87
   312          5