##TITLE=Library Entry 13404
##JCAMP-DX=Revision 4.10 
##DATA TYPE=MASS SPECTRUM
##SAMPLE DESCRIPTION=N.W. Davies, Centr. Sci. Lab., Univ. Tasmania, Hobart,
 Australia
##NAMES=HP
##CAS NAME=Acetamide, N-(3,4-dichlorophenyl)-N-methoxy-
##MOLFORM=C9H9Cl2NO2
##CAS REGISTRY NO=86412-50-2
##MP= -300
##BP= -300
##MW= 233
##$RETENTION INDEX=0
##$CONDENSED SPECTRUM=NO
##NPOINTS= 84
##XYDATA=(XY..XY) 1 
    26          2
    27          1
    29         14
    30          6
    31          2
    36          4
    37          8
    38         13
    39          9
    41          1
    42         10
    43        999
    44         10
    45          2
    47          5
    49          6
    50         11
    51          7
    52          4
    60          3
    61         15
    62         20
    63         20
    64          9
    65          3
    72          7
    73         20
    74         20
    75         20
    76          5
    77          4
    84          6
    85          5
    86          3
    87          6
    88         14
    89          8
    90          7
    91          5
    97         15
    98          9
    99          9
   100          4
   107          4
   109         20
   110          7
   111         10
   124         41
   125         20
   126         20
   127          6
   133         25
   134          3
   135         15
   137          4
   145         25
   146          6
   147         16
   148          4
   156          5
   159         11
   160         76
   161         69
   162         61
   163         43
   164         10
   165          6
   175         20
   176         27
   177         14
   178         22
   179          4
   187          9
   189          6
   190         13
   191        211
   192         27
   193        147
   194         12
   195         23
   203          7
   205          5
   233         27
   235         15