##TITLE=Library Entry 84675
##JCAMP-DX=Revision 4.10 
##DATA TYPE=MASS SPECTRUM
##SAMPLE DESCRIPTION=N.W. DAVIES, UNIVERSITY OF TASMANIA, TASMANIA, AUSTRALI
A
##NAMES=HP
##CAS NAME=N-Methoxy phenacetin
##MOLFORM=C11H15NO3
##CAS REGISTRY NO=86412-48-8
##MP= -300
##BP= -300
##MW= 209
##$RETENTION INDEX=0
##$CONDENSED SPECTRUM=NO
##NPOINTS= 65
##XYDATA=(XY..XY) 1 
    26         37
    27        180
    29        227
    30         18
    31        110
    32          1
    38         24
    39         83
    40          6
    41         18
    42         34
    43        839
    44        209
    50         26
    51         65
    52        211
    53        123
    54         19
    55         24
    62         15
    63         72
    64         54
    65        108
    66         13
    68         11
    76         16
    77         29
    78         44
    79        136
    80        100
    81        317
    82         16
    90         29
    91         33
    92         18
    93         82
    94         21
   106         27
   107        302
   108        999
   109        487
   110         43
   120         16
   122         23
   123        211
   124         47
   134         11
   135        263
   136        466
   137        229
   138        632
   139         51
   149         36
   150         51
   152         19
   163         15
   166        271
   167        394
   168         31
   177         11
   178         55
   179        246
   180         23
   209        243
   210         21