##TITLE=Library Entry 11169
##JCAMP-DX=Revision 4.10 
##DATA TYPE=MASS SPECTRUM
##SAMPLE DESCRIPTION=G. BOURGEOIS, CESAMO, UNIV. BORDEAUX, TALENCE, FR.
##NAMES=HP
##CAS NAME=4-Acetonylcycloheptanone
##MOLFORM=C10H16O2
##CAS REGISTRY NO=86428-60-6
##MP= -300
##BP= -300
##MW= 168
##$RETENTION INDEX=0
##$CONDENSED SPECTRUM=NO
##NPOINTS= 87
##XYDATA=(XY..XY) 1 
    26         14
    27        104
    28         62
    29         86
    30          4
    31         30
    32         17
    38          4
    39        105
    40         25
    41        196
    42         38
    43        999
    44         46
    45        150
    46          6
    50          5
    51         12
    52          8
    53         46
    54         55
    55        208
    56         19
    57         25
    58        173
    59         40
    63          7
    65         12
    66         12
    67        123
    68         52
    69         51
    70         24
    71         77
    72         17
    73         25
    75          6
    77         19
    78          4
    79         55
    80         14
    81         76
    82         84
    83        128
    84         35
    85         14
    86          6
    87         22
    88         12
    89         33
    91         19
    92         14
    93         97
    94         14
    95         58
    96         15
    97        118
    98         24
    99          8
   100          6
   101          2
   103          8
   105          5
   106          2
   107         30
   108         17
   109         19
   110        416
   111        425
   112         35
   113         20
   117          6
   121          9
   122          9
   123          6
   125         34
   126          4
   133          9
   135         13
   139         11
   140          6
   149         12
   150         22
   151          8
   153          7
   168         16
   169          1