##TITLE=Library Entry 11018
##JCAMP-DX=Revision 4.10 
##DATA TYPE=MASS SPECTRUM
##SAMPLE DESCRIPTION=A.A.Kutin, Moscow, Russia
##NAMES=HP
##CAS NAME=Acetic acid, 1-methyl-1-(4-methyl-5-oxo-cyclohex-3-enyl)ethyl est
er
##MOLFORM=C12H18O3
##CAS REGISTRY NO=86421-35-4
##MP= -300
##BP= -300
##MW= 210
##$RETENTION INDEX=0
##$CONDENSED SPECTRUM=NO
##NPOINTS= 104
##XYDATA=(XY..XY) 1 
    33          1
    34          1
    36          0
    37          1
    39        132
    40         29
    41        174
    43        999
    44         29
    45         24
    46          1
    49          0
    50          8
    51         22
    52         19
    53         89
    54         76
    55         36
    56          3
    57          7
    59        231
    60         13
    61          4
    62          1
    63          5
    64          2
    65         22
    66         17
    67         41
    68          8
    69         27
    70          3
    71          4
    72          1
    73          0
    74          0
    75          0
    77         40
    78         11
    79         67
    80         22
    81         60
    82        101
    83          8
    84          1
    85          6
    86          0
    87          0
    89          1
    90          4
    91         44
    92         15
    93         35
    94         17
    95        120
    96         10
    97          3
    98          1
    99          1
   101         41
   102          3
   103          2
   105         18
   107        282
   108        324
   109        178
   110        154
   111         15
   112          1
   113          1
   114          0
   115          1
   116          0
   117          2
   118          0
   119          1
   121         13
   122         28
   123         11
   124          1
   125          3
   126          0
   127          1
   128          0
   131          0
   132          1
   133          2
   135         72
   136          7
   137          1
   139          0
   140          0
   146          0
   148          3
   150        309
   151         42
   152          5
   153         41
   154          4
   155          0
   166          0
   167          0
   168          0
   169          0