##TITLE=Library Entry 50110
##JCAMP-DX=Revision 4.10 
##DATA TYPE=MASS SPECTRUM
##SAMPLE DESCRIPTION=J. Klune, Insect Chem. Ecol. Lab., USDA, Beltsville, MD
 20705
##NAMES=HP
##CAS NAME=11-Hexadecynal
##MOLFORM=C16H28O
##CAS REGISTRY NO=86426-73-5
##MP= -300
##BP= -300
##MW= 236
##$RETENTION INDEX=0
##$CONDENSED SPECTRUM=NO
##NPOINTS= 127
##XYDATA=(XY..XY) 1 
    41        523
    42         90
    43        372
    44        210
    45         24
    47         12
    49         14
    50          8
    51         36
    52         64
    53        173
    54        514
    55        595
    56         77
    57        177
    58         15
    59         23
    60         11
    61          2
    63         10
    65         84
    67        791
    68        195
    69        271
    70         44
    71         59
    72          3
    73         12
    77         94
    79        316
    81        999
    82        181
    83        180
    84         45
    85         75
    86          7
    87          3
    91         97
    92         12
    93        186
    94         44
    95        590
    96        547
    97        172
    98         49
    99         23
   105         44
   106          7
   107        107
   108         18
   109        214
   110        130
   111         65
   112         17
   113          8
   117          5
   119         46
   120         16
   121        107
   122         35
   123        139
   124         33
   125         28
   126          9
   127          3
   128          2
   131         15
   132          2
   133         40
   134         18
   135        105
   136         37
   137         99
   138         22
   139         15
   140          3
   141          7
   145         13
   146          3
   147         38
   148         21
   149         63
   150         25
   151         30
   152         12
   153          7
   155          4
   159         12
   161         33
   162         13
   163         35
   164         12
   165         13
   166          2
   167          2
   173         13
   175         26
   176          9
   177         26
   178          7
   179         16
   180          2
   183          2
   187         13
   189         16
   190          6
   191         21
   192         11
   193         12
   194          3
   195          5
   201          3
   203         13
   205         18
   206          3
   207          6
   210          2
   218          7
   219         50
   220         12
   221          3
   233         14
   234          9
   235         28
   236         45
   237         15
   238          2