##TITLE=Library Entry 81167
##JCAMP-DX=Revision 4.10 
##DATA TYPE=MASS SPECTRUM
##SAMPLE DESCRIPTION=Japan AIST/NIMC Database- Spectrum MS-IW-4044
##NAMES=HP
##CAS NAME=(-)-1,6-Bis(O-chlorophenyl)-1,6-diphenyl-2,4-hexadiyne-1,6-diol
##MOLFORM=C30H20Cl2O2
##CAS REGISTRY NO=86436-20-6
##MP= -300
##BP= -300
##MW= 482
##$RETENTION INDEX=0
##$CONDENSED SPECTRUM=NO
##NPOINTS= 238
##XYDATA=(XY..XY) 1 
    25          1
    27          6
    28          2
    36          9
    37          2
    38          3
    39         11
    41          1
    43          2
    44          2
    48          2
    49         13
    50         71
    51        119
    52          9
    53          4
    55          2
    57          3
    61          3
    62          7
    63         20
    64          2
    65          1
    67          1
    69          2
    71          2
    73          3
    74         24
    75        110
    76         73
    77        494
    78         43
    79          2
    81          2
    82          2
    83          1
    84          2
    85          9
    86          9
    87         17
    88         35
    89          5
    90          7
    91          3
    93          9
    94         15
    95          4
    97          2
    98          8
    99         14
   100         32
   101         93
   102          8
   103          2
   104          5
   105        999
   106         88
   107         11
   108          6
   109          3
   110          8
   111        178
   112         19
   113         60
   114          7
   115          7
   118          1
   119          1
   122          2
   123          3
   124          2
   125         19
   126         46
   127         22
   128          3
   129          2
   131          1
   133          1
   134          1
   135          5
   136          2
   137         16
   138         10
   139        548
   140         42
   141        180
   142         13
   143          1
   144          2
   145          1
   147          1
   149          5
   150         14
   151         25
   152         45
   153         21
   154         47
   155         33
   156          4
   160         18
   161          7
   162          9
   163         12
   164          6
   165         10
   166          3
   167          2
   173          1
   174          5
   175          7
   176         11
   177          4
   178          6
   179          3
   180          9
   181         46
   182          9
   183          1
   185          2
   186          5
   187         13
   188         61
   189         30
   190         20
   191          9
   192          1
   193          1
   196          1
   197          2
   198          2
   199         11
   200         43
   201         64
   202        364
   203        236
   204         35
   205          5
   206          1
   207          2
   209          1
   210          2
   211         20
   212         16
   213         62
   214         16
   215         13
   216        419
   217         64
   218        140
   219         20
   220          1
   223          2
   225          3
   226          1
   227          1
   228          1
   229          9
   230         41
   231        438
   232         81
   233          8
   236          5
   237          8
   238         15
   239          5
   240          5
   241          6
   242          2
   243          2
   247          2
   248          2
   249         20
   250          6
   251          8
   252          4
   253          1
   263          1
   264          1
   265         53
   266         13
   267         18
   268          5
   269          4
   276          5
   277          5
   278          7
   279          6
   280          4
   281          1
   287          3
   288          1
   289         11
   290          5
   291          3
   292          1
   294          1
   305          2
   306          1
   307          9
   308          6
   309          1
   317          1
   318          1
   323          1
   325          6
   326          2
   327          2
   341          3
   342          1
   343         28
   344          7
   345          9
   346          2
   351          1
   352          1
   357          2
   359          1
   363          1
   365          2
   366          1
   369          1
   376          1
   377          3
   378          1
   379          2
   393          1
   394          2
   401          1
   412          1
   429          2
   430          1
   447          3
   448          1
   449          1
   464          2
   466          1
   482          2
   484          1