##TITLE=Library Entry 81166
##JCAMP-DX=Revision 4.10 
##DATA TYPE=MASS SPECTRUM
##SAMPLE DESCRIPTION=Japan AIST/NIMC Database- Spectrum MS-IW-4043
##NAMES=HP
##CAS NAME=(+)-1,6-Bis-(2-chlorophenyl)-1,6-diphenyl-2,4-hexadiyne-1,6-diol
##MOLFORM=C30H20Cl2O2
##CAS REGISTRY NO=86436-19-3
##MP= -300
##BP= -300
##MW= 482
##$RETENTION INDEX=0
##$CONDENSED SPECTRUM=NO
##NPOINTS= 214
##XYDATA=(XY..XY) 1 
    25          2
    26          1
    27          6
    28          2
    36          9
    37          2
    38          3
    39          9
    41          1
    43          2
    44          2
    48          3
    49         16
    50         80
    51        112
    52          8
    53          3
    55          1
    57          3
    61          3
    62          6
    63         18
    64          2
    65          2
    67          1
    69          1
    71          1
    73          3
    74         22
    75        101
    76         72
    77        461
    78         40
    79          2
    81          3
    82          2
    83          1
    84          2
    85          8
    86          9
    87         15
    88         32
    89          4
    90          6
    91          2
    93          9
    94         15
    95          5
    97          1
    98          7
    99         12
   100         30
   101         89
   102          7
   103          1
   104          5
   105        999
   106         86
   107         12
   108          6
   109          3
   110          7
   111        168
   112         18
   113         55
   114          7
   115          6
   118          1
   119          1
   122          2
   123          2
   124          2
   125         16
   126         42
   127         20
   128          2
   129          2
   133          1
   134          1
   135          6
   136          2
   137         13
   138          9
   139        511
   140         40
   141        165
   142         12
   144          1
   147          1
   149          5
   150         12
   151         23
   152         42
   153         18
   154         43
   155         30
   156          3
   160         15
   161          6
   162          9
   163         10
   164          5
   165          9
   166          2
   167          1
   172          1
   173          1
   174          4
   175          6
   176          9
   177          4
   178          5
   179          2
   180         10
   181         47
   182          8
   183          1
   185          2
   186          4
   187         11
   188         54
   189         27
   190         19
   191          9
   192          1
   197          1
   198          1
   199          9
   200         38
   201         55
   202        321
   203        209
   204         32
   205          4
   206          1
   207          1
   209          1
   210          2
   211         17
   212         14
   213         54
   214         15
   215         13
   216        428
   217         63
   218        141
   219         20
   220          1
   223          2
   225          2
   227          1
   229          9
   230         36
   231        400
   232         73
   233          7
   236          4
   237          6
   238         13
   239          4
   240          4
   241          4
   242          1
   243          1
   247          1
   248          1
   249         18
   250          6
   251          7
   252          3
   253          1
   263          1
   264          1
   265         45
   266         12
   267         15
   268          4
   269          5
   270          1
   276          3
   277          3
   278          4
   279          3
   280          2
   284          1
   287          1
   289          7
   290          3
   291          2
   305          1
   307          6
   308          4
   325          3
   326          1
   327          1
   341          2
   342          1
   343         16
   344          4
   345          5
   346          1
   357          1
   359          1
   363          1
   365          1
   377          2
   379          1
   394          1
   429          1
   447          2
   464          1
   466          1
   482          1
   484          1