##TITLE=Library Entry 48193
##JCAMP-DX=Revision 4.10 
##DATA TYPE=MASS SPECTRUM
##SAMPLE DESCRIPTION=E.GIRAUDI, CENT. RECHERCHE, ROURE BERTRAND DUPONT, GRAS
SE, FR.
##NAMES=HP
##CAS NAME=(3E,5Z)-3,5-Undecadien-1-yne
##MOLFORM=C11H16
##CAS REGISTRY NO=86448-53-5
##MP= -300
##BP= -300
##MW= 148
##$RETENTION INDEX=0
##$CONDENSED SPECTRUM=NO
##NPOINTS= 46
##XYDATA=(XY..XY) 1 
    38          7
    39        172
    40         12
    41        168
    42         11
    43         23
    44          1
    50         22
    51         53
    52         44
    53         17
    54          3
    55         29
    57         11
    62          7
    63         36
    64          8
    65        207
    66         18
    67         43
    68          2
    69          0
    74          0
    75          1
    76          8
    77        114
    78        999
    79         88
    80          5
    81         12
    89         16
    90          4
    91        514
    92         74
    93          6
    96         16
   102          0
   103         18
   104          4
   105         59
   106          6
   115          2
   117          1
   119         10
   148        237
   149         18