##TITLE=Library Entry 60424
##JCAMP-DX=Revision 4.10 
##DATA TYPE=MASS SPECTRUM
##SAMPLE DESCRIPTION=E.GIRAUDI, CENT. RECHERCHE, ROURE BERTRAND DUPONT, GRAS
SE, FR.
##NAMES=HP
##CAS NAME=trans-3-Undecene-1,5-diyne
##MOLFORM=C11H14
##CAS REGISTRY NO=86448-51-3
##MP= -300
##BP= -300
##MW= 146
##$RETENTION INDEX=0
##$CONDENSED SPECTRUM=NO
##NPOINTS= 77
##XYDATA=(XY..XY) 1 
    37          8
    38         33
    39        544
    40         85
    41        505
    42         45
    43         31
    44         27
    45          0
    49          0
    50        145
    51        224
    52         46
    53         83
    54          2
    55        184
    56          7
    57         36
    58          1
    61         14
    62        139
    63        582
    64         71
    65        147
    66         13
    67         34
    68         15
    69          8
    70          1
    73          0
    74         41
    75         36
    76        306
    77        304
    78        266
    79        237
    80         13
    81         25
    82          0
    83          0
    85          6
    86         26
    87         36
    89        759
    90        244
    91        999
    92         85
    93         11
    94         39
    95          5
    98          4
    99          0
   101          3
   102         54
   103        387
   104        147
   105         89
   106          5
   107          9
   115        590
   116        250
   117        459
   118         58
   119          4
   127          8
   128         27
   129         69
   130         13
   131        261
   132         13
   141          0
   143          2
   144          0
   145          1
   146        487
   147         31
   148          0