##TITLE=Library Entry 69371
##JCAMP-DX=Revision 4.10 
##DATA TYPE=MASS SPECTRUM
##SAMPLE DESCRIPTION=NIST Mass Spectrometry Data Center
##NAMES=HP
##CAS NAME=Methyl 1-methyl-1,2,3,6-tetrahydropyridine-3-carboxylate
##MOLFORM=C8H13NO2
##CAS REGISTRY NO=86447-15-6
##MP= -300
##BP= -300
##MW= 155
##$RETENTION INDEX=1171
##$CONDENSED SPECTRUM=NO
##NPOINTS= 86
##XYDATA=(XY..XY) 1 
    15          1
    26          4
    27         48
    28         22
    29         17
    30          8
    31          6
    37          5
    38          6
    39         87
    40         19
    41        100
    42        446
    43        203
    44         55
    45         12
    49          3
    50         19
    51         58
    52         44
    53        225
    54         43
    55         47
    56         14
    57         11
    58          9
    59         31
    61          5
    62          6
    63         11
    64          5
    65         56
    66         31
    67         71
    68        101
    69         50
    70         18
    71         17
    77         13
    78         38
    79         31
    80         60
    81        406
    82        100
    83         12
    84         14
    85         11
    87          3
    91          4
    92         17
    93         26
    94        939
    95        128
    96        999
    97        144
    98         14
    99          3
   100          2
   103          2
   105          3
   107          7
   108         14
   109          6
   110          6
   111         79
   112         28
   113         83
   114          9
   115          3
   119          2
   122         39
   123          4
   124        118
   125         11
   135          4
   138         17
   139          5
   140        106
   141         10
   151          2
   152         15
   153          2
   154         70
   155        329
   156         33
   157          4