##TITLE=Library Entry 1381
##JCAMP-DX=Revision 4.10 
##DATA TYPE=MASS SPECTRUM
##SAMPLE DESCRIPTION=NIST Mass Spectrometry Data Center, 1994
##NAMES=HP
##CAS NAME=3-Ethoxy-4-methoxyphenethylamine
##MOLFORM=C11H17NO2
##CAS REGISTRY NO=86456-97-5
##MP= -300
##BP= -300
##MW= 195
##$RETENTION INDEX=0
##$CONDENSED SPECTRUM=NO
##NPOINTS= 87
##XYDATA=(XY..XY) 1 
    14          4
    15         20
    17          2
    18          4
    26         15
    27         77
    28         64
    29         82
    30        999
    31         18
    38          9
    39         74
    40         17
    41         21
    42         14
    43         19
    44          3
    45          2
    50         18
    51         67
    52         26
    53         30
    54          7
    55         25
    56          2
    58          2
    59          2
    62          8
    63         25
    64         14
    65         74
    66         60
    67         26
    68          4
    69          4
    74          3
    75          3
    77         83
    78         54
    79         48
    80         13
    81         11
    82          2
    89         30
    90         25
    91         37
    92          8
    93         12
    94         93
    95         23
    96          2
   104          5
   105         26
   106         33
   107         28
   108         12
   109         29
   110          3
   116          3
   117          2
   118          4
   119          4
   120          3
   121         16
   122         84
   123        164
   124         15
   133          2
   134         10
   135         16
   136          2
   137        252
   138        242
   139         23
   148          2
   149          3
   150          6
   151         10
   163          1
   165        177
   166        432
   167         44
   168          5
   177          2
   178          3
   195         67
   196          9