##TITLE=Library Entry 9454
##JCAMP-DX=Revision 4.10 
##DATA TYPE=MASS SPECTRUM
##SAMPLE DESCRIPTION=Philip Morris R&D
##NAMES=HP
##CAS NAME=1-(2-Pyrazinyl)-2-methylpropanone
##MOLFORM=C8H10N2O
##CAS REGISTRY NO=86461-66-7
##MP= -300
##BP= -300
##MW= 150
##$RETENTION INDEX=0
##$CONDENSED SPECTRUM=NO
##NPOINTS= 64
##XYDATA=(XY..XY) 1 
    37          5
    38         10
    39         79
    40         27
    41        221
    42         78
    43        999
    44         42
    45         29
    50          4
    51         37
    52        266
    53        218
    54         21
    55         19
    56          8
    57         12
    60          3
    61         28
    63          2
    64          2
    65          3
    66          5
    67          8
    68          4
    69          8
    70         81
    71        153
    72          6
    73         11
    74          3
    75          5
    77          5
    78          9
    79        538
    80        640
    81         75
    82          9
    88          6
    93          7
    94         94
    95         10
   105          4
   106          4
   107        262
   108        144
   109         22
   117          2
   119          4
   120          2
   121         30
   122        180
   123         16
   131         37
   132          5
   133         17
   134          7
   135         56
   136         12
   147          2
   148          2
   149        331
   150        214
   151         22