##TITLE=Library Entry 83355
##JCAMP-DX=Revision 4.10 
##DATA TYPE=MASS SPECTRUM
##SAMPLE DESCRIPTION=Philip Morris R&D
##NAMES=HP
##CAS NAME=1-(3,5-Dimethyl-2-pyrazinyl)propanone
##MOLFORM=C9H12N2O
##CAS REGISTRY NO=86461-69-0
##MP= -300
##BP= -300
##MW= 164
##$RETENTION INDEX=0
##$CONDENSED SPECTRUM=NO
##NPOINTS= 58
##XYDATA=(XY..XY) 1 
    38         62
    39        370
    40         73
    41         51
    42        470
    43         11
    44          3
    50          2
    51         10
    52         24
    53         21
    54         29
    55         37
    56         40
    57        239
    58         12
    62          2
    63          5
    64         24
    65         23
    66        423
    67         81
    68         11
    69          2
    70         12
    75          4
    77          3
    78          5
    79          2
    80         25
    81         21
    82         18
    83          4
    93          5
    94          5
    95          5
   104          3
   105          3
   106          3
   107        999
   108        387
   109         71
   110          6
   121          7
   122          6
   131         31
   133          3
   135        220
   136        355
   137         39
   138          3
   145          6
   147         10
   149         67
   150          5
   163         18
   164        303
   165         33