##TITLE=Library Entry 107638
##JCAMP-DX=Revision 4.10 
##DATA TYPE=MASS SPECTRUM
##SAMPLE DESCRIPTION=A. Brossi, LC, NIDDK, NIH, Bethesda, MD 20892
##NAMES=HP
##CAS NAME=Pyrimidine, 2,4-diamino-5-[[2,3,4,5,6-pentamethoxyphenyl]methyl]-
##MOLFORM=C16H22N4O5
##CAS REGISTRY NO=86475-27-6
##MP= -300
##BP= -300
##MW= 350
##$RETENTION INDEX=0
##$CONDENSED SPECTRUM=NO
##NPOINTS= 232
##XYDATA=(XY..XY) 1 
    41         50
    42         62
    43        496
    44         42
    45        463
    46         12
    47         15
    50         25
    51         47
    52         66
    53        140
    54        127
    55         68
    56         19
    57         33
    58         12
    59         69
    60         29
    62         17
    63         35
    64         32
    65         61
    66         90
    67         67
    68         88
    69        142
    70         36
    71         29
    72         13
    73         25
    74         35
    75         93
    76         34
    77         85
    78         66
    79         77
    80         75
    81        469
    82         34
    83        140
    84         15
    85         21
    86         31
    87         53
    88         35
    89         53
    90         36
    91         51
    92         63
    93         94
    94         61
    95        106
    96         72
    97         36
    98         22
    99         71
   100         23
   101         31
   102         35
   103         65
   104         48
   105         77
   106         73
   107         67
   108         71
   109         53
   110         58
   111         78
   112         14
   113         15
   114         23
   115         40
   116         40
   117         58
   118         53
   119         48
   120         74
   121         78
   122         84
   123        999
   124        176
   125         43
   127         29
   128         24
   129         56
   130         77
   131         41
   132         51
   133         41
   134         82
   135        107
   136         90
   137        123
   138         33
   139         41
   140         17
   144        147
   145         89
   146        103
   147         90
   148         43
   149         35
   150         27
   151         33
   152         62
   153         41
   154         14
   155         22
   157         21
   158         22
   159         51
   160         87
   161         50
   162         30
   163        128
   164         30
   165         31
   166         13
   168         94
   169         17
   170         21
   171         25
   172         22
   173         37
   174         53
   175        113
   176         29
   177         44
   178         21
   179         14
   181         16
   182         18
   183         47
   184         17
   185         22
   186         37
   187         36
   188         24
   189         43
   190         22
   191         40
   192         15
   193         19
   194         16
   195         19
   196         13
   197         47
   198         15
   199         23
   200         22
   201         30
   202         31
   203         35
   204         16
   205         18
   206         32
   207         14
   210         12
   211         35
   212         21
   213         57
   214         24
   215         54
   216         25
   217         68
   218         37
   219         24
   222         19
   225        123
   226         82
   227         46
   228         43
   229        135
   230         55
   231         41
   232         15
   233         16
   234         32
   239         17
   240         27
   241         61
   242         34
   243        261
   244         68
   245         97
   246         40
   247         21
   248         13
   249         13
   250         26
   254         34
   255         39
   256         24
   257        205
   258         49
   259         60
   260         24
   261         33
   262         17
   263         14
   271        102
   272        104
   273        193
   274         46
   275         22
   276         22
   277         28
   278         12
   280         13
   287        161
   288         71
   289        273
   290         47
   292         24
   293         14
   303        299
   304        196
   305         56
   308         76
   309         15
   317         41
   318         52
   319        890
   320        244
   321         41
   323        205
   324         35
   335         71
   336         16
   350        949
   351        313
   352         50