##TITLE=Library Entry 100161
##JCAMP-DX=Revision 4.10 
##DATA TYPE=MASS SPECTRUM
##SAMPLE DESCRIPTION=Japan AIST/NIMC Database- Spectrum MS-NW-8637
##NAMES=HP
##CAS NAME=Germane, tetramethyl-
##MOLFORM=C4H12Ge
##CAS REGISTRY NO=865-52-1
##MP= -300
##BP= -300
##MW= 134
##$RETENTION INDEX=0
##$CONDENSED SPECTRUM=NO
##NPOINTS= 45
##XYDATA=(XY..XY) 1 
    14          2
    15          9
    70         19
    71         32
    72         25
    73         53
    74         47
    75         61
    76          8
    77         14
    83          3
    84         15
    85         90
    86         25
    87        168
    88         64
    89        211
    90         28
    91        109
    92          2
    93         16
    95          4
    97          9
    98          3
    99         15
   100         37
   101         20
   102         50
   103         31
   104         65
   105         14
   106         12
   107          3
   114          3
   115        562
   116         21
   117        745
   118        238
   119        999
   120         32
   121        206
   122          6
   130          1
   132          2
   134          2