##TITLE=Library Entry 54063
##JCAMP-DX=Revision 4.10 
##DATA TYPE=MASS SPECTRUM
##SAMPLE DESCRIPTION=Japan AIST/NIMC Database- Spectrum MS-IW-2912
##NAMES=HP
##CAS NAME=Methane-d, trichloro-
##MOLFORM=CCl3D
##CAS REGISTRY NO=865-49-6
##MP= -300
##BP= -300
##MW= 119
##$RETENTION INDEX=0
##$CONDENSED SPECTRUM=NO
##NPOINTS= 23
##XYDATA=(XY..XY) 1 
    12          1
    14          6
    35         42
    37         19
    39          2
    47        175
    48          2
    49        138
    50          2
    51         28
    70          5
    72          3
    82         20
    84        999
    85         11
    86        686
    87          7
    88        110
    89          1
   117          4
   119         26
   121         22
   123          7