##TITLE=Library Entry 42360
##JCAMP-DX=Revision 4.10 
##DATA TYPE=MASS SPECTRUM
##SAMPLE DESCRIPTION=Chemical Concepts
##NAMES=HP
##CAS NAME=Tetrasilane, decamethyl-
##MOLFORM=C10H30Si4
##CAS REGISTRY NO=865-76-9
##MP= -300
##BP= -300
##MW= 262
##$RETENTION INDEX=0
##$CONDENSED SPECTRUM=NO
##NPOINTS= 141
##XYDATA=(XY..XY) 1 
    25          0
    26          1
    27          0
    29         10
    30          0
    31         12
    33          0
    39          0
    40          0
    41          0
    42          2
    43         71
    44         18
    45        203
    46         12
    47          7
    53          4
    54          1
    55         10
    56          1
    57          8
    58          9
    59        105
    60          8
    61          3
    65          0
    66          0
    67          0
    69         11
    70          2
    71         10
    72          4
    73        999
    74         81
    75         35
    76          1
    77          0
    81          3
    82          0
    83          7
    84          4
    85         22
    86          5
    87          8
    88          1
    89          1
    90          0
    91          0
    93          0
    95          1
    96          0
    97          4
    98          1
    99         44
   100         13
   101         54
   102          7
   103          9
   104          1
   105          0
   109          0
   110          0
   111          2
   112          0
   113         29
   114         13
   115        126
   116        303
   117         61
   118         25
   119          3
   120          0
   125          3
   126          1
   127          5
   128          1
   129         87
   130         18
   131        530
   132         78
   133         38
   134          4
   135          0
   137          0
   139          0
   141          3
   142          0
   143          8
   144          1
   145         34
   146          6
   147          5
   148          0
   149          0
   153          0
   155          1
   156          0
   157         12
   158          5
   159         54
   160         11
   161          8
   162          1
   171         10
   172          3
   173        124
   174        106
   175         34
   176         12
   177          2
   178          0
   185          2
   186          0
   187         39
   188          9
   189        343
   190         80
   191         42
   192          7
   193          1
   194          0
   201          0
   203          0
   204         17
   205          4
   206          2
   207          0
   221          0
   231          0
   232          0
   245          0
   246          0
   247         43
   248         15
   249          8
   250          1
   251          0
   262        197
   263         67
   264         41
   265          9