##TITLE=Library Entry 24917
##JCAMP-DX=Revision 4.10 
##DATA TYPE=MASS SPECTRUM
##SAMPLE DESCRIPTION=V.G. Zaikin, R.S.Borisov, TIPS RAS, Moscow, Russia
##NAMES=HP
##CAS NAME=Heptafluorobutyric acid, heptyl ester
##MOLFORM=C11H15F7O2
##CAS REGISTRY NO=866-19-3
##MP= -300
##BP= -300
##MW= 312
##$RETENTION INDEX=1032
##$CONDENSED SPECTRUM=NO
##NPOINTS= 67
##XYDATA=(XY..XY) 1 
    26          2
    27         64
    28         54
    29        135
    30          4
    31          5
    39         90
    41        653
    42        307
    43        465
    44         20
    45          8
    47          3
    50          5
    51          5
    52          3
    53         33
    54         65
    55        654
    56        938
    57        999
    58         46
    59          3
    61          3
    65          7
    66          3
    67         52
    68        159
    69        668
    70        734
    71         58
    77          8
    78         11
    79         13
    80          3
    81         34
    82          8
    83        162
    84          9
    85          2
    93          6
    95          2
    96          8
    97         31
    98        225
    99         19
   100         82
   101          2
   109         21
   119         63
   125          3
   131          9
   143         60
   144          5
   147          3
   150         14
   159          2
   169        533
   170         15
   197         46
   198          2
   199          3
   213          2
   215          3
   227          6
   241          5
   255         14