##TITLE=Library Entry 86400
##JCAMP-DX=Revision 4.10 
##DATA TYPE=MASS SPECTRUM
##SAMPLE DESCRIPTION=Chemical Concepts
##NAMES=HP
##CAS NAME=Diethyl trichloromethylphosphonate
##MOLFORM=C5H10Cl3O3P
##CAS REGISTRY NO=866-23-9
##MP= -300
##BP= -300
##MW= 254
##$RETENTION INDEX=0
##$CONDENSED SPECTRUM=NO
##NPOINTS= 131
##XYDATA=(XY..XY) 1 
    26         11
    27         89
    28         29
    29        242
    30          4
    31          9
    36          1
    38          0
    39          2
    40          7
    41          2
    42          2
    43         23
    44          3
    45         67
    46          1
    47         44
    48          8
    49          3
    55          1
    57          5
    61          0
    62          0
    63         14
    64          2
    65        103
    66          1
    67          0
    73          0
    75          2
    77          4
    79          0
    81        381
    82         18
    83         66
    84         11
    85         22
    86          1
    91        179
    92          6
    93         49
    94          1
    95          0
    99         21
   100         15
   101          5
   102          4
   103          1
   107          2
   109        999
   110         25
   111         26
   112          0
   113          7
   117         28
   118          1
   119         27
   120          0
   121          8
   123          1
   125          5
   126          0
   127         15
   128          4
   129          2
   130          1
   131          0
   135          0
   137        868
   138         42
   139          7
   140          0
   143          0
   145          1
   146          8
   147          2
   148          4
   149          1
   150          0
   153          1
   155         25
   156          2
   157          0
   158          0
   161          1
   163          8
   164          6
   165          8
   166          4
   167          2
   168          0
   175          1
   177          1
   181          2
   182          5
   183          5
   184          0
   185          3
   187          0
   191         20
   192          1
   193         11
   194          0
   195          1
   199         12
   201         11
   203          3
   205          0
   209          4
   211          9
   213          6
   215          1
   219          5
   221          3
   223          0
   225          9
   226          0
   227         20
   228          0
   229         13
   230          0
   231          3
   239          5
   241          4
   243          1
   253          4
   254          0
   255          5
   256          0
   257          2
   259          0