##TITLE=Library Entry 89665
##JCAMP-DX=Revision 4.10 
##DATA TYPE=MASS SPECTRUM
##SAMPLE DESCRIPTION=Japan AIST/NIMC Database- Spectrum MS-IW-7436
##NAMES=HP
##CAS NAME=2-Cyano-2-isopropyl-3-methylbutanoic acid
##MOLFORM=C9H15NO2
##CAS REGISTRY NO=866-29-5
##MP= -300
##BP= -300
##MW= 169
##$RETENTION INDEX=0
##$CONDENSED SPECTRUM=NO
##NPOINTS= 72
##XYDATA=(XY..XY) 1 
    15          3
    17          1
    26          1
    27         49
    28          9
    29         12
    30          1
    31          1
    37          1
    38          4
    39         48
    40          7
    41        111
    42         12
    43        186
    44         26
    45          9
    50          1
    51          4
    52          8
    53         16
    54          5
    55         23
    56          5
    57          1
    59          2
    63          1
    64          3
    65          5
    66         12
    67         10
    68         61
    69         47
    70          3
    77          2
    78          1
    79          2
    80          8
    81         32
    82         22
    83         51
    84          7
    85          2
    91          1
    93          1
    94         32
    95         12
    96          1
    97          1
    99          2
   100          1
   108         22
   109         15
   110         19
   111          3
   112        999
   113         59
   114          6
   117          1
   119          1
   123          5
   124          6
   125          2
   126         12
   127        376
   128         26
   129          2
   154         43
   155          4
   169          1
   170          9
   171          1