##TITLE=Library Entry 67178
##JCAMP-DX=Revision 4.10 
##DATA TYPE=MASS SPECTRUM
##SAMPLE DESCRIPTION=A.A.Kutin, Moscow, Russia
##NAMES=HP
##CAS NAME=di-n-Butylphosphinic acid
##MOLFORM=C8H19O2P
##CAS REGISTRY NO=866-32-0
##MP= -300
##BP= -300
##MW= 178
##$RETENTION INDEX=0
##$CONDENSED SPECTRUM=NO
##NPOINTS= 90
##XYDATA=(XY..XY) 1 
    33         29
    34          4
    36          1
    37          1
    39         81
    40         67
    41        176
    43         25
    44         11
    45         21
    47         27
    48          5
    49          6
    50          3
    51          6
    52          3
    53         12
    55         75
    56         24
    57         81
    59          2
    60          1
    61         14
    62          3
    63         16
    65        152
    66          6
    67          2
    68          0
    69          1
    70          1
    71          2
    72          2
    73         17
    75          4
    76          3
    77          5
    80        388
    81         10
    83          8
    85          3
    86          0
    87          1
    89          6
    91         35
    94        999
    96         37
    97          9
    98          0
    99          0
   101          1
   103          2
   105          3
   107        101
   108         31
   109          5
   110          1
   111          0
   117          0
   118          1
   119          4
   121         52
   122         46
   123          9
   124          0
   131          4
   132          0
   133          1
   134          2
   136         81
   137         10
   139         21
   140          0
   147          1
   149        116
   150          8
   151          1
   159          0
   161          1
   162          0
   163          8
   164          0
   165          1
   167          0
   171          0
   177          9
   178         20
   179         30
   180          2
   181          0