##TITLE=Library Entry 76197
##JCAMP-DX=Revision 4.10 
##DATA TYPE=MASS SPECTRUM
##SAMPLE DESCRIPTION=A.A.Kutin, Moscow, Russia
##NAMES=HP
##CAS NAME=6-(4-Bromo-phenyl)-3-trifluoromethyl-7H-[1,2,4]triazolo[3,4-b][1,
3,4]thiadiazine
##MOLFORM=C11H6BrF3N4S
##CAS REGISTRY NO=86628-09-3
##MP= -300
##BP= -300
##MW= 362
##$RETENTION INDEX=0
##$CONDENSED SPECTRUM=NO
##NPOINTS= 196
##XYDATA=(XY..XY) 1 
    38         23
    39         22
    40         12
    41          4
    42          1
    44         40
    45         34
    46         29
    47          1
    50        123
    51         71
    52         14
    53          1
    54          2
    55          0
    58        317
    59         24
    60         15
    61         14
    62         41
    63         73
    64         11
    65          5
    66          7
    67          1
    69        154
    70        147
    71          9
    72         16
    74        157
    75        283
    76        264
    77         20
    79         40
    80         64
    81         46
    82         47
    83          7
    84         13
    85         10
    86         22
    87         28
    89        118
    90         30
    91          5
    92          0
    93         10
    94          0
    95          3
    96          5
    98         28
    99         21
   102        999
   103         61
   105         17
   106         14
   107          8
   108          6
   109          2
   111          0
   112          2
   113          6
   114         21
   115         29
   116         82
   117         16
   118          5
   119         15
   120         24
   121          5
   122          1
   123          3
   125          3
   126          0
   127          4
   128         11
   129         21
   130         10
   131         17
   132         10
   133         19
   134         42
   135          4
   136          2
   137          0
   139         21
   140          3
   141          5
   142          3
   143          6
   144          2
   145          3
   146          6
   147          3
   148          2
   149          1
   151          0
   153        104
   155        325
   157        325
   159         43
   160        103
   161         21
   162          9
   163          2
   164          0
   166          1
   167          7
   169         75
   171         73
   172          4
   176          1
   177          1
   178          3
   181        866
   182        219
   183        538
   184        129
   185         27
   186         18
   187          5
   188         23
   189          4
   190          0
   191          5
   192          8
   195        818
   197        897
   198         72
   201         22
   202          1
   203          1
   205          9
   206          2
   208         23
   210         13
   211          6
   212          4
   213          8
   214         10
   215         11
   216          0
   220          0
   221          1
   222          2
   223          5
   225        220
   226         27
   227        198
   228         21
   229         10
   230          0
   235         16
   236         21
   237          2
   238          2
   239          4
   240          3
   241          2
   242          1
   243          1
   244          1
   250          1
   252          4
   253          1
   254          0
   255         45
   256         17
   257          4
   263          2
   264         32
   265          6
   266          2
   267          2
   268          0
   269          0
   277          0
   283         27
   284          4
   285          1
   293          3
   294          2
   295          3
   296          0
   317          0
   342          0
   343         31
   344          4
   345         30
   346          2
   362        662
   363        112
   364        603
   365         82
   366         29
   367          2