##TITLE=Library Entry 46190
##JCAMP-DX=Revision 4.10 
##DATA TYPE=MASS SPECTRUM
##SAMPLE DESCRIPTION=NIST Mass Spectrometry Data Center
##NAMES=HP
##CAS NAME=Cholestan-3-ol, (3.alpha.,5.beta.)-, TBDMS derivative
##MOLFORM=C33H62OSi
##CAS REGISTRY NO=86679-45-0
##MP= -300
##BP= -300
##MW= 502
##$RETENTION INDEX=3298
##$CONDENSED SPECTRUM=NO
##NPOINTS= 294
##XYDATA=(XY..XY) 1 
    15          1
    26          1
    27          7
    29         18
    37          1
    38          2
    39         14
    40          4
    41         84
    42         12
    43        127
    44          5
    45          7
    47          7
    48          1
    49          1
    50          2
    51          2
    52          1
    53         10
    54          4
    55        131
    56         51
    57        166
    58         11
    59         21
    60          4
    61         11
    62          1
    63          1
    65          4
    66          2
    67         71
    68         15
    69         86
    70         21
    71         64
    72          4
    73         99
    74          7
    75        999
    76         74
    77         49
    78          4
    79         59
    80         10
    81        144
    82         14
    83         65
    84          7
    85         16
    86          2
    87          4
    88          1
    89          5
    90          1
    91         50
    92         11
    93         91
    94         24
    95        140
    96         13
    97         43
    98          4
    99          8
   100          2
   101         15
   102          4
   103          5
   104          5
   105         60
   106         21
   107         93
   108         20
   109         68
   110          9
   111         31
   112          3
   113          8
   114          2
   115         16
   116          3
   117         20
   118         11
   119         40
   120         12
   121         68
   122         12
   123         31
   124          8
   125         15
   126          3
   127         12
   128          5
   129          9
   130          3
   131         27
   132          7
   133         43
   134         10
   135         60
   136          8
   137         16
   138         30
   139          7
   140          1
   141          4
   142          1
   143          8
   144          2
   145         47
   146          7
   147         66
   148         12
   149         37
   150          5
   151         13
   152          7
   153          5
   154          1
   155          3
   156          2
   157          8
   158          4
   159         25
   160          8
   161         64
   162         12
   163         21
   164          3
   165         11
   166          4
   167          4
   168          1
   169          4
   170          1
   171          5
   172          3
   173         16
   174          5
   175         37
   176          7
   177          8
   178          2
   179         10
   180          4
   181          5
   182          2
   183          5
   184          1
   185          6
   186          2
   187         16
   188          5
   189         24
   190          4
   191          4
   192          1
   193         16
   194          3
   195          2
   197          2
   199          5
   200          2
   201         31
   202          8
   203         23
   204          4
   205          7
   206          2
   207         11
   208          2
   209          2
   211          1
   213          5
   214          2
   215         41
   216          9
   217         21
   218          4
   219         10
   220          2
   221          3
   222          1
   223          3
   224          1
   225          1
   227          2
   228          1
   229         22
   230          5
   231          5
   232          1
   233          7
   234          1
   235          2
   236          1
   237          3
   238          1
   239          1
   241          8
   242          2
   243         32
   244          6
   245          4
   246          1
   247          6
   248          1
   249          4
   250          1
   251          1
   255         15
   256          4
   257         19
   258          4
   259          7
   260          2
   261          9
   262          2
   263          1
   269          2
   271          3
   272          1
   273          7
   274          2
   275          5
   276          1
   277          2
   278          1
   281          1
   282          1
   283          1
   284          1
   285          4
   286          1
   287          9
   288          2
   289          2
   291          3
   292          1
   293          1
   299          3
   300          1
   301          4
   302          1
   303          1
   305          2
   311          1
   313          5
   314          2
   315          3
   316          1
   317          2
   318          1
   319          4
   320          1
   327          2
   328          1
   329          2
   330          1
   331          4
   332          2
   333          1
   353          3
   354          1
   355         12
   356          3
   357          1
   359          1
   361          1
   367          4
   368          2
   369        298
   370         89
   371         13
   372          2
   373          1
   375          1
   387          1
   388          1
   389          3
   390          1
   427          2
   428          1
   429          1
   443          6
   444          1
   445        441
   446        159
   447         44
   448          8
   449          1
   487          5
   488          2