##TITLE=Library Entry 1800
##JCAMP-DX=Revision 4.10 
##DATA TYPE=MASS SPECTRUM
##SAMPLE DESCRIPTION=C.H. BRIESKORN, INST. PHARM., WUERZBURG UNIV., W. GER.
##NAMES=HP
##CAS NAME=N-(+)-Thujylideneethanolamine
##MOLFORM=C12H21NO
##CAS REGISTRY NO=86682-68-0
##MP= -300
##BP= -300
##MW= 195
##$RETENTION INDEX=0
##$CONDENSED SPECTRUM=NO
##NPOINTS= 109
##XYDATA=(XY..XY) 1 
    39        999
    40        150
    41        417
    42        150
    43        830
    50         22
    51         88
    52         60
    53        300
    54        167
    55        680
    56          8
    57         20
    58         12
    62          8
    63         30
    64         15
    65        133
    66         72
    67        490
    68        850
    69        433
    70        133
    71         10
    72        133
    73         17
    77        250
    78         67
    79        250
    80        117
    81        680
    82        200
    83         38
    84         10
    85        590
    86         48
    87         10
    91        200
    92         42
    93        333
    94        100
    95        250
    96        250
    97         28
    98         43
    99        250
   100         17
   101          7
   102          5
   103         22
   104         17
   105         55
   106         78
   107        100
   108        117
   109        630
   110         75
   111         12
   112        680
   113         53
   114          5
   115         17
   116          7
   117         28
   118         32
   119         43
   120         83
   121         45
   122         63
   123         28
   124        117
   125         43
   126         30
   127          7
   128          5
   129          5
   130          8
   131         10
   132         20
   133         20
   134         55
   135        108
   136         50
   137         20
   138         42
   139         10
   140        383
   141         38
   146         17
   147         17
   148         20
   149         13
   150         27
   151         15
   152        317
   153         82
   154         20
   162        100
   163         13
   164        450
   165         67
   166         28
   167         95
   168         12
   180        233
   181         28
   194         12
   195         90
   196         18