##TITLE=Library Entry 49651
##JCAMP-DX=Revision 4.10 
##DATA TYPE=MASS SPECTRUM
##SAMPLE DESCRIPTION=Chemical Concepts
##NAMES=HP
##CAS NAME=(1H-Pyrrol-3-yl)acetic acid
##MOLFORM=C6H7NO2
##CAS REGISTRY NO=86688-96-2
##MP= -300
##BP= -300
##MW= 125
##$RETENTION INDEX=0
##$CONDENSED SPECTRUM=NO
##NPOINTS= 33
##XYDATA=(XY..XY) 1 
    26         24
    27         90
    28        119
    29          8
    30          2
    37         13
    38         20
    39         32
    40         25
    41         28
    42          5
    43          2
    44          4
    45         25
    49         11
    50         59
    51         80
    52         99
    53        296
    54         19
    55          4
    67          3
    68         13
    78         14
    79         38
    80        999
    81         64
    82          2
    96          6
    97          2
   125        341
   126         24
   127          3