##TITLE=Library Entry 47536
##JCAMP-DX=Revision 4.10 
##DATA TYPE=MASS SPECTRUM
##SAMPLE DESCRIPTION=A.A.Kutin, Moscow, Russia
##NAMES=HP
##CAS NAME=1H-Pyrrole-2-carboxadehyde, 1-phenylsulfonyl-
##MOLFORM=C11H9NO3S
##CAS REGISTRY NO=86688-93-9
##MP= -300
##BP= -300
##MW= 235
##$RETENTION INDEX=0
##$CONDENSED SPECTRUM=NO
##NPOINTS= 132
##XYDATA=(XY..XY) 1 
    33          1
    34          1
    35          0
    36          1
    37         13
    38         50
    39        135
    40         40
    41          6
    42          1
    43          2
    44          8
    45          6
    46          0
    47          0
    48          3
    49          3
    50         58
    51        235
    52         15
    53          7
    54          1
    55          3
    56          1
    57          2
    58          1
    59          2
    60          0
    61          0
    62          3
    63          8
    64         15
    65         28
    66         33
    67          4
    68          1
    69          5
    70          2
    71          3
    72          0
    73          2
    74         14
    75         12
    77        999
    78        100
    79          5
    80          0
    81          3
    82          3
    83          2
    84          0
    85          8
    87          2
    88          1
    89          7
    90          3
    91          2
    93        105
    94        231
    95         20
    96          2
    97         16
    98          1
    99          1
   101          0
   102          1
   103          1
   104          2
   105          1
   107          0
   108          1
   109          2
   110          2
   111          2
   112          1
   114          5
   115         55
   116         11
   117          3
   118          0
   121          0
   123          0
   125         48
   126          4
   127          3
   128          1
   129          0
   131          0
   141        192
   142         22
   143         15
   144          2
   145          0
   148          0
   149          2
   150          0
   151          0
   152          0
   153          0
   154          5
   155          1
   157          0
   159          0
   162          0
   163          0
   166          0
   169          3
   170         58
   171        239
   172         29
   173          2
   175          0
   177          0
   185          0
   186          0
   188          0
   201          0
   203          0
   205          1
   207          1
   208          0
   213          0
   217          0
   218          1
   221          0
   230          0
   231          0
   232          0
   235         56
   236          6
   237          3
   238          0