##TITLE=Library Entry 63970
##JCAMP-DX=Revision 4.10 
##DATA TYPE=MASS SPECTRUM
##SAMPLE DESCRIPTION=A.A.Kutin, Moscow, Russia
##NAMES=HP
##CAS NAME=Phenol, 2-[5-(4-chlorophenyl)-1-phenyl-2-pyrazolin-3-yl]-
##MOLFORM=C21H17ClN2O
##CAS REGISTRY NO=86691-08-9
##MP= -300
##BP= -300
##MW= 348
##$RETENTION INDEX=0
##$CONDENSED SPECTRUM=NO
##NPOINTS= 98
##XYDATA=(XY..XY) 1 
    36          1
    37         21
    38         26
    39         78
    40         27
    41         33
    42         10
    45          9
    48          0
    50         26
    51        143
    52         58
    53         21
    62         35
    63        105
    64        248
    65        139
    66         32
    73          6
    74         28
    75         47
    76         31
    77        343
    78         40
    79         25
    89         60
    91        999
    92        106
    93         57
    94         22
   101         49
   102         72
   103         83
   104         67
   105         28
   107         25
   111         30
   113         24
   114         24
   115         27
   116         21
   117         49
   118         33
   119         28
   120         65
   121          1
   125         55
   126         26
   127         39
   128         24
   131         41
   132         25
   133         24
   134         25
   137         36
   138         67
   139         34
   140         32
   141          3
   149         39
   150         25
   151         10
   152         20
   156          4
   165         36
   170         31
   174         35
   175         23
   176         12
   177         32
   178         44
   179         35
   180         31
   181         36
   182         28
   189          6
   190          5
   191          9
   192         21
   193         55
   205         21
   207         23
   208         28
   209         77
   210         73
   214         10
   215         26
   216         12
   220         27
   228         22
   237        850
   238        134
   241         25
   347         88
   348        788
   349        213
   350        297
   351         65