##TITLE=Library Entry 57930
##JCAMP-DX=Revision 4.10 
##DATA TYPE=MASS SPECTRUM
##SAMPLE DESCRIPTION=TAT 3126
##NAMES=HP
##CAS NAME=Demeton-O-methyl
##MOLFORM=C6H15O3PS2
##CAS REGISTRY NO=867-27-6
##MP= -300
##BP= -300
##MW= 230
##$RETENTION INDEX=0
##$CONDENSED SPECTRUM=NO
##NPOINTS= 66
##XYDATA=(XY..XY) 1 
    39        160
    40         20
    41         90
    42         10
    43         50
    44         60
    45        220
    46         70
    47        340
    48         60
    49         40
    50         70
    51        170
    52         70
    53         60
    55         80
    56         10
    57         30
    58        100
    59        250
    60        710
    61        400
    62        110
    63        130
    64         50
    65        150
    66         10
    73        120
    74         80
    75        360
    76        110
    77        250
    78        130
    79        400
    80         50
    87         40
    88        999
    89        330
    90        130
    91        999
    92        190
    93        110
    94         10
    95         50
   102         40
   103        110
   104         50
   105        420
   106        750
   107        100
   108         10
   109        510
   110        150
   111         80
   112        210
   113         20
   122        130
   123         10
   125        170
   126         20
   142        350
   143        170
   144         10
   156         50
   169         60
   230         80