##TITLE=Library Entry 107294
##JCAMP-DX=Revision 4.10 
##DATA TYPE=MASS SPECTRUM
##SAMPLE DESCRIPTION=Japan AIST/NIMC Database- Spectrum MS-NW-4979
##NAMES=HP
##CAS NAME=Triethyl phosphonoacetate
##MOLFORM=C8H17O5P
##CAS REGISTRY NO=867-13-0
##MP= -300
##BP= -300
##MW= 224
##$RETENTION INDEX=0
##$CONDENSED SPECTRUM=NO
##NPOINTS= 159
##XYDATA=(XY..XY) 1 
    12          1
    13          3
    14         19
    15         62
    16          3
    17          2
    18          7
    19          1
    24          2
    25          6
    26         63
    27        277
    28        131
    29        516
    30         11
    31        157
    32          6
    33          4
    34          1
    39          5
    40          1
    41         19
    42        278
    43        170
    44         21
    45        183
    46         11
    47         59
    48         23
    49         12
    50          2
    51          1
    54         10
    55         16
    56          1
    57          3
    58          6
    59         42
    60        103
    61         81
    62          4
    63          4
    64          3
    65        178
    66          1
    67          1
    68          9
    69          6
    70         61
    71          6
    72          2
    73         11
    74          1
    75          2
    76          2
    77          9
    78         85
    79         35
    80         71
    81        339
    82         24
    83         10
    84          1
    86          1
    87          3
    88        525
    89         27
    90          4
    91         81
    92          6
    93         56
    94          7
    95         40
    96        112
    97        190
    98          3
    99        124
   100          2
   101          1
   102          1
   103          2
   104          5
   105        147
   106         73
   107         18
   108         69
   109        536
   110         19
   111         14
   112          2
   113          4
   115          1
   116          1
   118          1
   119          1
   120          1
   121         20
   122        122
   123        999
   124         68
   125        220
   126         12
   127         74
   128          3
   129          1
   130          1
   131          1
   132          1
   133          8
   134         12
   135         10
   136          9
   137        183
   138         17
   139          6
   140          3
   141         88
   142          3
   143          1
   145          3
   146          1
   147          1
   148          1
   149         22
   150         29
   151        687
   152        454
   153         34
   154         12
   155         56
   156          4
   157          1
   163          1
   165          1
   167          3
   168          3
   169        308
   170         14
   171          4
   173          1
   174          1
   177          2
   178          8
   179        738
   180        141
   181         15
   182          3
   183          7
   195          3
   196          9
   197        812
   198         60
   199         11
   200          1
   209          1
   223          2
   224         56
   225         10
   226          1