##TITLE=Library Entry 6089
##JCAMP-DX=Revision 4.10 
##DATA TYPE=MASS SPECTRUM
##SAMPLE DESCRIPTION=NIST Mass Spectrometry Data Center, 1994
##NAMES=HP
##CAS NAME=p-Nitrophenyl nonyl ether
##MOLFORM=C15H23NO3
##CAS REGISTRY NO=86702-46-7
##MP= -300
##BP= -300
##MW= 265
##$RETENTION INDEX=0
##$CONDENSED SPECTRUM=NO
##NPOINTS= 75
##XYDATA=(XY..XY) 1 
    27        210
    28         65
    29        446
    30         76
    38         30
    39        203
    41        866
    42        163
    43        999
    44         41
    50         58
    51         28
    52         18
    53         73
    54         36
    55        424
    56        182
    57        489
    58         20
    62         12
    63         72
    64         75
    65        115
    66         19
    67         40
    68         36
    69        268
    70        174
    71        411
    72         24
    75         54
    76         80
    77         26
    78         36
    79         18
    80         30
    81         42
    82         46
    83        156
    84        121
    85        228
    86         19
    91         17
    92         48
    93         77
    94         26
    95          6
    96         23
    97        145
    98         64
    99          5
   105          7
   106         36
   107         25
   108          5
   109        252
   110         18
   111          7
   119          7
   122         57
   123        167
   124         74
   125         17
   126         78
   127         10
   133         12
   135          5
   139        159
   140         90
   141         77
   152         37
   235         16
   249          9
   265        137
   266         26