##TITLE=Library Entry 8695
##JCAMP-DX=Revision 4.10 
##DATA TYPE=MASS SPECTRUM
##SAMPLE DESCRIPTION=Insect Chem. Ecol. Lab., USDA, Beltsville, MD 20705
##NAMES=HP
##CAS NAME=Propanoic acid, 2-chloro-, pentyl ester
##MOLFORM=C8H15ClO2
##CAS REGISTRY NO=86711-71-9
##MP= -300
##BP= -300
##MW= 178
##$RETENTION INDEX=1122
##$CONDENSED SPECTRUM=NO
##NPOINTS= 76
##XYDATA=(XY..XY) 1 
    41        336
    42        314
    43        999
    44          3
    45         35
    47         31
    48         16
    49        163
    50          1
    51         57
    53         23
    54          0
    55        338
    56         88
    57         40
    58          2
    59          3
    60          2
    61         13
    62         22
    63        219
    64          2
    65         90
    66          5
    67          6
    68          5
    69         65
    70        536
    71        433
    72         38
    73          1
    74         11
    76          3
    77          2
    78          1
    79          1
    81          1
    82          1
    87          7
    88          8
    89          1
    90          5
    91         64
    93         24
    94          1
    95          1
    97          8
    99          5
   101          1
   104          0
   105          0
   106          0
   107          2
   109         82
   111         29
   112          1
   113          0
   115          8
   116          0
   117          0
   121          4
   122          1
   123          1
   124          0
   125          0
   129          0
   135          1
   137          0
   143          1
   145          0
   149          4
   151          1
   163          1
   165          0
   178          3
   180          1