##TITLE=Library Entry 7759
##JCAMP-DX=Revision 4.10 
##DATA TYPE=MASS SPECTRUM
##SAMPLE DESCRIPTION=Zaikin V.G., TIPS RAS, Moscow, Russia
##NAMES=HP
##CAS NAME=2- Chloropropionic acid, decyl ester
##MOLFORM=C13H25ClO2
##CAS REGISTRY NO=86711-78-6
##MP= -300
##BP= -300
##MW= 248
##$RETENTION INDEX=1643
##$CONDENSED SPECTRUM=NO
##NPOINTS= 77
##XYDATA=(XY..XY) 1 
    25          2
    26         28
    27        219
    28          2
    29        254
    30          5
    31         18
    35          9
    36         54
    37          5
    38         22
    39        109
    40         26
    41        630
    42        260
    43        999
    44         45
    45         14
    50          4
    51          7
    52          6
    53         45
    54         83
    55        783
    56        695
    57        931
    58         40
    61          4
    62         11
    63        308
    64         15
    65        101
    66         10
    67         94
    68        190
    69        534
    70        619
    71        411
    72         23
    73         25
    74         29
    75         16
    77          6
    78          3
    79         18
    81         39
    82        221
    83        542
    84        352
    85        367
    86         22
    90          6
    91        104
    92          6
    93         35
    95         17
    96         65
    97        343
    98        177
    99         45
   100          3
   108         35
   109        272
   110         42
   111        238
   112        291
   113         24
   121          3
   125          3
   135          3
   138          7
   139          3
   140        128
   141         14
   149          6
   157          3
   185         27