##TITLE=Library Entry 37203
##JCAMP-DX=Revision 4.10 
##DATA TYPE=MASS SPECTRUM
##SAMPLE DESCRIPTION=V.Zaikin,Inst.Petrochem.Synth.,RAS,Moscow
##NAMES=HP
##CAS NAME=2-Bromopropionic acid, 3-methylbutyl ester
##MOLFORM=C8H15BrO2
##CAS REGISTRY NO=86711-74-2
##MP= -300
##BP= -300
##MW= 222
##$RETENTION INDEX=1160
##$CONDENSED SPECTRUM=NO
##NPOINTS= 77
##XYDATA=(XY..XY) 1 
    25          7
    26         61
    27        275
    28         19
    29        136
    30          9
    39        102
    40         35
    41        241
    42        133
    43        954
    44         56
    50         30
    51         52
    52         83
    53         33
    54         15
    55        525
    56        120
    57         72
    58          4
    62          2
    63         17
    64          5
    65          5
    67          4
    68          4
    69         76
    70        999
    71        372
    72         20
    73         24
    74         12
    75          3
    76          3
    77          6
    78         15
    79        130
    80          9
    81          6
    82          3
    83          4
    84          4
    85          4
    86          3
    87          9
    91         11
    97         10
    99          3
   100          5
   103          2
   104          6
   105          3
   106          4
   107        130
   108         16
   109        130
   110         11
   115          7
   117          2
   119          3
   134          3
   135         81
   136          8
   137         72
   138          4
   143          4
   152          9
   153         20
   154          7
   155         27
   165          2
   167          3
   179         11
   180          3
   181         10
   182          3