##TITLE=Library Entry 25761
##JCAMP-DX=Revision 4.10 
##DATA TYPE=MASS SPECTRUM
##SAMPLE DESCRIPTION=Zaikin V.G., TIPS RAS, Moscow, Russia
##NAMES=HP
##CAS NAME=2- Bromopropionic acid, tetradecyl ester
##MOLFORM=C17H33BrO2
##CAS REGISTRY NO=86711-82-2
##MP= -300
##BP= -300
##MW= 348
##$RETENTION INDEX=2140
##$CONDENSED SPECTRUM=NO
##NPOINTS= 114
##XYDATA=(XY..XY) 1 
    26         21
    27        108
    28          3
    29        187
    30          4
    31          7
    35          4
    36         30
    37          3
    38         13
    39         69
    40         18
    41        490
    42        165
    43        731
    44         36
    45         12
    50          3
    51          5
    52          4
    53         38
    54        110
    55        852
    56        598
    57        999
    58         48
    65          6
    66         13
    67        159
    68        238
    69        775
    70        494
    71        505
    72         33
    73         43
    74        477
    75        173
    76          8
    77          8
    79         16
    80         33
    81         98
    82        374
    83        886
    84        361
    85        322
    86         22
    87          4
    91          4
    93          3
    94          4
    95         61
    96        199
    97        729
    98        236
    99         68
   100          9
   101          3
   106          3
   107        182
   108         15
   109        194
   110         99
   111        420
   112        167
   113         52
   114          6
   115          3
   122          3
   123         28
   124         65
   125        231
   126        107
   127         31
   128          4
   130          6
   134          6
   135        106
   136         10
   137        116
   138         49
   139         88
   140         65
   141         15
   148          4
   150          5
   151         12
   152         49
   153        254
   154         53
   155        233
   156          8
   165          9
   166         32
   167         15
   168        169
   169         25
   179          4
   193          7
   194        101
   195         37
   196        146
   197         24
   211          3
   213          5
   239          4
   241         53
   242          8
   246          5
   248          5
   276          3
   277          3
   319          3
   321          4