##TITLE=Library Entry 25801
##JCAMP-DX=Revision 4.10 
##DATA TYPE=MASS SPECTRUM
##SAMPLE DESCRIPTION=Zaikin V.G., TIPS RAS, Moscow, Russia
##NAMES=HP
##CAS NAME=2- Chloropropionic acid, hexadecyl ester
##MOLFORM=C19H37ClO2
##CAS REGISTRY NO=86711-81-1
##MP= -300
##BP= -300
##MW= 332
##$RETENTION INDEX=2243
##$CONDENSED SPECTRUM=NO
##NPOINTS= 118
##XYDATA=(XY..XY) 1 
    26         16
    27         66
    28          2
    29        115
    30          3
    31          6
    35          9
    36         51
    37          5
    38         22
    39         60
    40         14
    41        422
    42        130
    43        682
    44         55
    45         11
    50          4
    51          6
    52          4
    53         35
    54        104
    55        823
    56        515
    57        999
    58         47
    62          6
    63        183
    64         14
    65         64
    66         19
    67        169
    68        239
    69        815
    70        509
    71        601
    72         37
    73         31
    74        182
    75         83
    76          4
    77          9
    78          4
    79         22
    80         29
    81        113
    82        416
    83        985
    84        388
    85        423
    86         30
    90          5
    91         85
    92          5
    93         31
    94          6
    95         75
    96        243
    97        882
    98        274
    99        112
   100         10
   107          4
   108        313
   109        334
   110        220
   111        560
   112        192
   113         75
   114          8
   121          5
   122          4
   123         33
   124         77
   125        229
   126        124
   127         53
   128          5
   133          3
   135          6
   136          4
   137         24
   138         56
   139         85
   140         83
   141         39
   142          3
   149          6
   151         11
   152         37
   153         43
   154         57
   155         27
   165          9
   166         27
   167         24
   168         39
   169         18
   179          4
   180         18
   181         11
   182         19
   183          9
   193          5
   194         26
   195          8
   196        103
   197         17
   208          4
   210          3
   222         88
   223         18
   224         76
   225         24
   267          6
   269         47
   270          8
   332          3