##TITLE=Library Entry 88136
##JCAMP-DX=Revision 4.10 
##DATA TYPE=MASS SPECTRUM
##SAMPLE DESCRIPTION=V.G.Zaikin, TIPS, Russian Acad. Sci.
##NAMES=HP
##CAS NAME=1,3-Dimethyl-5-n-decylcyclohexane
##MOLFORM=C18H36
##CAS REGISTRY NO=86710-36-3
##MP= -300
##BP= -300
##MW= 252
##$RETENTION INDEX=0
##$CONDENSED SPECTRUM=NO
##NPOINTS= 26
##XYDATA=(XY..XY) 1 
    41        320
    42         60
    43        350
    44         20
    55        550
    56        100
    57        260
    67         80
    68         90
    69        870
    70        120
    71        130
    82        130
    83        130
    95        210
    96         20
    97        170
    98         20
   110        480
   111        999
   112        120
   125         40
   140        120
   252         30
   253          6
   254          0