##TITLE=Library Entry 8669
##JCAMP-DX=Revision 4.10 
##DATA TYPE=MASS SPECTRUM
##SAMPLE DESCRIPTION=Zaikin V.G., TIPS RAS, Moscow, Russia
##NAMES=HP
##CAS NAME=2- Bromopropionic acid, pentyl ester
##MOLFORM=C8H15BrO2
##CAS REGISTRY NO=86711-73-1
##MP= -300
##BP= -300
##MW= 222
##$RETENTION INDEX=1214
##$CONDENSED SPECTRUM=NO
##NPOINTS= 59
##XYDATA=(XY..XY) 1 
    26         34
    27        235
    28          2
    29        180
    30          5
    31         16
    35          5
    36         33
    37          3
    38         13
    39         80
    40         19
    41        259
    42        263
    43        999
    44         48
    45         16
    50          6
    51          9
    52         13
    53         19
    54         11
    55        351
    56        132
    57         70
    58          5
    67          6
    68          7
    69         76
    70        896
    71        275
    72         14
    73         22
    74         17
    75          8
    78          2
    79         22
    80          8
    81          4
    82          7
    85          6
    87          8
    97          8
   106          4
   107        162
   108         10
   109        154
   110          5
   115         15
   134          3
   135        101
   136          6
   137        102
   138          2
   153        107
   154          4
   155        104
   165          3
   167          4