##TITLE=Library Entry 64961
##JCAMP-DX=Revision 4.10 
##DATA TYPE=MASS SPECTRUM
##SAMPLE DESCRIPTION=Japan AIST/NIMC Database- Spectrum MS-NW-6181
##NAMES=HP
##CAS NAME=2-Amino-1,1,3-tricyanopropene
##MOLFORM=C6H4N4
##CAS REGISTRY NO=868-54-2
##MP= -300
##BP= -300
##MW= 132
##$RETENTION INDEX=0
##$CONDENSED SPECTRUM=NO
##NPOINTS= 80
##XYDATA=(XY..XY) 1 
    12          8
    13          5
    14         11
    15         17
    16          2
    24          4
    25          7
    26         16
    27         29
    28        186
    29          9
    30          2
    32          1
    33          2
    34          7
    36          9
    37         17
    38        124
    39        102
    40        174
    41        709
    42        112
    43         51
    44          5
    46          2
    48          3
    49          3
    50         17
    51         47
    52         60
    53         37
    54          9
    55          5
    57          3
    58          1
    60          2
    61          1
    62         32
    63         25
    64         97
    65        173
    66        527
    67        283
    68         11
    69          1
    71          1
    74          2
    75          3
    76         19
    77         67
    78         25
    79         33
    80          8
    81          1
    83          2
    85          1
    88         13
    89         15
    90         25
    91         66
    92        999
    93         59
    94          2
    95          1
    97          1
   102          2
   103          2
   104         27
   105         13
   106          4
   107          2
   111          1
   114          1
   115          2
   116          1
   117          1
   131          6
   132        647
   133         55
   134          3