##TITLE=Library Entry 533
##JCAMP-DX=Revision 4.10 
##DATA TYPE=MASS SPECTRUM
##SAMPLE DESCRIPTION=Chemical Concepts
##NAMES=HP
##CAS NAME=Decanedioic acid, 2,9-dibromo-, diethyl ester
##MOLFORM=C14H24Br2O4
##CAS REGISTRY NO=868-71-3
##MP= -300
##BP= -300
##MW= 414
##$RETENTION INDEX=0
##$CONDENSED SPECTRUM=NO
##NPOINTS= 298
##XYDATA=(XY..XY) 1 
    26         33
    27        319
    28         75
    29        999
    30         23
    31         26
    32          0
    36          2
    37          0
    38          2
    39        103
    40         23
    41        354
    42         47
    43        104
    44          7
    45         57
    46          2
    47          3
    49          0
    50          2
    51          6
    52          6
    53         76
    54         57
    55        443
    56         39
    57         54
    58          3
    59         10
    60         17
    61         11
    62          0
    63          2
    64          0
    65         12
    66         10
    67        151
    68         84
    69         81
    70         16
    71         38
    72          2
    73        128
    74          6
    75          1
    76          0
    77          9
    78          2
    79         49
    80         19
    81        132
    82         31
    83         71
    84         20
    85         26
    86         15
    87         11
    88         28
    89          2
    90          0
    91         21
    92          5
    93         90
    94         17
    95        124
    96         14
    97         19
    98         11
    99         67
   100          9
   101        102
   102          9
   103          1
   104          0
   105          9
   106          9
   107        158
   108         22
   109         57
   111         33
   112          8
   113         18
   114          7
   115         12
   116          2
   117         24
   118          7
   119         30
   120          7
   121         21
   122          8
   123         23
   124          4
   125         17
   126          3
   127         18
   128          4
   129         17
   130          2
   131          1
   132          1
   133         14
   134          4
   135         80
   136         22
   137         35
   138         91
   139          7
   140         94
   141         16
   142          1
   143          1
   145          4
   146          1
   147          8
   148          1
   149          9
   150          1
   151         13
   152          1
   153         40
   154          4
   155         11
   156          2
   157          3
   158          0
   159          1
   160          1
   161          6
   162         16
   163         78
   164         22
   165         13
   166        219
   167         16
   168        203
   169         26
   171          1
   173          4
   174          1
   175          8
   176          5
   177          9
   178          2
   179         22
   180          2
   181         65
   182          8
   183          8
   184          0
   185          1
   186          0
   187          9
   188          2
   189         12
   190          4
   191          9
   192          4
   193          6
   194          2
   195          5
   196          1
   197          2
   198          0
   199          2
   200          1
   201          3
   202          1
   203         19
   204          3
   205         18
   206          3
   207         18
   208          6
   209         32
   210          6
   211          3
   212          0
   213          0
   214          1
   215         34
   216          5
   217         35
   218          5
   219          4
   220          1
   221         10
   222          0
   223          9
   224          1
   225          4
   226          0
   227          3
   228          0
   229          1
   230          0
   231          1
   232          0
   233          6
   234          3
   235         12
   236          6
   237          6
   238          3
   239          1
   241          1
   242          6
   243         62
   244         11
   245         59
   246          6
   247          2
   248          1
   249         61
   250          7
   251         56
   252          7
   253          1
   254          0
   255          0
   257          0
   258          0
   259          1
   260          2
   261         55
   262          9
   263         54
   264          6
   265          4
   266          0
   269          0
   270          0
   271          2
   272          0
   273          2
   275          1
   277          1
   278          0
   279          0
   284          0
   285          0
   286          0
   287          1
   288          9
   289        177
   290         32
   291        169
   292         24
   293          4
   294          0
   295          2
   296          0
   297          1
   298          0
   299          1
   301          0
   303          6
   304          0
   305          8
   306          0
   307          0
   313          0
   314          0
   315          1
   316          0
   317          4
   319          3
   320          0
   321          0
   322          1
   324          1
   326          0
   333          0
   334          0
   335         18
   336          3
   337         15
   338          3
   339          0
   340          4
   341          7
   342          9
   343         15
   344          7
   345          8
   346          0
   349          0
   351          0
   357          0
   365          0
   368          3
   369          4
   370          7
   371          8
   372          4
   373          3
   374          0