##TITLE=Library Entry 45153
##JCAMP-DX=Revision 4.10 
##DATA TYPE=MASS SPECTRUM
##SAMPLE DESCRIPTION=James Little,Eastman Chem.Co.,Kingsport,TN
##NAMES=HP
##CAS NAME=Carbonodithioic acid, S,S-dimethyl ester
##MOLFORM=C3H6OS2
##CAS REGISTRY NO=868-84-8
##MP= -300
##BP= -300
##MW= 122
##$RETENTION INDEX=0
##$CONDENSED SPECTRUM=NO
##NPOINTS= 23
##XYDATA=(XY..XY) 1 
    27         12
    29         14
    44         40
    45        367
    46        157
    47        587
    48         43
    49         36
    60         34
    61         49
    62          7
    64         23
    75        999
    76         39
    77         45
    79         85
    81         10
    94        345
    95         16
    96         35
   122        445
   123         24
   124         46