##TITLE=Library Entry 29519
##JCAMP-DX=Revision 4.10 
##DATA TYPE=MASS SPECTRUM
##SAMPLE DESCRIPTION=NIST Mass Spectrometry Data Center, 1994
##NAMES=HP
##CAS NAME=Dimethyl 2,2'-dibromoadipate
##MOLFORM=C8H12Br2O4
##CAS REGISTRY NO=868-72-4
##MP= -300
##BP= -300
##MW= 330
##$RETENTION INDEX=0
##$CONDENSED SPECTRUM=NO
##NPOINTS= 136
##XYDATA=(XY..XY) 1 
    12          0
    13          7
    15        952
    18          1
    26        141
    27        870
    29        212
    30         47
    31         78
    33         10
    37         12
    38         37
    39        244
    40         11
    41        187
    42         70
    43         74
    44          3
    45         86
    49          8
    50         61
    51        159
    52         68
    53        516
    54         76
    55        787
    56         41
    57         19
    58          3
    59        999
    60         20
    61          8
    65         15
    66          7
    67         41
    68         45
    69         55
    70          9
    71        133
    72         13
    75          8
    79         49
    80         47
    81        160
    82         45
    83         43
    84         42
    85         48
    86          8
    87         91
    93         22
    94         12
    95         37
    96         13
    97         42
    99         12
   101        129
   102         11
   105         39
   106        145
   107         88
   108        185
   109         80
   110         11
   111        586
   112        118
   113        105
   114         12
   119         35
   120         25
   121         40
   122         19
   123         27
   125         24
   129         28
   131         54
   132         17
   133        104
   134         18
   135         53
   136          4
   137         19
   138          4
   139        787
   140         77
   141         20
   149         97
   151        101
   152         40
   153          9
   154         29
   159         59
   160          8
   161         73
   162         10
   163         27
   164          8
   165         47
   167         23
   171         18
   179          9
   181         10
   187         84
   188         12
   189         89
   190          9
   191        220
   192         25
   193        199
   194         19
   211         19
   213         35
   215         18
   219        540
   220         58
   221        501
   222         55
   223          8
   239          9
   241         19
   243          9
   251          7
   253         11
   269         21
   270        204
   271         48
   272        422
   273         85
   274        232
   275         34
   298        198
   299         44
   300        412
   301         90
   302        221
   303         40