##TITLE=Library Entry 41234
##JCAMP-DX=Revision 4.10 
##DATA TYPE=MASS SPECTRUM
##SAMPLE DESCRIPTION=CCC 0019
##NAMES=HP
##CAS NAME=Borane, chlorodimethoxy-
##MOLFORM=C2H6BClO2
##CAS REGISTRY NO=868-81-5
##MP= -300
##BP= -300
##MW= 108
##$RETENTION INDEX=0
##$CONDENSED SPECTRUM=NO
##NPOINTS= 94
##XYDATA=(XY..XY) 1 
    10          7
    11         29
    12         18
    13         26
    14         66
    15        493
    16          7
    17          1
    23          1
    24          1
    25          2
    26          9
    27         39
    28         68
    29        219
    30         28
    31         29
    32          2
    33          1
    34          1
    35         20
    36         19
    37          8
    38         10
    39         15
    40         13
    41         39
    42        125
    43        298
    44          8
    45         32
    46         26
    47         48
    48         13
    49         59
    50          8
    51         15
    52          3
    53         43
    54         15
    55         13
    56         28
    57         96
    58          7
    59          9
    60          4
    61         13
    62         29
    63         72
    64         10
    65         25
    66          1
    67          2
    68          2
    69          7
    70         12
    71        124
    72        660
    73        999
    74         30
    75         15
    76        143
    77        505
    78         52
    79        165
    80          4
    81          3
    82          3
    83          5
    84          3
    85          3
    86          3
    87          1
    89          1
    90          1
    91          3
    92          8
    93         25
    94          3
    95          9
    96          1
    97          1
    98          3
    99          1
   100          1
   101          1
   102          1
   105          2
   106          8
   107         57
   108        129
   109         24
   110         42
   111          3