##TITLE=Library Entry 23722
##JCAMP-DX=Revision 4.10 
##DATA TYPE=MASS SPECTRUM
##SAMPLE DESCRIPTION=Chemical Concepts
##NAMES=HP
##CAS NAME=2,2,5,5-Tetramethyl-3-hexanone
##MOLFORM=C10H20O
##CAS REGISTRY NO=868-91-7
##MP= -300
##BP= -300
##MW= 156
##$RETENTION INDEX=0
##$CONDENSED SPECTRUM=NO
##NPOINTS= 60
##XYDATA=(XY..XY) 1 
    12          0
    14          3
    15         23
    16          1
    17          2
    18          8
    26          3
    27         96
    28         44
    29        246
    30          5
    31          1
    32          5
    37          0
    38          3
    39        121
    40         20
    41        354
    42         36
    43        147
    44          4
    45          1
    50          1
    51          4
    52          1
    53         15
    54          3
    55         40
    56         54
    57        999
    58         54
    59          2
    63          0
    65          1
    66          0
    67          6
    68          0
    69          5
    70          5
    71        129
    72          7
    77          0
    79          0
    81          1
    82          0
    83         13
    84          1
    85         85
    86          4
    91          0
    95          0
    97          0
    98         24
    99        266
   100         29
   101          2
   113          0
   156         34
   157          4
   158          0