##TITLE=Library Entry 29741
##JCAMP-DX=Revision 4.10 
##DATA TYPE=MASS SPECTRUM
##SAMPLE DESCRIPTION=Chemical Concepts
##NAMES=HP
##CAS NAME=Propanedioic acid, bromo-, dimethyl ester
##MOLFORM=C5H7BrO4
##CAS REGISTRY NO=868-26-8
##MP= -300
##BP= -300
##MW= 210
##$RETENTION INDEX=0
##$CONDENSED SPECTRUM=NO
##NPOINTS= 97
##XYDATA=(XY..XY) 1 
    25          7
    26         17
    27        130
    29        267
    30         47
    31        115
    33          3
    34          1
    39          1
    40          8
    41        147
    42        191
    43        708
    44         28
    45        118
    46          2
    47         19
    48          1
    52          1
    53          1
    55          5
    57        357
    58        313
    59        999
    60         22
    61          4
    68         16
    69        397
    70         28
    71          9
    72          3
    73          5
    74        128
    75          6
    76          1
    79         26
    80         58
    81         34
    82         59
    85          1
    87         32
    88          1
    89          0
    91          4
    92         27
    93         33
    94         27
    95         63
    96          1
    97         40
    99          1
   100         51
   101        272
   102          9
   103          3
   104          8
   105          0
   107         14
   108          2
   109         13
   111          1
   119          1
   120         77
   121         60
   122         75
   123        134
   124          2
   125         90
   126          1
   127          0
   132          5
   134          0
   135          9
   136         25
   137         15
   138         23
   139          4
   147          3
   149          2
   150          2
   151         67
   152          4
   153         71
   154          2
   166         20
   167          1
   168         14
   169          1
   177          0
   178          4
   179         53
   180          5
   181         59
   182          2
   210          7
   211          0
   212          9