##TITLE=Library Entry 89851
##JCAMP-DX=Revision 4.10 
##DATA TYPE=MASS SPECTRUM
##SAMPLE DESCRIPTION=Chemical Concepts
##NAMES=HP
##CAS NAME=Cyclohexanone, 2-ethyl-, oxime
##MOLFORM=C8H15NO
##CAS REGISTRY NO=86823-11-2
##MP= -300
##BP= -300
##MW= 141
##$RETENTION INDEX=0
##$CONDENSED SPECTRUM=NO
##NPOINTS= 78
##XYDATA=(XY..XY) 1 
    26         35
    27        381
    28         42
    29        300
    30         37
    31         15
    37         21
    38         22
    39        408
    40         84
    41        821
    42        197
    43        266
    44         46
    45         12
    46         16
    50         16
    51         48
    52         64
    53        172
    54        330
    55        554
    56        218
    57        161
    58        135
    59         35
    60         19
    61         12
    63         17
    65         69
    66         91
    67        368
    68        202
    69        234
    70         72
    71         37
    72         23
    73         14
    74         12
    77         65
    78         32
    79        120
    80        115
    81        426
    82        479
    83         99
    84         69
    85        169
    86         10
    87         12
    91         55
    92         28
    93         61
    94        117
    95         69
    96        281
    97        250
    98        106
    99         43
   100         29
   105         25
   106         16
   107         20
   108         51
   109        263
   110        122
   111         26
   112        267
   113        999
   114         65
   122         53
   123         43
   124         74
   125         29
   126        123
   127         18
   141        145
   142         18