##TITLE=Library Entry 40842
##JCAMP-DX=Revision 4.10 
##DATA TYPE=MASS SPECTRUM
##SAMPLE DESCRIPTION=Chemical Concepts
##NAMES=HP
##CAS NAME=5-(1-Ethoxy-ethoxy)-4-methyl-hex-2-enal
##MOLFORM=C11H20O3
##CAS REGISTRY NO=86845-53-6
##MP= -300
##BP= -300
##MW= 200
##$RETENTION INDEX=0
##$CONDENSED SPECTRUM=NO
##NPOINTS= 103
##XYDATA=(XY..XY) 1 
    25          1
    26          6
    27         66
    28          5
    29         85
    30          2
    31         30
    36          0
    37          0
    38          2
    39         39
    40          6
    41         93
    42          9
    43        170
    44         59
    45        759
    46         19
    47          6
    48          0
    49          0
    50          2
    51          6
    52          2
    53         22
    54          8
    55        140
    56         24
    57         15
    58          2
    59          2
    60          0
    61          5
    62          0
    63          1
    64          0
    65          6
    66          5
    67         34
    68         28
    69         22
    70          2
    71         19
    72         29
    73        999
    74         48
    75          7
    76          0
    77          7
    78          1
    79          6
    80          0
    81         13
    82          8
    83         53
    84         81
    85          6
    86          1
    87         10
    88          0
    89          5
    90          0
    91          5
    92          0
    93         16
    94          3
    95         31
    96          3
    97          5
    98          4
    99          2
   100          3
   101          1
   107          1
   108          0
   109          2
   110          6
   111        184
   112         17
   113          8
   114          0
   115          1
   116          0
   117         12
   118          1
   119          0
   126          1
   127          0
   128          2
   129          0
   130          1
   131          0
   132          1
   140          0
   142          1
   143          0
   144          0
   145          0
   146          1
   155         12
   156          1
   157          0
   185          4