##TITLE=Library Entry 17231
##JCAMP-DX=Revision 4.10 
##DATA TYPE=MASS SPECTRUM
##SAMPLE DESCRIPTION=Chemical Concepts
##NAMES=HP
##CAS NAME=Butanal, 3-(1-ethoxyethoxy)-2-methyl-
##MOLFORM=C9H18O3
##CAS REGISTRY NO=86845-50-3
##MP= -300
##BP= -300
##MW= 174
##$RETENTION INDEX=0
##$CONDENSED SPECTRUM=NO
##NPOINTS= 83
##XYDATA=(XY..XY) 1 
    26        120
    27         56
    29        177
    30         13
    31         75
    32          7
    33          0
    37          1
    38          3
    39         42
    40          9
    41        141
    42         22
    43        278
    44        117
    45        999
    46         31
    47         70
    48          0
    50          2
    51          4
    52          2
    53         13
    54          5
    55         68
    56        205
    57         93
    58         41
    59         10
    60          2
    61         28
    62          1
    63          1
    65          1
    67          6
    68          1
    69         15
    70          5
    71         16
    72         63
    73        946
    74         65
    75         68
    76          2
    77          3
    79          1
    81          1
    82          2
    83         24
    84         19
    85        127
    86         14
    87         15
    88          1
    89         19
    91         10
    93          1
    95          1
    98          1
    99          4
   100         10
   101         20
   102          2
   103          5
   105          1
   113          2
   115          8
   116          0
   117         11
   127          1
   128          5
   129         75
   130          7
   131          3
   141          1
   143          1
   144          0
   145          3
   159         12
   160          1
   161          0
   170          1
   173          1