##TITLE=Library Entry 162
##JCAMP-DX=Revision 4.10 
##DATA TYPE=MASS SPECTRUM
##SAMPLE DESCRIPTION=H.ROPER HAMBURG UNIVERSITY, HAMBURG, GERMANY, F.R.G.
##NAMES=HP
##CAS NAME=Urea, N-butyl-N-nitroso-
##MOLFORM=C5H11N3O2
##CAS REGISTRY NO=869-01-2
##MP= -300
##BP= -300
##MW= 145
##$RETENTION INDEX=0
##$CONDENSED SPECTRUM=NO
##NPOINTS= 46
##XYDATA=(XY..XY) 1 
    26         97
    27        555
    28        999
    29        583
    30        640
    31         83
    37         19
    38         38
    39        306
    40         69
    41        999
    42        208
    43        999
    44        445
    45         41
    47         66
    50         41
    51         34
    52         16
    53         64
    54         38
    55        306
    56        916
    57        528
    58         30
    59        458
    60        458
    61         13
    62         55
    70         33
    71         16
    72         27
    73         64
    74         19
    79         10
    84        167
    85        278
    86         11
    88         38
    90         19
    98         22
   100         10
   102        555
   103         53
   130         11
   145        120