##TITLE=Library Entry 924
##JCAMP-DX=Revision 4.10 
##DATA TYPE=MASS SPECTRUM
##SAMPLE DESCRIPTION=Japan AIST/NIMC Database- Spectrum MS-NW-4963
##NAMES=HP
##CAS NAME=L-Leucine, N-glycyl-
##MOLFORM=C8H16N2O3
##CAS REGISTRY NO=869-19-2
##MP= -300
##BP= -300
##MW= 188
##$RETENTION INDEX=0
##$CONDENSED SPECTRUM=NO
##NPOINTS= 84
##XYDATA=(XY..XY) 1 
    15          6
    16          1
    17          3
    18         14
    26          2
    27         27
    28         48
    29         19
    30        999
    31         70
    32          8
    38          2
    39         14
    40          4
    41         39
    42         17
    43         50
    44         37
    45          3
    46          2
    51          1
    52          1
    53          5
    54          4
    55         12
    56         19
    57         14
    58          3
    59          6
    60          1
    67          3
    68          4
    69          8
    70         13
    71          3
    72          2
    73         11
    74         10
    75          3
    81          1
    82          4
    83          3
    84         19
    85         23
    86         64
    87          5
    88          4
    89          3
    96          1
    97          2
    98          4
    99         10
   100          3
   101          2
   102          2
   103          6
   109          1
   110          1
   111          1
   112          4
   113          6
   114         62
   115          6
   116          8
   125          2
   126          1
   127         17
   128          2
   130          3
   131          2
   132         52
   133          4
   141          2
   142          4
   143          7
   144          2
   145          5
   153          1
   155          1
   158          2
   170          1
   173          1
   188          9
   189          1