##TITLE=Library Entry 25933
##JCAMP-DX=Revision 4.10 
##DATA TYPE=MASS SPECTRUM
##SAMPLE DESCRIPTION=NIST Mass Spectrometry Data Center, 2010
##NAMES=HP
##CAS NAME=Butanoic acid, 2-methyl-, 1-methylpropyl ester
##MOLFORM=C9H18O2
##CAS REGISTRY NO=869-08-9
##MP= -300
##BP= -300
##MW= 158
##$RETENTION INDEX=971
##$CONDENSED SPECTRUM=NO
##NPOINTS= 52
##XYDATA=(XY..XY) 1 
    15          3
    26          6
    27         55
    28         29
    29        147
    30          4
    31          4
    38          2
    39         52
    41        235
    42         16
    43         29
    44          3
    45         32
    46          1
    47          2
    50          2
    51          3
    53          9
    54          4
    55         47
    56        183
    57        999
    58         46
    59         12
    60          1
    61          1
    68          1
    69          6
    70          1
    71          2
    73         52
    74         84
    75          3
    83          2
    85        598
    86         36
    87         48
    88          2
   100          1
   101          4
   102         44
   103        298
   104         18
   105          2
   114          4
   129         52
   130         35
   131          3
   143          9
   144          1
   158          1