##TITLE=Library Entry 66662
##JCAMP-DX=Revision 4.10 
##DATA TYPE=MASS SPECTRUM
##SAMPLE DESCRIPTION=D.HENNEBERG, MAX-PLANCK INSTITUTE, MULHEIM, WEST GERMAN
Y
##NAMES=HP
##CAS NAME=4-Cyclohexene-1,2-dicarboxylic acid, 4-methyl-, dimethyl ester
##MOLFORM=C11H16O4
##CAS REGISTRY NO=86905-77-3
##MP= -300
##BP= -300
##MW= 212
##$RETENTION INDEX=1433
##$CONDENSED SPECTRUM=NO
##NPOINTS= 129
##XYDATA=(XY..XY) 1 
    23          0
    25          0
    26          4
    27         66
    28         88
    29         31
    30          9
    31         18
    32          8
    33         15
    34          0
    35          0
    36          0
    37          2
    38          5
    39         84
    40         18
    41         68
    42          7
    43         20
    44         19
    45         27
    46          3
    47          1
    48          1
    49          1
    50          8
    51         29
    52         13
    53         48
    54          7
    55         31
    56          3
    57          5
    58          2
    59        114
    60          5
    61         15
    62          2
    63         10
    64          6
    65         43
    66         11
    67         29
    68         15
    69          6
    70          1
    71          2
    72          1
    73          0
    74          2
    75          4
    77        161
    78         28
    79         72
    80          9
    81         10
    82          2
    83          3
    84          0
    85          5
    86          1
    87          2
    89         17
    90         10
    91        142
    92        195
    93        999
    94         83
    95          9
    96          2
    97          1
    98          1
    99          0
   100          0
   103          1
   104          0
   105         11
   106          1
   107          6
   108          1
   109          8
   110          2
   111          3
   112          0
   113          4
   114          0
   118          0
   119         12
   120         15
   121         39
   122          4
   123          3
   124          4
   125          7
   126          1
   127          1
   128          2
   129          3
   130          1
   131          0
   133          0
   134          0
   135          1
   136          0
   137         38
   138          4
   139          0
   140          0
   142          0
   145          0
   147          0
   148          0
   150          3
   151         19
   152        228
   153         40
   154          4
   155          0
   165          0
   168          0
   169          0
   178          0
   180         82
   181         62
   182          6
   183          0
   212          2
   213          0