##TITLE=Library Entry 48159
##JCAMP-DX=Revision 4.10 
##DATA TYPE=MASS SPECTRUM
##SAMPLE DESCRIPTION=Div. of Experiment Therapeutics WRAIR, WRAMC, Washingto
n DC 20307
##NAMES=HP
##CAS NAME=Methyl 3-[1-[2-pyridyl]-n-butylidene]hydrazinecarbodithioate
##MOLFORM=C11H15N3S2
##CAS REGISTRY NO=86919-54-2
##MP= -300
##BP= -300
##MW= 253
##$RETENTION INDEX=0
##$CONDENSED SPECTRUM=NO
##NPOINTS= 134
##XYDATA=(XY..XY) 1 
    41        278
    42         59
    43        149
    45        299
    46        109
    47        264
    48         72
    49        135
    50        133
    51        638
    52        407
    53         97
    54         25
    55         12
    56          5
    57          4
    58         19
    59        140
    60         64
    61         12
    62         14
    63         47
    64         63
    65         73
    66         24
    67         16
    68          9
    69          4
    70         23
    71          2
    72          8
    73          8
    74         55
    76        129
    77        116
    78        999
    79        776
    80         72
    81          8
    82          3
    84          5
    86          3
    87          1
    88          9
    89         23
    91        503
    92        113
    93        216
    94         15
    95          3
    97          1
    99          0
   101          3
   102          9
   103          5
   104        201
   105        579
   106        107
   107         14
   108          2
   109          1
   110          1
   111          6
   112          2
   115          3
   116          3
   117        133
   118        208
   120        703
   121         49
   122          4
   123          0
   124          4
   127          6
   128          2
   130         37
   131         32
   132         80
   133         96
   134         78
   135          9
   136          2
   137         10
   138          3
   142          2
   143          4
   144          5
   145         16
   146         19
   147         93
   148        165
   149         46
   150          3
   151         14
   152          4
   159          1
   160          2
   161         13
   162         22
   163          4
   164          0
   166         11
   167          1
   172          1
   174          6
   175         52
   176          8
   177         11
   178         79
   179         22
   180         12
   181          1
   189          1
   190          2
   195          0
   204          8
   205         14
   206        332
   207         42
   208         25
   210        485
   211         21
   212         59
   213          4
   214          0
   215          0
   220          2
   224          1
   250          1
   252          6
   253        167
   254         28
   255         15
   256          2