##TITLE=Library Entry 68574
##JCAMP-DX=Revision 4.10 
##DATA TYPE=MASS SPECTRUM
##SAMPLE DESCRIPTION=Chemical Concepts
##NAMES=HP
##CAS NAME=6-Isopropenyl-4,8a-dimethyl-4a,5,6,7,8,8a-hexahydro-1H-naphthalen
-2-one
##MOLFORM=C15H22O
##CAS REGISTRY NO=86917-79-5
##MP= -300
##BP= -300
##MW= 218
##$RETENTION INDEX=0
##$CONDENSED SPECTRUM=NO
##NPOINTS= 153
##XYDATA=(XY..XY) 1 
    26          2
    27        105
    28         24
    29        109
    30          3
    31          1
    38          6
    39        228
    40         52
    41        452
    42         29
    43        111
    44          3
    45          5
    50          9
    51         52
    52         34
    53        205
    54         46
    55        248
    56         22
    57         25
    58          7
    59          6
    60          3
    61          2
    62          3
    63         22
    64         10
    65        134
    66         50
    67        435
    68         86
    69        254
    70         18
    71         22
    72          4
    73          7
    74         10
    75         13
    76          7
    77        250
    78         60
    79        339
    80         68
    81        191
    82        106
    83         45
    84         14
    85         13
    86          3
    87          3
    88          8
    89         10
    90          4
    91        277
    92         68
    93        291
    94        236
    95        999
    96        119
    97         50
    98          9
    99         13
   100          2
   101          2
   102          7
   103         23
   104         11
   105        217
   106        102
   107        278
   108        147
   109        131
   110         59
   111         29
   112         20
   113          5
   115         32
   116         12
   117         30
   118         14
   119        228
   120        122
   121        238
   122        250
   123        644
   124        136
   125         26
   126         10
   127          6
   128         13
   129         20
   130          8
   131         34
   132         32
   133        188
   134        217
   135        212
   136         65
   137         82
   138         11
   139          4
   141          9
   142          7
   143         16
   144          9
   145         55
   146         21
   147        192
   148         71
   149         66
   150         71
   151          9
   152          2
   153          4
   155          2
   156          1
   157         18
   158         12
   159         33
   160         78
   161        160
   162         67
   163         35
   164          8
   165          2
   171          9
   172          7
   173          8
   174         14
   175        157
   176         68
   177         11
   185         24
   186          5
   187          4
   188          2
   189         32
   190         76
   191         12
   200         19
   201          5
   202          3
   203        262
   204         37
   205          4
   216          4
   217          3
   218        490
   219         86
   220          9
   221          1