##TITLE=Library Entry 26772
##JCAMP-DX=Revision 4.10 
##DATA TYPE=MASS SPECTRUM
##SAMPLE DESCRIPTION=K. Jacobson, LBC, NIDDK, NIH, Bethesda, MD 20892
##NAMES=HP
##CAS NAME=2-tert-Butoxycarbonylamino-3-(4-nitro-phenyl)-propionic acid
##MOLFORM=C14H18N2O6
##CAS REGISTRY NO=86937-80-6
##MP= -300
##BP= -300
##MW= 310
##$RETENTION INDEX=0
##$CONDENSED SPECTRUM=NO
##NPOINTS= 149
##XYDATA=(XY..XY) 1 
    41        242
    42         17
    43         55
    44         18
    45         22
    46          8
    47          1
    48          0
    49          8
    50          9
    51         20
    52          9
    53          9
    54          3
    55         32
    56         56
    57        999
    58          8
    59        362
    60         10
    61          1
    62          5
    63         24
    64         12
    65         22
    66          3
    67          2
    68          1
    69          2
    70          0
    71          1
    72          1
    73          9
    74        181
    75          8
    76          7
    77         26
    78         47
    79          6
    80          2
    81          0
    82          0
    83          1
    84          5
    85          0
    86          5
    87          1
    88          2
    89         65
    90         78
    91         49
    92          9
    93          2
    94          1
    95          0
    96          0
    97          0
   101          6
   102          6
   103          8
   104          6
   105          4
   106         21
   107         66
   108          5
   109          0
   113          0
   114          0
   115          1
   116          5
   117         14
   118         16
   119         19
   120         25
   121         12
   122          6
   123          0
   124          0
   127          0
   128          1
   129          1
   130         24
   131          3
   132          2
   133          2
   134          2
   135          2
   136         20
   137        598
   138         49
   139          4
   143          0
   144          1
   145          6
   146          4
   147          6
   148         11
   149          7
   150          1
   151          0
   152          3
   160          0
   161          1
   162          1
   163          5
   164          6
   165         69
   166          8
   167          0
   174         74
   175          7
   176          5
   177         18
   178          3
   179          0
   181          0
   189          0
   190          0
   191          6
   192         11
   193        107
   194         12
   195          1
   208          4
   209         32
   210         23
   211         10
   212          1
   219          0
   220          0
   221          1
   230          1
   232          0
   236          2
   237         13
   238          2
   240          0
   254         42
   255         15
   256          1
   257          0
   265          2
   266          0
   275          0
   287          0
   288          0
   295          0
   310          0
   311          0