##TITLE=Library Entry 47151
##JCAMP-DX=Revision 4.10 
##DATA TYPE=MASS SPECTRUM
##SAMPLE DESCRIPTION=Chemical Sci. & Tec. Lab., NIST, Gaithersburg, MD 20899
##NAMES=HP
##CAS NAME=Penicillin V
##MOLFORM=C16H18N2O5S
##CAS REGISTRY NO=87-08-1
##MP= -300
##BP= -300
##MW= 350
##$RETENTION INDEX=0
##$CONDENSED SPECTRUM=NO
##NPOINTS= 139
##XYDATA=(XY..XY) 1 
    41        365
    42        467
    43        208
    44        340
    45        418
    46         37
    47        112
    48         10
    49         94
    50         84
    51        326
    52         55
    53        194
    54        120
    55        135
    56         89
    57         78
    58         60
    59        176
    60         39
    61         25
    62         21
    63         45
    64         23
    65        151
    66         72
    67         46
    68         83
    69        183
    70         86
    71         76
    72         46
    73         76
    74        127
    75        498
    76         49
    77        999
    78        142
    79        260
    80         36
    81         37
    82         95
    83         29
    84         66
    85         47
    86        115
    87        165
    88         72
    89         13
    90          6
    91         32
    92         20
    93         30
    94        433
    95         55
    96         28
    97         26
    98         55
    99         34
   100        267
   101         27
   102        128
   103          9
   104         11
   105         47
   106         37
   107        644
   108        197
   109         28
   110         11
   111          8
   112          8
   113         51
   114        340
   115         68
   116         37
   117          6
   118          9
   119         11
   120          5
   121          8
   123          9
   124         14
   125         32
   126         45
   127         11
   128         14
   133          3
   134         17
   135         56
   136         15
   137         19
   138          4
   139         18
   140          3
   141         55
   142         29
   143          6
   144         14
   151          7
   152          6
   153         21
   154          4
   155         11
   159         56
   160        563
   161         46
   162         33
   163        123
   164         36
   165         16
   167          8
   168         65
   169         10
   170          3
   173         10
   176         24
   177          3
   179         32
   183          4
   191         48
   192         11
   195          1
   196          6
   197         12
   209         91
   210         14
   211         21
   213          6
   235          8
   239         11
   250         14
   257          8
   258          2
   288         17
   299         14
   332         55
   333         10
   350          8