##TITLE=Library Entry 800
##JCAMP-DX=Revision 4.10 
##DATA TYPE=MASS SPECTRUM
##SAMPLE DESCRIPTION=Japan AIST/NIMC Database- Spectrum MS-NW-2743
##NAMES=HP
##CAS NAME=Propanedioic acid, (ethoxymethylene)-, diethyl ester
##MOLFORM=C10H16O5
##CAS REGISTRY NO=87-13-8
##MP= -300
##BP= -300
##MW= 216
##$RETENTION INDEX=0
##$CONDENSED SPECTRUM=NO
##NPOINTS= 149
##XYDATA=(XY..XY) 1 
    12          3
    13          6
    14         18
    15         60
    16          3
    17          1
    18          3
    19          5
    24          2
    25         10
    26         75
    27        391
    28        114
    29        999
    30         23
    31        186
    32         14
    33          1
    38          1
    39         10
    40          7
    41         55
    42        146
    43        181
    44         73
    45        334
    46         24
    47        145
    48          3
    49          1
    51          1
    52          1
    53         86
    54         82
    55         61
    56         17
    57          9
    58         30
    59         12
    60         16
    61          8
    63          2
    68         20
    69        490
    70        175
    71        257
    72         30
    73         50
    74         11
    75        126
    76          8
    77          1
    80          1
    81          1
    82         11
    83         14
    84          3
    85          8
    86        341
    87        133
    88        116
    89         22
    90          2
    91          1
    92          2
    95          1
    96         12
    97        537
    98         87
    99        185
   100         69
   101         55
   102          8
   103        249
   104        126
   105         18
   106          1
   108          5
   109          1
   110          3
   111          2
   112          1
   113         52
   114        109
   115        882
   116        111
   117         26
   118          2
   119          3
   120          2
   121          1
   123          1
   124         16
   125         29
   126         87
   127         29
   128        147
   129         52
   130          5
   131         25
   132         29
   133         17
   134          1
   135          1
   137          1
   138          1
   139          1
   140          1
   141         70
   142         23
   143        529
   144        107
   145         36
   146          4
   147          1
   154          3
   155          6
   156          2
   157          4
   158          1
   159         35
   160         10
   161          8
   162          1
   167          1
   168          1
   169          3
   170          9
   171        941
   172        102
   173         29
   174          3
   175          1
   176          1
   182          3
   187         51
   188         22
   189         16
   190          2
   199          2
   200          1
   201          8
   202          2
   203          1
   215          1
   216        131
   217         37
   218          6
   219          1