##TITLE=Library Entry 66492
##JCAMP-DX=Revision 4.10 
##DATA TYPE=MASS SPECTRUM
##SAMPLE DESCRIPTION=NIST Mass Spectrometry Data Center, 1998.
##NAMES=HP
##CAS NAME=Salicylanilide
##MOLFORM=C13H11NO2
##CAS REGISTRY NO=87-17-2
##MP= -300
##BP= -300
##MW= 213
##$RETENTION INDEX=0
##$CONDENSED SPECTRUM=NO
##NPOINTS= 92
##XYDATA=(XY..XY) 1 
    26          1
    27          4
    28          3
    29          1
    37          4
    38         17
    39        116
    40          9
    41          4
    42          1
    43          1
    44          1
    46          1
    49          1
    50         14
    51         35
    52         11
    53         25
    54          4
    55          2
    61          4
    62         13
    63         53
    64         44
    65        243
    66         59
    67          7
    68          1
    69          1
    70          1
    73          1
    74          5
    75          6
    76          5
    77         32
    78          5
    79          1
    80          1
    82          1
    83          1
    87          1
    88          1
    89          2
    90          3
    91         12
    92         64
    93        999
    94         78
    95          3
   101          1
   102          2
   103          1
   104          1
   105          2
   106          3
   113          1
   114          1
   115          3
   116          1
   117          1
   119          4
   120         12
   121        336
   122         26
   123          3
   126          1
   127          2
   128          4
   129          3
   130          1
   139          3
   140          2
   141          1
   154          3
   155          1
   156          1
   164          1
   165          1
   166          4
   167          4
   168          1
   169          1
   183          1
   184          2
   194          2
   195          2
   196          1
   211          1
   212          4
   213        224
   214         34
   215          3