##TITLE=Library Entry 100596
##JCAMP-DX=Revision 4.10 
##DATA TYPE=MASS SPECTRUM
##SAMPLE DESCRIPTION=Chuck Anderson, Aldrich Chemical Co.
##NAMES=HP
##CAS NAME=Benzoic acid, 2-amino-, ethyl ester
##MOLFORM=C9H11NO2
##CAS REGISTRY NO=87-25-2
##MP= -300
##BP= -300
##MW= 165
##$RETENTION INDEX=1413
##$CONDENSED SPECTRUM=NO
##NPOINTS= 93
##XYDATA=(XY..XY) 1 
    14          0
    15          1
    16          0
    25          0
    26          4
    27         26
    28          3
    29         27
    30          2
    31          1
    36          0
    37          5
    38         20
    39         79
    40          8
    41         18
    42          8
    43          3
    44          4
    45          4
    46          9
    49          0
    50          9
    51          9
    52         34
    53         11
    54          4
    55          1
    56          0
    59          0
    60          8
    61          4
    62         14
    63         56
    64         68
    65        217
    66         32
    67          2
    68          1
    69          0
    71          0
    73          0
    74          3
    75          3
    76          7
    77          6
    78          2
    79          1
    80          4
    81          1
    82          0
    83          0
    86          0
    87          0
    88          1
    89          3
    90         21
    91         77
    92        434
    93         72
    94          5
    95          0
   102          0
   103          0
   104          2
   105          1
   106          1
   107          0
   108          1
   109          0
   116          0
   117          1
   119        999
   120        269
   121         24
   122          1
   123          0
   130          0
   132          8
   133          0
   134          0
   135          0
   136          4
   137         42
   138          3
   139          0
   146          0
   147          0
   164          0
   165        516
   166         50
   167          4
   168          0