##TITLE=Library Entry 97324
##JCAMP-DX=Revision 4.10 
##DATA TYPE=MASS SPECTRUM
##SAMPLE DESCRIPTION=NIST Mass Spectrometry Data Center, 1998.
##NAMES=HP
##CAS NAME=Cinnamyl anthranilate
##MOLFORM=C16H15NO2
##CAS REGISTRY NO=87-29-6
##MP= -300
##BP= -300
##MW= 253
##$RETENTION INDEX=0
##$CONDENSED SPECTRUM=NO
##NPOINTS= 85
##XYDATA=(XY..XY) 1 
    27          3
    29          1
    37          1
    38          5
    39         41
    40          3
    41          6
    42          2
    44          1
    46          1
    50          9
    51         24
    52         16
    53          5
    54          2
    55          3
    57          1
    60          1
    61          1
    62          7
    63         28
    64         18
    65        123
    66         16
    67          1
    74          4
    75          6
    76          8
    77         30
    78         14
    79          5
    80          1
    86          1
    87          2
    88          2
    89         18
    90          7
    91        159
    92        100
    93         15
    94          1
   101          1
   102         13
   103         12
   104          5
   105          5
   106          1
   113          1
   115        354
   116         87
   117        999
   118        115
   119         38
   120         95
   121          8
   122          1
   126          5
   130          2
   131          3
   132         13
   133          3
   137         15
   138          1
   144          1
   158          2
   176          1
   180          1
   193          2
   194          1
   206          4
   207          2
   208         15
   209          3
   210          1
   218          1
   222          1
   224          1
   226          2
   234          8
   235          4
   236          1
   252          6
   253        146
   254         25
   255          3