##TITLE=Library Entry 5631
##JCAMP-DX=Revision 4.10 
##DATA TYPE=MASS SPECTRUM
##SAMPLE DESCRIPTION=R.E.Ardrey ET AL.Pharmaceutical Mass Spectra,L.,1985
##NAMES=HP
##CAS NAME=Isosorbide Dinitrate
##MOLFORM=C6H8N2O8
##CAS REGISTRY NO=87-33-2
##MP= -300
##BP= -300
##MW= 236
##$RETENTION INDEX=0
##$CONDENSED SPECTRUM=NO
##NPOINTS= 57
##XYDATA=(XY..XY) 1 
    26         40
    27        130
    28        130
    29        530
    30        100
    31        970
    33         20
    38         10
    39         80
    40         30
    41        120
    42        210
    43        999
    44        320
    45        200
    46         90
    47         30
    49         20
    53         30
    54         20
    55        130
    56         80
    57        200
    58        100
    59         40
    60        360
    61        450
    62         20
    68         40
    69         70
    70         30
    71        130
    72        140
    73        320
    74         70
    77         20
    81         30
    84         30
    85        360
    86         60
    87         40
    89         30
    90         20
    91         40
    95         20
    96         20
    97         50
    98         40
    99         10
   101         20
   102         50
   103        150
   104         10
   113         10
   115         20
   126         10
   131         20