##TITLE=Library Entry 66572
##JCAMP-DX=Revision 4.10 
##DATA TYPE=MASS SPECTRUM
##SAMPLE DESCRIPTION=NIST Mass Spectrometry Data Center, 1998.
##NAMES=HP
##CAS NAME=Caryophyllene
##MOLFORM=C15H24
##CAS REGISTRY NO=87-44-5
##MP= -300
##BP= -300
##MW= 204
##$RETENTION INDEX=1419
##$CONDENSED SPECTRUM=NO
##NPOINTS= 120
##XYDATA=(XY..XY) 1 
    15          2
    26          3
    27        103
    29         94
    30          2
    37          1
    38          7
    39        288
    40         71
    41        769
    42         46
    43         85
    44          3
    50         17
    51         82
    52         63
    53        299
    54         40
    55        356
    56         76
    57         58
    58          6
    59          3
    60          1
    62          4
    63         25
    64         10
    65        183
    66         57
    67        387
    68         95
    69        754
    70         47
    71         31
    72          2
    74          2
    75          3
    77        439
    78        120
    79        763
    80        192
    81        386
    82        114
    83         35
    84          5
    85          1
    87          1
    89         10
    91        858
    92        259
    93        999
    94        206
    95        216
    96         30
    97         12
    98          1
   101          1
   102          6
   103         51
   104         25
   105        623
   106        342
   107        483
   108        118
   109        205
   110         32
   111         34
   112          5
   113          1
   114          1
   115         50
   116         19
   117         69
   118         19
   119        406
   120        447
   121        305
   122         87
   123         60
   124          9
   125          1
   127          5
   128         16
   129         15
   130          6
   131         42
   132          9
   133        921
   134        244
   135        132
   136         66
   137         18
   138          2
   141          3
   142          2
   143          2
   144          1
   145         15
   146         11
   147        289
   148        267
   149         74
   150         10
   151          1
   159          4
   160         10
   161        330
   162         94
   163         28
   164          3
   173          1
   174          1
   175         99
   176         61
   177          8
   189        166
   190         25
   191          2
   204         65
   205         11