##TITLE=Library Entry 39572
##JCAMP-DX=Revision 4.10 
##DATA TYPE=MASS SPECTRUM
##SAMPLE DESCRIPTION=J. SHAW, BORRISTON RESEARCH, ROCKVILLE, MD, USA
##NAMES=HP
##CAS NAME=Pyrolan
##MOLFORM=C13H15N3O2
##CAS REGISTRY NO=87-47-8
##MP= -300
##BP= -300
##MW= 245
##$RETENTION INDEX=0
##$CONDENSED SPECTRUM=NO
##NPOINTS= 90
##XYDATA=(XY..XY) 1 
    12          2
    13          1
    15        409
    16         10
    17         25
    18        294
    19          1
    26         14
    27         86
    28        148
    29         15
    30          6
    31          1
    32          1
    37          7
    38         28
    39        207
    40        161
    41         34
    42        150
    43         40
    44         39
    45          5
    50         43
    51        200
    52         24
    53          8
    54         15
    56         79
    57          5
    58          2
    61          1
    62          5
    63         19
    64         20
    65         22
    66          4
    67         20
    68         15
    69          6
    72        999
    73        118
    74         14
    75          6
    77        371
    78         26
    79          2
    80          1
    81          1
    82          2
    84          1
    87          1
    88          2
    89         19
    90          5
    91         21
    92          5
    93          2
   102          2
   103          7
   104          6
   105         29
   106         23
   107          3
   110          1
   115         11
   116         13
   117          3
   118          3
   119          2
   128          1
   129          1
   130          1
   131          1
   132          2
   142          1
   144          1
   145          2
   146          1
   159          4
   171          1
   173         30
   174          8
   175          1
   186          1
   187          2
   198          1
   245         81
   246         13
   247          1