##TITLE=Library Entry 82919
##JCAMP-DX=Revision 4.10 
##DATA TYPE=MASS SPECTRUM
##SAMPLE DESCRIPTION=NIST Mass Spectrometry Data Center, 1998.
##NAMES=HP
##CAS NAME=Benzenamine, 2,3-dimethyl-
##MOLFORM=C8H11N
##CAS REGISTRY NO=87-59-2
##MP= -300
##BP= -300
##MW= 121
##$RETENTION INDEX=1202
##$CONDENSED SPECTRUM=NO
##NPOINTS= 75
##XYDATA=(XY..XY) 1 
    15          3
    26          4
    27         25
    28          6
    29          4
    30          9
    37          6
    38         19
    39         81
    40         14
    41         36
    42         36
    43          3
    44          1
    45          3
    46         11
    49          3
    50         35
    51         82
    52         64
    53         63
    54         34
    55          4
    56          2
    57          1
    58         36
    59         30
    60         21
    62         20
    63         47
    64         15
    65         71
    66         31
    67         14
    68          4
    73          2
    74         11
    75         12
    76         15
    77        199
    78        105
    79         87
    80         42
    81          9
    82          1
    85          2
    86          3
    87          3
    88          2
    89         19
    90          9
    91        135
    92         29
    93         67
    94         31
    95          3
    98          1
    99          1
   100          1
   101          2
   102         20
   103        106
   104         59
   105         27
   106        999
   107         81
   108          3
   116          4
   117         18
   118         55
   119         29
   120        525
   121        952
   122         87
   123          4