##TITLE=Library Entry 84259
##JCAMP-DX=Revision 4.10 
##DATA TYPE=MASS SPECTRUM
##SAMPLE DESCRIPTION=R.SELF FOOD RESEARCH INSTITUTE, NORWICH, UK
##NAMES=HP
##CAS NAME=Phenol, 2-chloro-6-methyl-
##MOLFORM=C7H7ClO
##CAS REGISTRY NO=87-64-9
##MP= -300
##BP= -300
##MW= 142
##$RETENTION INDEX=0
##$CONDENSED SPECTRUM=NO
##NPOINTS= 71
##XYDATA=(XY..XY) 1 
    29          6
    31          2
    35          1
    36          5
    37         19
    38         47
    39         95
    40          5
    41          2
    42          2
    43          5
    47          2
    48          2
    49         10
    50         68
    51        198
    52         69
    53         62
    54          3
    55          8
    56          3
    57          3
    60          4
    61         13
    62         22
    63         45
    64          5
    65          4
    66          4
    67          4
    71         25
    72         10
    73         26
    74         19
    75         25
    76         15
    77        337
    78         93
    79        113
    80          9
    81          3
    84          3
    85          6
    86          5
    87          7
    88          2
    89         56
    90          5
    97          3
    99          3
   105         46
   106         16
   107        999
   108         85
   109          5
   111          2
   112          4
   113          8
   114          2
   115          4
   123          1
   124         18
   125          7
   126          6
   127          2
   140          2
   141        144
   142        531
   143         81
   144        180
   145         13