##TITLE=Library Entry 83008
##JCAMP-DX=Revision 4.10 
##DATA TYPE=MASS SPECTRUM
##SAMPLE DESCRIPTION=RADIAN CORP
##NAMES=HP
##CAS NAME=Benzenamine, 2-chloro-6-methyl-
##MOLFORM=C7H8ClN
##CAS REGISTRY NO=87-63-8
##MP= -300
##BP= -300
##MW= 141
##$RETENTION INDEX=1249
##$CONDENSED SPECTRUM=NO
##NPOINTS= 86
##XYDATA=(XY..XY) 1 
    14          3
    15          6
    16          2
    17          3
    26         15
    27         41
    28         51
    29          4
    30         14
    32          2
    35          3
    36          1
    37         23
    38         41
    39         73
    40         11
    41         18
    42         16
    43          1
    44          2
    47          4
    48          3
    49         20
    50        106
    51        198
    52        175
    53         49
    54         31
    55          3
    57          2
    60          6
    61         27
    62         51
    63         84
    64         28
    65         41
    66         21
    67          6
    71          8
    72          9
    73         38
    74         45
    75         63
    76         55
    77        393
    78        154
    79        171
    80         30
    81          2
    84          6
    85         12
    86         14
    87         18
    88         10
    89         81
    90         17
    91          7
    97          4
    98          2
    99         12
   100          7
   101          5
   102         18
   103          6
   104        170
   105         40
   106        999
   107         84
   108          4
   111          4
   112          6
   113         37
   114         20
   115         14
   116          6
   123          6
   124          4
   125         10
   126          1
   127          3
   138          6
   140        346
   141        605
   142        159
   143        200
   144         16