##TITLE=Library Entry 1480
##JCAMP-DX=Revision 4.10 
##DATA TYPE=MASS SPECTRUM
##SAMPLE DESCRIPTION=Japan AIST/NIMC Database- Spectrum MS-NW-1787
##NAMES=HP
##CAS NAME=L-Sorbose
##MOLFORM=C6H12O6
##CAS REGISTRY NO=87-79-6
##MP= -300
##BP= -300
##MW= 180
##$RETENTION INDEX=0
##$CONDENSED SPECTRUM=NO
##NPOINTS= 107
##XYDATA=(XY..XY) 1 
    12          9
    13         21
    14         81
    15        487
    16          9
    17         77
    18        253
    19         15
    24          4
    25         16
    26         66
    27        150
    28        122
    29        554
    30        137
    31        999
    32        115
    33         45
    36          2
    37          8
    38          9
    39         43
    40         16
    41         60
    42        296
    43        908
    44        276
    45        163
    46          5
    47         16
    49         29
    50          2
    51          3
    52          3
    53         14
    54         14
    55         91
    56         49
    57        164
    58         37
    59         36
    60        485
    61        604
    62         29
    63          3
    67          4
    68         22
    69         46
    70          9
    71        187
    72        330
    73        632
    74         51
    75          9
    76          3
    77         25
    78          1
    79          2
    80          2
    81          6
    82          3
    83          8
    84         11
    85         90
    86         65
    87         14
    88          7
    89         30
    90         94
    91         31
    92          1
    94          1
    95          6
    96         12
    97         14
    98          8
    99          2
   100          3
   101         14
   102         27
   103        168
   104         10
   105          2
   107          1
   109          1
   110          2
   111          2
   113         22
   114          5
   115         10
   116          3
   119          9
   120          1
   121         11
   122          1
   125          1
   126          8
   127          2
   128          1
   129          1
   131         30
   132          4
   133          4
   144          5
   145          1
   149         40
   150          3