##TITLE=Library Entry 41132
##JCAMP-DX=Revision 4.10 
##DATA TYPE=MASS SPECTRUM
##SAMPLE DESCRIPTION=Exported from NIST MS Search
##NAMES=HP
##CAS NAME=Myo-Inositol
##MOLFORM=C6H12O6
##CAS REGISTRY NO=87-89-8
##MP= -300
##BP= -300
##MW= 180
##$RETENTION INDEX=2152
##$CONDENSED SPECTRUM=NO
##NPOINTS= 50
##XYDATA=(XY..XY) 1 
    39         19
    41         28
    42         90
    43        111
    44         31
    45         57
    47         12
    53         33
    54         13
    55         33
    56         19
    57         37
    58         11
    59          7
    60        293
    61         58
    69         26
    70          9
    71        138
    72         68
    73        999
    74         58
    75          9
    81          5
    83          6
    84          5
    85         15
    89         32
    90          6
    91         30
    94          1
    95          1
    96          1
    97          9
    98          6
    99          3
   100          1
   101          5
   102        118
   103          9
   109          7
   115          6
   125          1
   126          3
   127          2
   144         21
   145          3
   162          1
   163          1
   181          3