##TITLE=Library Entry 40522
##JCAMP-DX=Revision 4.10 
##DATA TYPE=MASS SPECTRUM
##SAMPLE DESCRIPTION=Japan AIST/NIMC Database- Spectrum MS-NW-6972
##NAMES=HP
##CAS NAME=D-Tagatose
##MOLFORM=C6H12O6
##CAS REGISTRY NO=87-81-0
##MP= -300
##BP= -300
##MW= 180
##$RETENTION INDEX=0
##$CONDENSED SPECTRUM=NO
##NPOINTS= 112
##XYDATA=(XY..XY) 1 
    12          2
    13          4
    14         24
    15        148
    16          4
    17         10
    18         39
    19         10
    24          1
    25          6
    26         26
    27        115
    28         47
    29        323
    30         61
    31        588
    32         36
    33         16
    36          1
    37          4
    38          6
    39         42
    40         16
    41         67
    42        165
    43        510
    44        180
    45        172
    46          6
    47         21
    49         48
    50          2
    51          3
    52          2
    53          9
    54         13
    55         86
    56         57
    57        235
    58         53
    59         36
    60        354
    61        380
    62         17
    63          3
    66          1
    67          3
    68         38
    69         55
    70          8
    71        240
    72        188
    73        999
    74         65
    75         17
    76          5
    77         46
    78          1
    79          2
    80          1
    81          2
    82          1
    83          9
    84          9
    85        103
    86        122
    87         19
    88          4
    89         41
    90        104
    91         31
    92          2
    93          1
    95          4
    96          7
    97          9
    98          5
    99          2
   100          4
   101         18
   102         21
   103        201
   104         25
   105          4
   107          1
   109          1
   110          2
   111          1
   113         26
   114          6
   115          8
   116          3
   119          9
   120          1
   121         17
   122          1
   123          1
   125          1
   126          3
   127          2
   131         75
   132         13
   133          6
   134          1
   136          1
   144          8
   145          2
   149         85
   150          6
   151          1
   162          1
   163          3