##TITLE=Library Entry 37570
##JCAMP-DX=Revision 4.10 
##DATA TYPE=MASS SPECTRUM
##SAMPLE DESCRIPTION=Japan AIST/NIMC Database- Spectrum MS-NW-5511
##NAMES=HP
##CAS NAME=Symclosene
##MOLFORM=C3Cl3N3O3
##CAS REGISTRY NO=87-90-1
##MP= -300
##BP= -300
##MW= 231
##$RETENTION INDEX=0
##$CONDENSED SPECTRUM=NO
##NPOINTS= 73
##XYDATA=(XY..XY) 1 
    12         11
    13          1
    14          6
    15          3
    16          2
    26          9
    27          2
    28         80
    29          9
    30         15
    35         56
    37         17
    40         15
    41          2
    42        178
    43         55
    44          9
    47          2
    49         97
    50          1
    51         32
    52          2
    54         11
    56          3
    61          1
    63         25
    64          2
    65          8
    68          9
    69          1
    70        999
    71         26
    72        128
    74         22
    75          2
    77        813
    78         14
    79        263
    80          5
    84          3
    86          1
    91          1
   103          9
   105          3
   110        147
   111          4
   112         97
   113          4
   114         18
   116          1
   120         69
   121          2
   122         24
   123          1
   154        183
   155          6
   156        116
   157          4
   158         19
   163          4
   165          2
   197         60
   198          3
   199         39
   200          2
   201          7
   231        245
   232         11
   233        233
   234         11
   235         77
   236          4
   237          9