##TITLE=Library Entry 46373
##JCAMP-DX=Revision 4.10 
##DATA TYPE=MASS SPECTRUM
##SAMPLE DESCRIPTION=H. Fales, LC, NHLBI, NIH, Bethesda, MD 20892
##NAMES=HP
##CAS NAME=Dibutyl tartrate
##MOLFORM=C12H22O6
##CAS REGISTRY NO=87-92-3
##MP= -300
##BP= -300
##MW= 262
##$RETENTION INDEX=0
##$CONDENSED SPECTRUM=NO
##NPOINTS= 127
##XYDATA=(XY..XY) 1 
    41        298
    42         41
    43         61
    44          7
    45         26
    47          7
    48          0
    49          2
    51          0
    53          9
    54          5
    55         70
    56        125
    57        619
    58         73
    59         60
    60         94
    61         20
    63          1
    67          0
    69         10
    70         23
    71         52
    72          2
    73         17
    74          0
    76        999
    77        174
    78          8
    79          3
    81          2
    82          0
    83          2
    84         10
    85          9
    86          6
    87         20
    88         50
    89         98
    90          4
    91          1
    93          1
    95          0
    97          5
    98          3
    99          4
   100          2
   101         38
   102          4
   103          3
   104          4
   105        715
   106         21
   107          7
   111          0
   113          3
   115         20
   116          4
   117          7
   118          3
   119          2
   123         23
   125          4
   126          3
   127          1
   129          3
   131         47
   132        839
   133         58
   134          6
   135          2
   141          2
   143         25
   144          7
   145         22
   146          2
   147          2
   148          0
   149          2
   150          0
   151         59
   152          2
   153          0
   155          4
   157          9
   159          2
   160          2
   161        263
   162         20
   163          4
   169          1
   171          1
   173          3
   175          3
   176          0
   177          0
   179          0
   185          2
   187          2
   188          1
   189         11
   190          1
   191          6
   199          0
   201          1
   203          0
   205          4
   207         65
   208          5
   209          0
   217          4
   218          5
   219          6
   220          0
   229          3
   231          2
   232          1
   244          0
   245          5
   246          5
   247          5
   249          1
   257          0
   261          1
   262         92
   263         22
   264          3