##TITLE=Library Entry 76873
##JCAMP-DX=Revision 4.10 
##DATA TYPE=MASS SPECTRUM
##SAMPLE DESCRIPTION=Japan AIST/NIMC Database- Spectrum MS-NW-1116
##NAMES=HP
##CAS NAME=(+)-Diethyl L-tartrate
##MOLFORM=C8H14O6
##CAS REGISTRY NO=87-91-2
##MP= -300
##BP= -300
##MW= 206
##$RETENTION INDEX=2358
##$CONDENSED SPECTRUM=NO
##NPOINTS= 83
##XYDATA=(XY..XY) 1 
    14          9
    15         36
    16          2
    17          5
    18         20
    19          3
    25          1
    26         21
    27        203
    28         62
    29        657
    30         53
    31        211
    32          8
    33          1
    36          2
    39          1
    40          2
    41         13
    42         75
    43         87
    44         20
    45         79
    46          7
    47        319
    48          7
    49         41
    53          2
    54          2
    55          2
    56          1
    57         10
    58        101
    59        174
    60        137
    61        169
    62          4
    63          2
    69          9
    70         30
    71         60
    72          4
    73          5
    74          3
    75        146
    76        813
    77        270
    78         10
    79          2
    82          1
    83          1
    86          1
    87        148
    88         55
    89         12
    90          2
    91          1
    98          2
    99          9
   100          1
   101          4
   102          1
   103         74
   104        999
   105        189
   106         11
   107          2
   115         22
   116          9
   117          6
   126          1
   127          4
   131          3
   132          4
   133        547
   134         32
   135          5
   143          1
   145          4
   149          5
   160          2
   161          2
   189          1