##TITLE=Library Entry 31171
##JCAMP-DX=Revision 4.10 
##DATA TYPE=MASS SPECTRUM
##SAMPLE DESCRIPTION=D.HENNEBERG, MAX-PLANCK INSTITUTE, MULHEIM, WEST GERMAN
Y
##NAMES=HP
##CAS NAME=Xylitol
##MOLFORM=C5H12O5
##CAS REGISTRY NO=87-99-0
##MP= -300
##BP= -300
##MW= 152
##$RETENTION INDEX=0
##$CONDENSED SPECTRUM=NO
##NPOINTS= 99
##XYDATA=(XY..XY) 1 
    26          6
    27         84
    28        164
    29        112
    30         15
    31        250
    32         12
    33          4
    34          0
    35          1
    36          8
    37          0
    38          2
    39         17
    40          4
    41         21
    42         52
    43        501
    44        489
    45        326
    46         17
    47         19
    49          5
    50          1
    51          1
    52          0
    53          3
    54          5
    55        105
    56        331
    57        137
    58         11
    59         11
    60        126
    61        999
    62         47
    63          7
    64          0
    65          0
    66          0
    67          1
    68          2
    69          7
    70          4
    71         25
    72         26
    73        383
    74        490
    75         25
    76          2
    77          2
    78          0
    79          1
    80          0
    81          1
    82          1
    83          1
    84          1
    85         69
    86          7
    87          3
    88         10
    89          5
    90          7
    91        370
    92         13
    93          2
    96          2
    97          1
    98          2
    99          2
   100          0
   101          1
   102          0
   103        263
   104         17
   105          6
   106          0
   109          0
   111          0
   112          0
   113          0
   115          0
   116          1
   117          1
   118          0
   119          0
   120          0
   121         13
   122          1
   123          0
   127          0
   128          0
   129          0
   130          0
   131          0
   133          8
   134          0
   135          0