##TITLE=Library Entry 57714
##JCAMP-DX=Revision 4.10 
##DATA TYPE=MASS SPECTRUM
##SAMPLE DESCRIPTION=Japan AIST/NIMC Database- Spectrum MS-NW- 602
##NAMES=HP
##CAS NAME=DL-Homocystine
##MOLFORM=C8H16N2O4S2
##CAS REGISTRY NO=870-93-9
##MP= -300
##BP= -300
##MW= 268
##$RETENTION INDEX=0
##$CONDENSED SPECTRUM=NO
##NPOINTS= 245
##XYDATA=(XY..XY) 1 
    12         12
    13          3
    14         10
    15         54
    16         54
    17         22
    18         99
    19          4
    24          2
    25          7
    26         72
    27        216
    28        787
    29        157
    30        610
    31         21
    32        112
    33        113
    34        305
    35         48
    36         23
    37         12
    38         22
    39        121
    40         36
    41        218
    42        276
    43        357
    44        735
    45        233
    46         89
    47        256
    48         15
    49         13
    50          6
    51         16
    52         36
    53         31
    54        187
    55        204
    56        884
    57        202
    58         51
    59        147
    60        140
    61        308
    62         33
    63         35
    64         58
    65         10
    66         14
    67         36
    68         84
    69         48
    70         47
    71         28
    72         56
    73        137
    74        365
    75        166
    76         11
    77          8
    78          7
    79         12
    80         28
    81         13
    82         41
    83         56
    84         29
    85         19
    86         43
    87        116
    88        999
    89        267
    90        805
    91         86
    92         54
    93         25
    94         39
    95         23
    96         21
    97         15
    98         10
    99         20
   100         47
   101        134
   102         52
   103         14
   104          7
   105         16
   106         33
   107         12
   108          9
   109          8
   110         14
   111         12
   112         10
   113         10
   114         24
   115         15
   116         24
   117        366
   118         33
   119         21
   120         11
   121          8
   122          7
   123          8
   124          9
   125          9
   126         11
   127         14
   128         44
   129         16
   130         10
   131          8
   132          5
   133        294
   134         70
   135         45
   136         21
   137          8
   138          8
   139          9
   140          7
   141          6
   142          5
   143          4
   144          5
   145         19
   146         13
   147          9
   148          5
   149          5
   150         16
   151          5
   152          7
   153          6
   154          6
   155          8
   156          9
   157         11
   158          5
   159          7
   160          9
   161         11
   162          5
   163          5
   164          5
   165          8
   166          6
   167          7
   168          6
   169          4
   170          4
   171          6
   172          9
   173          9
   174          6
   175          4
   176          4
   177          3
   178          4
   179          4
   180          4
   181          4
   182          4
   183          4
   184          3
   185          4
   186          3
   187          3
   188          3
   189          2
   190          3
   191          2
   192          3
   193          3
   194          4
   195          3
   196          3
   197          4
   198          3
   199          5
   200          4
   201          4
   202          3
   203          2
   204          3
   205          4
   206          4
   207          3
   208          3
   209          3
   210          2
   211          3
   212          2
   213          3
   214          2
   215          3
   216          3
   217          2
   218          2
   219          2
   220          2
   221          2
   222          2
   223          2
   224          2
   225          2
   226          2
   227          2
   228          2
   229          2
   230          2
   231          2
   232          5
   233          2
   234          3
   235          1
   236          2
   237          2
   238          3
   239          2
   240          2
   241          2
   242          2
   243          1
   244          2
   245          2
   246          2
   247          1
   248          2
   249          1
   250          2
   251          1
   252          1
   253          1
   264          2
   265          1
   266          1
   267          1
   268          2
   269          1
   270          1