##TITLE=Library Entry 3323
##JCAMP-DX=Revision 4.10 
##DATA TYPE=MASS SPECTRUM
##SAMPLE DESCRIPTION=NIST Mass Spectrometry Data Center, 1990.
##NAMES=HP
##CAS NAME=2-Butene, 1-bromo-3-methyl-
##MOLFORM=C5H9Br
##CAS REGISTRY NO=870-63-3
##MP= -300
##BP= -300
##MW= 148
##$RETENTION INDEX=837
##$CONDENSED SPECTRUM=NO
##NPOINTS= 56
##XYDATA=(XY..XY) 1 
    12          1
    13          1
    14          5
    15         22
    26         44
    27        188
    28         34
    29         36
    30          1
    36          3
    37         24
    38         52
    39        279
    40         85
    41        999
    42         59
    43         25
    44          2
    49         11
    50         46
    51         66
    52         32
    53        169
    54         45
    55          7
    60          1
    61          7
    62          9
    63         10
    64          2
    65         21
    66          1
    67        103
    68          1
    69        777
    70         48
    71          1
    73          5
    74          3
    78          1
    79         10
    80          5
    81         13
    82          3
    83          1
    93          3
    95          1
   107          1
   109          1
   119          3
   133          2
   135          1
   148         36
   149          1
   150         39
   151          1