##TITLE=Library Entry 19674
##JCAMP-DX=Revision 4.10 
##DATA TYPE=MASS SPECTRUM
##SAMPLE DESCRIPTION=R RYHAGE MS-LAB KAROLINSKA INSTITUTET STOCKHOLM SWEDEN
##NAMES=HP
##CAS NAME=Octadecanoic acid, 10-oxo-, methyl ester
##MOLFORM=C19H36O3
##CAS REGISTRY NO=870-10-0
##MP= -300
##BP= -300
##MW= 312
##$RETENTION INDEX=0
##$CONDENSED SPECTRUM=NO
##NPOINTS= 143
##XYDATA=(XY..XY) 1 
    15         51
    17         12
    18         39
    26         20
    27        139
    28         96
    29        273
    30         12
    31         17
    37          5
    38          8
    39        133
    40         35
    41        649
    42        181
    43        817
    44         40
    45         34
    50          6
    51         10
    52          7
    53         64
    54         62
    55        999
    56        173
    57        755
    58        381
    59        356
    65         13
    66         10
    67        181
    68         66
    69        412
    70        104
    71        736
    72         71
    73         59
    74        218
    75         16
    77         15
    79         67
    80         33
    81        218
    82         92
    83        218
    84        169
    85         87
    86         14
    87        121
    88         14
    91         12
    93         42
    94         21
    95        106
    96        162
    97        300
    98        185
    99         39
   100         46
   101         37
   105          7
   107         41
   108          8
   109         31
   110         15
   111         85
   112         39
   113         47
   114         29
   115         22
   119          5
   121         94
   122         19
   123         49
   124        162
   125        277
   126         53
   127         36
   128         17
   129         13
   130          5
   131          8
   132          5
   135          6
   136          5
   137          8
   138         27
   139        156
   140         64
   141        270
   142         29
   143          8
   144         41
   145          7
   149         29
   150          5
   153          6
   154         46
   155          9
   156        487
   157        362
   158         60
   159          8
   164         56
   165         10
   167         67
   168          9
   169         54
   171         55
   172         29
   181          6
   182         98
   183         36
   184          5
   195         60
   196         32
   197         15
   199        235
   200         30
   209          8
   214        424
   215         60
   216          6
   220          5
   223          6
   227         32
   228          6
   237          8
   238          5
   239         40
   240          8
   251          9
   252         13
   253         14
   262          5
   263          5
   279         11
   280         11
   281        166
   282         35
   283          6
   312         31
   313         14