##TITLE=Library Entry 30491
##JCAMP-DX=Revision 4.10 
##DATA TYPE=MASS SPECTRUM
##SAMPLE DESCRIPTION=Chemical Concepts
##NAMES=HP
##CAS NAME=CH3C(S)SC2H5
##MOLFORM=C4H8S2
##CAS REGISTRY NO=870-73-5
##MP= -300
##BP= -300
##MW= 120
##$RETENTION INDEX=0
##$CONDENSED SPECTRUM=NO
##NPOINTS= 52
##XYDATA=(XY..XY) 1 
    25          8
    26         38
    27        150
    29         70
    30          1
    33          7
    34          5
    35         17
    37          2
    38          1
    39          4
    41          6
    43          8
    44          5
    45         85
    46         22
    47         24
    48          1
    53          5
    55          4
    56          6
    57         64
    58        156
    59        999
    60         50
    61         56
    62          6
    63          1
    64          9
    65          4
    69          3
    71          1
    73          1
    75          5
    76         29
    77         22
    78          1
    87          2
    88          3
    90          2
    91         30
    92         93
    93          5
    94          6
    96          1
   103          5
   105          2
   120        252
   121         13
   122         26
   123          1
   124          1