##TITLE=Library Entry 44503
##JCAMP-DX=Revision 4.10 
##DATA TYPE=MASS SPECTRUM
##SAMPLE DESCRIPTION=TNO Volatile Compounds in Food - Chemical Concepts
##NAMES=HP
##CAS NAME=Allyl mercaptan
##MOLFORM=C3H6S
##CAS REGISTRY NO=870-23-5
##MP= -300
##BP= -300
##MW= 74
##$RETENTION INDEX=603
##$CONDENSED SPECTRUM=NO
##NPOINTS= 36
##XYDATA=(XY..XY) 1 
    24          1
    25          7
    26         44
    27         59
    29          0
    33         28
    34         15
    35          9
    36         11
    37         60
    38        111
    39        736
    40         66
    41        974
    44          8
    45        342
    46        125
    47        138
    48         14
    49          5
    53          0
    55          3
    56          7
    57         12
    58          7
    59         53
    60          3
    68         11
    69         41
    70          4
    71         49
    72         16
    73         87
    74        999
    75         39
    76          8