##TITLE=Library Entry 59725
##JCAMP-DX=Revision 4.10 
##DATA TYPE=MASS SPECTRUM
##SAMPLE DESCRIPTION=A.A.Kutin, Moscow, Russia
##NAMES=HP
##CAS NAME=Propenoic acid, 3-(4-benzyloxyphenyl)-, ethyl ester
##MOLFORM=C18H18O3
##CAS REGISTRY NO=87030-11-3
##MP= -300
##BP= -300
##MW= 282
##$RETENTION INDEX=0
##$CONDENSED SPECTRUM=NO
##NPOINTS= 149
##XYDATA=(XY..XY) 1 
    37          0
    38          5
    39         34
    40          3
    41          9
    42          0
    43          1
    44          0
    45          2
    46          0
    50          7
    51         18
    52          5
    53          3
    54          0
    55          1
    59          0
    61          1
    62          8
    63         35
    64         16
    65        103
    66          6
    67          0
    69          6
    70          0
    71          0
    74          2
    75          4
    76          6
    77         14
    78          2
    79          6
    80          0
    81          0
    82          0
    84          0
    85          0
    86          0
    87          1
    89         45
    91        999
    92         91
    93          3
    94          0
    95          0
    96          0
    97          0
    98          0
    99          0
   100          0
   101          1
   102          5
   103          1
   104          1
   105          1
   106          0
   107          3
   108          0
   109          0
   110          0
   113          0
   115          1
   116          0
   117          5
   118         19
   119          5
   120          1
   121          2
   122          0
   125          0
   126          0
   127          0
   128          0
   129          0
   130          0
   131          0
   132          0
   133          0
   134          0
   135          2
   136          0
   137          0
   139          0
   140          0
   141          0
   142          0
   143          0
   146         14
   147          4
   148          0
   150          0
   151          0
   152          1
   153          0
   154          0
   155          0
   159          0
   160          0
   161          0
   163          5
   164          1
   165          1
   166          0
   167          0
   168          0
   174          0
   175          0
   176          0
   177          0
   178          2
   179          1
   180          0
   181          0
   182          0
   183          0
   188          0
   189          0
   190          0
   191          3
   192          1
   193          0
   194          0
   195          0
   196          0
   205          0
   206          0
   207          0
   208          5
   209          1
   210          0
   211          0
   213          0
   219          0
   227          0
   234          0
   235          0
   237         31
   238          5
   239          0
   240          0
   251          0
   253          1
   254          0
   267          0
   282         66
   283         13
   284          1
   285          0