##TITLE=Library Entry 72905
##JCAMP-DX=Revision 4.10 
##DATA TYPE=MASS SPECTRUM
##SAMPLE DESCRIPTION=A.A.Kutin, Moscow, Russia
##NAMES=HP
##CAS NAME=Cyclohexenemethanamine, N-phenyl-
##MOLFORM=C12H25N
##CAS REGISTRY NO=87033-87-2
##MP= -300
##BP= -300
##MW= 183
##$RETENTION INDEX=0
##$CONDENSED SPECTRUM=NO
##NPOINTS= 77
##XYDATA=(XY..XY) 1 
    33          2
    34          1
    39         50
    40         35
    41        176
    42         47
    43        212
    44        591
    46          0
    48          0
    50          1
    51          3
    52          4
    53         19
    55        177
    56         31
    57         15
    58          4
    59          0
    60          0
    63          1
    64          0
    65          4
    66          2
    67         22
    68         10
    69         17
    70         26
    71         13
    72          1
    73          0
    76          0
    77          4
    78          1
    79          4
    80          2
    81          4
    82          5
    83          5
    84          5
    86          9
    87          1
    88          0
    91          9
    92          0
    93          2
    94          1
    95         12
    96          4
    97         18
    98         10
   100        999
   101         64
   104          0
   105          0
   106          0
   108          0
   110          4
   111          0
   112          2
   113          1
   120          4
   121          0
   124          3
   126        185
   127         14
   128          0
   139          0
   140          0
   149          0
   152          0
   154          0
   157          1
   171          0
   182          5
   183         56
   184          6