##TITLE=Library Entry 24804
##JCAMP-DX=Revision 4.10 
##DATA TYPE=MASS SPECTRUM
##SAMPLE DESCRIPTION=Chemical Concepts
##NAMES=HP
##CAS NAME=4-(3,5-Di-tert-butyl-4-hydroxyphenyl)butyl acrylate
##MOLFORM=C21H32O3
##CAS REGISTRY NO=87033-84-9
##MP= -300
##BP= -300
##MW= 332
##$RETENTION INDEX=0
##$CONDENSED SPECTRUM=NO
##NPOINTS= 188
##XYDATA=(XY..XY) 1 
    34          1
    36          3
    37          3
    39        109
    41        477
    43        163
    44         25
    45         11
    47          1
    49          1
    50          7
    51         25
    53         66
    55        799
    57        999
    58         59
    60          2
    63         17
    65         48
    66          8
    67         36
    69         41
    70          7
    71         18
    72         15
    73         56
    74          4
    75          3
    77         65
    78         18
    79         41
    80         19
    81         17
    83         14
    85         13
    86          4
    87          8
    89          8
    91        112
    92         10
    93         22
    94         10
    95          9
    96          1
    97          4
    98          1
    99          1
   100          2
   101          4
   102          7
   103         18
   105         70
   107         37
   108          4
   109          7
   110          2
   111          1
   112          2
   113          3
   115         62
   116         21
   117         36
   119         62
   120         13
   121         31
   122          4
   123          7
   124          1
   125          2
   127         23
   128         58
   129         61
   130         19
   131         40
   132         11
   133         43
   134          9
   135         11
   136          2
   137          3
   139          3
   141         32
   142         20
   143         26
   144         18
   145         52
   147        179
   148         24
   149         21
   150          3
   151          2
   152          6
   153         11
   154          8
   155         15
   156         10
   157         15
   158          9
   159         26
   161         94
   162         17
   163         17
   164          5
   165          6
   166          3
   167          4
   168          3
   169          7
   170          7
   171         10
   172          5
   173         21
   174          7
   175         40
   176         14
   177          5
   178          2
   179          6
   180          1
   181          1
   182          1
   183          2
   184          2
   185          9
   187         61
   189        592
   190         81
   191          9
   192          1
   193          1
   197          1
   199          3
   200          3
   201         18
   203        213
   204         43
   205         14
   206          2
   207          1
   211          1
   213          1
   215          7
   217         62
   219        273
   220         39
   221          5
   222          1
   226          1
   227          1
   228          1
   229          5
   230          2
   231          7
   232         50
   233         11
   234          1
   235          1
   243          3
   244          2
   245         12
   246          3
   247          2
   248          1
   256          1
   257          1
   258          2
   259          8
   260         11
   261         54
   262          9
   263          2
   274          1
   275          2
   276          9
   277          3
   278          2
   297          1
   306          1
   316          1
   317          4
   318          1
   320          1
   327          4
   329         10
   332        377
   333         95
   334         12
   335          1