##TITLE=Library Entry 82223
##JCAMP-DX=Revision 4.10 
##DATA TYPE=MASS SPECTRUM
##SAMPLE DESCRIPTION=LAC, NIDDK, NIH, Bethesda, MD 20892
##NAMES=HP
##CAS NAME=Propenoic acid, 2-benzoylamino-3-[3,5-di-t-butyl-4-hydroxyphenyl]
-
##MOLFORM=C24H29NO4
##CAS REGISTRY NO=87074-20-2
##MP= -300
##BP= -300
##MW= 395
##$RETENTION INDEX=0
##$CONDENSED SPECTRUM=NO
##NPOINTS= 156
##XYDATA=(XY..XY) 1 
    41         50
    42          3
    43         15
    44         71
    45          2
    47          9
    48          4
    49         40
    50         10
    51         45
    52          1
    53          7
    55         15
    57        170
    58          6
    60          1
    63          1
    65          6
    67          6
    69          7
    71          2
    75          1
    76          6
    77        281
    78         22
    79          7
    80          2
    81          1
    84         44
    86         29
    88          6
    89          1
    91         16
    93          4
    95          1
    97          1
    99          1
   100          1
   102          3
   103          7
   104          4
   105        999
   106         64
   107          8
   110          1
   115         15
   116         10
   117         12
   118          5
   119          5
   121         10
   122          5
   127          7
   128         13
   129         13
   130         12
   131         11
   132          6
   133         11
   134         90
   135         10
   139          3
   141          8
   142          5
   143          7
   144          8
   145          7
   146         12
   147          3
   148          3
   149          5
   152          4
   153          5
   154          8
   155          6
   156          7
   157          7
   158          6
   159          8
   160          7
   161          5
   163          4
   165          2
   167          3
   168          3
   169          1
   170          6
   171          5
   172         23
   173         10
   174         16
   175          5
   178         10
   179          1
   181          2
   186          5
   187          6
   188         10
   189          6
   190         11
   191          7
   192          2
   200          6
   201          1
   202          4
   203          3
   204          1
   214          3
   215          8
   216         23
   217         11
   218          2
   219         22
   220          3
   229          1
   230         30
   231          8
   232          2
   233         18
   234         22
   235          9
   244          5
   245         76
   246         29
   247          6
   248         14
   249          3
   250          2
   258          2
   259          1
   260          1
   261          1
   262          9
   274          1
   276          5
   280          5
   294          1
   320          1
   324          1
   334          3
   335          1
   336         41
   337         10
   349         12
   350          6
   351        517
   352        131
   353         20
   355          2
   362          7
   377         33
   378         10
   380          3
   395        261
   396         72
   397         11