##TITLE=Library Entry 38872
##JCAMP-DX=Revision 4.10 
##DATA TYPE=MASS SPECTRUM
##SAMPLE DESCRIPTION=P. VENTURA, CAMILLO CORVI, STRADONE FARNESE, PIACENZA,
 ITALY
##NAMES=HP
##CAS NAME=1,2-trans-1,5-trans-2,5-dihydroxy-4-methyl-1-(1-hydroxy-1-isoprop
yl)cyclohex-3-ene
##MOLFORM=C10H18O3
##CAS REGISTRY NO=87096-71-7
##MP= -300
##BP= -300
##MW= 186
##$RETENTION INDEX=0
##$CONDENSED SPECTRUM=NO
##NPOINTS= 53
##XYDATA=(XY..XY) 1 
    51         90
    52         30
    53        200
    54         70
    55        350
    56         90
    57        120
    58         50
    59        950
    60         80
    63         10
    65         90
    66         90
    67        310
    68        160
    69        500
    70        860
    71        999
    72         90
    77        180
    78         30
    79        140
    80         60
    81        270
    82         80
    83        100
    84        110
    85         70
    91        160
    92         70
    93        120
    94         40
    95        940
    96         80
    97         60
    98         30
    99         50
   100        130
   101         10
   107         70
   108         80
   109        470
   110        420
   111         70
   122         40
   123         20
   124         30
   125        100
   126         10
   135         50
   150         10
   153         70
   168         40