##TITLE=Library Entry 35864
##JCAMP-DX=Revision 4.10 
##DATA TYPE=MASS SPECTRUM
##SAMPLE DESCRIPTION=L.N.Kulikova, V.G. Zaikin, Peoples' Friendship Universi
ty of Russia, Moscow
##NAMES=HP
##CAS NAME=N-Hexylmethacrylamide
##MOLFORM=C10H19NO
##CAS REGISTRY NO=87096-75-1
##MP= -300
##BP= -300
##MW= 169
##$RETENTION INDEX=0
##$CONDENSED SPECTRUM=NO
##NPOINTS= 66
##XYDATA=(XY..XY) 1 
    15          2
    18          1
    26          2
    27         37
    28         18
    29         47
    30         37
    37          1
    38          6
    39        112
    40         11
    41        408
    42         42
    43        100
    44         20
    45          1
    51          2
    52          6
    53         12
    54          8
    55         56
    56         32
    58         22
    59          3
    60          1
    65          1
    66          1
    67          7
    69        999
    70         61
    71          8
    72          2
    73          4
    78          1
    79          5
    80          1
    81          2
    82          3
    83          5
    84         60
    85         18
    86         76
    87          4
    88          1
    95          1
    96          6
    98        527
    99        334
   100         17
   101          1
   110          5
   111          4
   112        179
   113         36
   114          3
   126        192
   127         32
   128         14
   140         88
   141          9
   152          1
   154         22
   155          2
   168          9
   169         31
   170          7