##TITLE=Library Entry 71229
##JCAMP-DX=Revision 4.10 
##DATA TYPE=MASS SPECTRUM
##SAMPLE DESCRIPTION=Japan AIST/NIMC Database- Spectrum MS-IW-3635
##NAMES=HP
##CAS NAME=Octadecanedioic acid
##MOLFORM=C18H34O4
##CAS REGISTRY NO=871-70-5
##MP= -300
##BP= -300
##MW= 314
##$RETENTION INDEX=0
##$CONDENSED SPECTRUM=NO
##NPOINTS= 225
##XYDATA=(XY..XY) 1 
    15          1
    17          2
    18          7
    26          1
    27         27
    28         13
    29         71
    30          2
    31          6
    32          1
    39         24
    40          5
    41        221
    42         45
    43        217
    44          9
    45         38
    46          1
    47          1
    51          1
    53         15
    54         25
    55        356
    56         60
    57        161
    58         13
    59         28
    60        177
    61         35
    62          1
    65          3
    66          4
    67         61
    68         47
    69        230
    70         49
    71         90
    72          8
    73        245
    74         35
    75          6
    77          3
    78          2
    79         16
    80         27
    81         71
    82         52
    83        178
    84        441
    85         75
    86          7
    87         49
    88          4
    89          1
    91          4
    92          2
    93         21
    94         38
    95         66
    96         55
    97        150
    98        999
    99        113
   100         12
   101         32
   102          8
   103          1
   105          3
   106          2
   107         20
   108         36
   109         38
   110         29
   111         81
   112        358
   113         47
   114         11
   115         35
   116         14
   117          2
   118          1
   119          6
   120          3
   121         38
   122         22
   123         26
   124         17
   125         45
   126        120
   127         23
   128          4
   129         74
   130         86
   131          9
   132          1
   133          7
   134          5
   135         30
   136         12
   137         16
   138         15
   139         26
   140         72
   141         13
   142          2
   143         21
   144         20
   145          3
   146          1
   147          6
   148          4
   149         18
   150          9
   151         10
   152         12
   153         17
   154         61
   155         10
   156          2
   157         12
   158          9
   159          2
   161          4
   162          2
   163          9
   164          5
   165          8
   166          9
   167         11
   168         26
   169          6
   170          1
   171         31
   172         10
   173          2
   175          2
   176          2
   177          5
   178          3
   179          6
   180          9
   181         12
   182         17
   183          5
   184          2
   185         28
   186          7
   187          1
   189          1
   191          3
   192          4
   193          4
   194         17
   195         14
   196         15
   197          9
   198          4
   199          9
   200          6
   201          1
   202          2
   203          1
   205          1
   206          2
   207          4
   208          9
   209          9
   210         12
   211          5
   212          9
   213          9
   214          3
   217          1
   218          3
   219          8
   220          2
   221          3
   222          5
   223          3
   224          6
   225          2
   226          1
   227         35
   228          6
   229          1
   232          2
   234          3
   235          6
   236         21
   237         36
   238          7
   239          1
   240          9
   241          9
   242          3
   249          2
   250         28
   251          6
   252          7
   253          3
   254          7
   255          9
   256          2
   260          4
   261          2
   268          2
   269          2
   270        229
   271         43
   272          5
   276          2
   277          9
   278         98
   279         20
   280          3
   284          2
   294          1
   295          2
   296        139
   297         37
   298          6
   310          4
   311          1
   314          8
   315          2