##TITLE=Library Entry 58943
##JCAMP-DX=Revision 4.10 
##DATA TYPE=MASS SPECTRUM
##SAMPLE DESCRIPTION=Japan AIST/NIMC Database- Spectrum MS-IW-2920
##NAMES=HP
##CAS NAME=1,7-Octadiyne
##MOLFORM=C8H10
##CAS REGISTRY NO=871-84-1
##MP= -300
##BP= -300
##MW= 106
##$RETENTION INDEX=769
##$CONDENSED SPECTRUM=NO
##NPOINTS= 72
##XYDATA=(XY..XY) 1 
    15          2
    25          2
    26         16
    27        124
    28         13
    29         10
    31          2
    36          1
    37         23
    38         57
    39        452
    40         96
    41        371
    42         17
    43         14
    44          5
    45          4
    49          8
    50         74
    51        130
    52         96
    53        123
    54        114
    55         53
    56          4
    57          6
    58          4
    60          6
    61          9
    62         22
    63         54
    64         20
    65        262
    66        103
    67        103
    68         37
    69          5
    70          9
    71          5
    73          4
    74         12
    75          8
    76         10
    77        144
    78        394
    79        222
    80         28
    81         25
    82          6
    83          5
    84          3
    85          2
    86          3
    87          2
    89          9
    90          5
    91        999
    92         83
    93          8
    94         13
    95          7
    96          2
    97          3
    98          3
    99          1
   101          1
   102          6
   103         65
   104         12
   105        396
   106         36
   107          5