##TITLE=Library Entry 7653
##JCAMP-DX=Revision 4.10 
##DATA TYPE=MASS SPECTRUM
##SAMPLE DESCRIPTION=Exported from NIST MS Search
##NAMES=HP
##CAS NAME=Nonane, 2-methyl-
##MOLFORM=C10H22
##CAS REGISTRY NO=871-83-0
##MP= -300
##BP= -300
##MW= 142
##$RETENTION INDEX=964
##$CONDENSED SPECTRUM=NO
##NPOINTS= 65
##XYDATA=(XY..XY) 1 
    26         12
    27        270
    28         50
    29        296
    30          6
    38          5
    39        136
    40         27
    41        426
    42        277
    43        999
    44         33
    45          1
    50          3
    51          6
    52          3
    53         23
    54         14
    55        122
    56        170
    57        840
    58         37
    59          1
    62          1
    63          1
    64          1
    65          2
    66          1
    67          7
    68          8
    69         48
    70         68
    71        287
    72         15
    73          1
    77          2
    78          1
    79          1
    80          1
    81          1
    82          1
    83          9
    84          8
    85        156
    86         10
    87          1
    91          1
    93          1
    96          1
    97          3
    98        122
    99         89
   100          8
   101          1
   102          1
   111          1
   112          4
   113          5
   114          1
   126         13
   127         54
   128          6
   129          1
   142         14
   143          2