##TITLE=Library Entry 1200
##JCAMP-DX=Revision 4.10 
##DATA TYPE=MASS SPECTRUM
##SAMPLE DESCRIPTION=Japan AIST/NIMC Database- Spectrum MS-NW-4779
##NAMES=HP
##CAS NAME=N,N'-Diacetylethylenediamine
##MOLFORM=C6H12N2O2
##CAS REGISTRY NO=871-78-3
##MP= -300
##BP= -300
##MW= 144
##$RETENTION INDEX=0
##$CONDENSED SPECTRUM=NO
##NPOINTS= 51
##XYDATA=(XY..XY) 1 
    14          9
    15         84
    16          1
    17          1
    18          3
    26          4
    27         10
    28         51
    29         11
    30        999
    31        126
    32         20
    39          2
    40          8
    41         15
    42         46
    43        504
    44         67
    45         98
    46          3
    52          1
    54          6
    55         27
    56          6
    57          7
    58         39
    59         35
    60         91
    61          2
    68          1
    70          5
    71          1
    72        118
    73        645
    74         27
    75          2
    82          1
    83          7
    84         10
    85        837
    86         48
    87         65
    88          3
    99          1
   100          1
   101          9
   102          6
   115          3
   126          6
   129          1
   144          4