##TITLE=Library Entry 69618
##JCAMP-DX=Revision 4.10 
##DATA TYPE=MASS SPECTRUM
##SAMPLE DESCRIPTION=A.A.Kutin, Moscow, Russia
##NAMES=HP
##CAS NAME=Oxazolidin-2-imine, 5-chloromethyl-3-[4,6-bis(dimethylamino)-1,3,
5-triazin-2-yl]
##MOLFORM=C11H18ClN7O
##CAS REGISTRY NO=87166-25-4
##MP= -300
##BP= -300
##MW= 299
##$RETENTION INDEX=0
##$CONDENSED SPECTRUM=NO
##NPOINTS= 230
##XYDATA=(XY..XY) 1 
    33         29
    34         14
    35         12
    36         49
    37          7
    38         28
    39        116
    40        243
    41        207
    42        420
    43        217
    44        409
    45         23
    46         10
    48          6
    49         54
    50          7
    51         23
    52          9
    53         58
    54         71
    55        260
    56         96
    57         64
    58         14
    59          3
    60          5
    61         15
    62         20
    63          9
    64         10
    65          6
    66         15
    67         86
    68         85
    69        283
    70        145
    71        585
    72         30
    73          6
    75         72
    76         21
    77         24
    78         15
    79         25
    80        122
    81        139
    82        178
    83         54
    84         22
    85         11
    86          3
    87          4
    88          6
    89         25
    90         20
    91          9
    92          9
    93         33
    94         39
    96        999
    97        106
    98         22
    99         20
   100          3
   101          2
   102          5
   103         33
   104         17
   105          7
   106         20
   107         74
   108         52
   109         25
   110         26
   111         17
   112         10
   113          6
   114          3
   115          5
   116          2
   117          9
   118          5
   119          8
   120          7
   121         20
   122         37
   123         54
   124         18
   125          8
   126          3
   127          3
   128          2
   129          4
   131          3
   132          3
   133          9
   134         16
   135         37
   136         30
   137         37
   138         33
   139         25
   140          3
   141          2
   142          7
   143          3
   144          5
   145          2
   146          2
   147         13
   148         14
   149        102
   150         35
   151         41
   152         87
   153         14
   154         13
   155          1
   157          2
   159          6
   160         34
   161          7
   162         16
   164         51
   165         21
   166         51
   167         26
   168          4
   171          3
   174          5
   175          6
   176         25
   177         52
   178        444
   179         91
   180         12
   181          8
   182          6
   183          2
   185          2
   186          2
   187          2
   189          4
   190          5
   191         19
   192         31
   193         31
   194         22
   195        160
   196         20
   198          4
   200          3
   202          3
   203          9
   204         14
   205        167
   206         32
   207         67
   208         13
   209          7
   210          3
   211          1
   212          5
   213         15
   214          5
   215          6
   216          4
   217          5
   218          9
   219         49
   221        855
   222         92
   223         10
   224          6
   225          9
   227          8
   228         22
   229          4
   230          8
   231          2
   238          2
   239          4
   241         36
   242          6
   243         10
   244          2
   246          2
   247          1
   248          2
   249          2
   250         14
   251          4
   253          2
   254          3
   255          8
   256         45
   257         15
   258         16
   259          5
   261          2
   262          5
   263          5
   264         11
   265          9
   266          4
   267          5
   268          5
   270         85
   271         16
   272         28
   273          5
   279          3
   281         19
   282         17
   284        257
   285         57
   286         73
   287         12
   288          2
   292          2
   294          3
   295         14
   296         18
   298         73
   299        583
   300        111
   301        177
   302         28
   303          3