##TITLE=Library Entry 3331
##JCAMP-DX=Revision 4.10 
##DATA TYPE=MASS SPECTRUM
##SAMPLE DESCRIPTION=Chemical Concepts
##NAMES=HP
##CAS NAME=Borane, diethyl[1-ethyl-2-(trimethylstannyl)-1-propenyl]-
##MOLFORM=C12H27BSn
##CAS REGISTRY NO=87184-06-3
##MP= -300
##BP= -300
##MW= 302
##$RETENTION INDEX=0
##$CONDENSED SPECTRUM=NO
##NPOINTS= 186
##XYDATA=(XY..XY) 1 
    26         55
    27        180
    28         17
    29         67
    30          1
    31          3
    36         15
    37         57
    38         37
    39        140
    40        263
    41        999
    42         27
    43          9
    44          2
    45          1
    48          0
    49          5
    50         23
    51         55
    52         21
    53         70
    54         35
    55        122
    56         18
    57         62
    58          2
    59          3
    60          0
    61          2
    62          2
    63          6
    64          7
    65         18
    66         23
    67         87
    68        117
    69        453
    70         24
    71          3
    75          0
    76          0
    77          4
    78          4
    79         17
    80         19
    81         74
    82          6
    83          2
    84          3
    85         10
    86          3
    91          2
    92          0
    93          3
    94          4
    95         27
    96          3
    97          5
    98         15
    99          0
   100          1
   107          3
   108         12
   109         40
   110          3
   112          1
   114          0
   116         22
   117         20
   118         41
   119         28
   120         51
   121         19
   122          6
   123          2
   124          8
   125          3
   127          2
   129          2
   130          3
   131         49
   132         28
   133         76
   134         31
   135         97
   136          2
   137         15
   138          2
   139         18
   141          3
   142          3
   143          8
   144          5
   145         15
   146         17
   147         37
   148         34
   149         49
   150         41
   151         46
   152          5
   153         10
   154          9
   155         34
   156         20
   157         49
   158         23
   159         56
   160          4
   161         55
   162         31
   163         88
   164         33
   165        108
   166          4
   167         18
   168          2
   169         26
   170         10
   171         13
   172         15
   173         13
   174         17
   175         40
   176         23
   177         63
   178         26
   179         80
   180          4
   181         19
   182          1
   183         19
   184          4
   185         63
   186         38
   187        106
   188         46
   189        136
   190          8
   191         22
   192          2
   193         27
   194          1
   195          0
   197          0
   199          1
   200          1
   201          2
   202          1
   203          2
   204          0
   213          4
   214          2
   215          8
   216          4
   217         12
   218          1
   219          5
   221          1
   229          1
   231          2
   243          0
   255          0
   257          1
   259          1
   271          0
   272          0
   273          1
   279          1
   281          1
   282          6
   283         26
   284         24
   285         45
   286         32
   287         53
   288          8
   289          8
   290          3
   291          9
   299          0
   300          1
   301          1
   302          1
   303          1