##TITLE=Library Entry 26556
##JCAMP-DX=Revision 4.10 
##DATA TYPE=MASS SPECTRUM
##SAMPLE DESCRIPTION=Organic Synthesis Lab, MSU, Moscow.TRC 1500
##NAMES=HP
##CAS NAME=1,1-Dimethylethyloxycarbonic acid 4-ethenylphenyl ester
##MOLFORM=C13H16O3
##CAS REGISTRY NO=87188-51-0
##MP= -300
##BP= -300
##MW= 220
##$RETENTION INDEX=0
##$CONDENSED SPECTRUM=NO
##NPOINTS= 11
##XYDATA=(XY..XY) 1 
    41         89
    57        999
    58         34
    65         12
    77         80
   103         89
   120        651
   121         86
   133          9
   161         22
   220          9