##TITLE=Library Entry 83415
##JCAMP-DX=Revision 4.10 
##DATA TYPE=MASS SPECTRUM
##SAMPLE DESCRIPTION=NIST Mass Spectrometry Data Center, 1994
##NAMES=HP
##CAS NAME=4-Pyridinecarboxaldehyde
##MOLFORM=C6H5NO
##CAS REGISTRY NO=872-85-5
##MP= -300
##BP= -300
##MW= 107
##$RETENTION INDEX=1025
##$CONDENSED SPECTRUM=NO
##NPOINTS= 44
##XYDATA=(XY..XY) 1 
    12          2
    13          2
    14          1
    16          1
    17          1
    18          0
    24          2
    25         13
    26         51
    27         24
    28         51
    29         93
    30          2
    31          3
    36          8
    37         37
    38         35
    39         24
    40          4
    41          2
    48         10
    49         59
    50        270
    51        439
    52        273
    53         41
    54          2
    60          2
    61         10
    62         11
    63          7
    64          1
    74          4
    75         23
    76         15
    77          1
    78        383
    79         53
    80          3
   104          3
   106        373
   107        999
   108         70
   109          4