##TITLE=Library Entry 96209
##JCAMP-DX=Revision 4.10 
##DATA TYPE=MASS SPECTRUM
##SAMPLE DESCRIPTION=NIST Mass Spectrometry Data Center, 1994
##NAMES=HP
##CAS NAME=5-Chloro-1-methylimidazole
##MOLFORM=C4H5ClN2
##CAS REGISTRY NO=872-49-1
##MP= -300
##BP= -300
##MW= 116
##$RETENTION INDEX=0
##$CONDENSED SPECTRUM=NO
##NPOINTS= 57
##XYDATA=(XY..XY) 1 
    12         21
    13         27
    14         31
    15        195
    16          3
    24         10
    25         40
    26         86
    27        183
    28        354
    35         19
    36          9
    37         16
    38         97
    39        128
    40        152
    41         36
    42        802
    43         18
    47         99
    48         39
    49         45
    50         38
    51        111
    52        217
    53         89
    54        455
    55         22
    58         16
    60         76
    61         38
    62         52
    63         13
    64         10
    65          7
    66         61
    73         18
    74         98
    75        224
    76         59
    77         79
    78          7
    79         25
    80          7
    81        333
    82         19
    86         17
    87          6
    88         39
    89         69
    90         15
    91         24
   101         15
   116        999
   117         65
   118        321
   119         19