##TITLE=Library Entry 32662
##JCAMP-DX=Revision 4.10 
##DATA TYPE=MASS SPECTRUM
##SAMPLE DESCRIPTION=KONINKLIJKE SHELL LABORATORIUM AMSTERDAM
##NAMES=HP
##CAS NAME=Bicyclo[2.2.1]heptane, 2-methyl-, exo-
##MOLFORM=C8H14
##CAS REGISTRY NO=872-78-6
##MP= -300
##BP= -300
##MW= 110
##$RETENTION INDEX=818
##$CONDENSED SPECTRUM=NO
##NPOINTS= 77
##XYDATA=(XY..XY) 1 
    36          1
    37         21
    38         61
    39        612
    40        122
    41        683
    42         81
    43         48
    44          4
    45          4
    46          2
    47          0
    48          0
    49          4
    50         43
    51         90
    52         41
    53        215
    54        286
    55        260
    56        128
    57         23
    58          1
    59          0
    60          3
    61          5
    62         11
    63         26
    64          6
    65         67
    66        143
    67        999
    68        757
    69        253
    70         17
    71          6
    72          0
    73          0
    74          4
    75          3
    76          2
    77         56
    78         17
    79         65
    80         40
    81        683
    82        592
    83         43
    84          6
    85          5
    86          1
    87          0
    89          1
    90          0
    91         21
    92          4
    93         11
    94          4
    95        506
    96         39
    97          3
    98          2
    99          1
   100          0
   101          0
   102          0
   103          1
   104          0
   105          5
   106          1
   107          1
   108          1
   109         14
   110        145
   111         17
   112          1
   113          1