##TITLE=Library Entry 22021
##JCAMP-DX=Revision 4.10 
##DATA TYPE=MASS SPECTRUM
##SAMPLE DESCRIPTION=Chemical Concepts
##NAMES=HP
##CAS NAME=Isopropylcyclobutane
##MOLFORM=C7H14
##CAS REGISTRY NO=872-56-0
##MP= -300
##BP= -300
##MW= 98
##$RETENTION INDEX=691
##$CONDENSED SPECTRUM=NO
##NPOINTS= 51
##XYDATA=(XY..XY) 1 
    25          1
    26         46
    27        382
    28         54
    29        220
    30          6
    31          0
    32          2
    37         14
    38         34
    39        387
    40         62
    41        810
    42        317
    43        125
    44          1
    45          0
    46          0
    49          2
    50         34
    51         45
    52         18
    53         87
    54         70
    55        735
    56        999
    57        133
    58          9
    59          0
    61          2
    62          4
    63          9
    65         13
    66          4
    67         37
    68         35
    69        281
    70        626
    71         31
    72          1
    74          0
    77          9
    78          1
    79         10
    81         13
    82          4
    83        119
    84          6
    97          5
    98        219
    99         15