##TITLE=Library Entry 72784
##JCAMP-DX=Revision 4.10 
##DATA TYPE=MASS SPECTRUM
##SAMPLE DESCRIPTION=Exported from NIST MS Search
##NAMES=HP
##CAS NAME=2H-Imidazole-2-thione, 1,3-dihydro-
##MOLFORM=C3H4N2S
##CAS REGISTRY NO=872-35-5
##MP= -300
##BP= -300
##MW= 100
##$RETENTION INDEX=0
##$CONDENSED SPECTRUM=NO
##NPOINTS= 29
##XYDATA=(XY..XY) 1 
    32         47
    38         27
    39         20
    40         62
    41        206
    42         62
    43         17
    44         52
    45        141
    46         74
    47         32
    48         10
    49          7
    50        151
    55         20
    59         20
    60         25
    67          5
    68         27
    70         12
    71         27
    72        144
    73        186
    74         10
    82          7
    99         12
   100        999
   101         30
   102         27