##TITLE=Library Entry 55638
##JCAMP-DX=Revision 4.10 
##DATA TYPE=MASS SPECTRUM
##SAMPLE DESCRIPTION=Japan AIST/NIMC Database- Spectrum MS-NW-2962
##NAMES=HP
##CAS NAME=1,3-Dioxol-2-one
##MOLFORM=C3H2O3
##CAS REGISTRY NO=872-36-6
##MP= -300
##BP= -300
##MW= 86
##$RETENTION INDEX=0
##$CONDENSED SPECTRUM=NO
##NPOINTS= 36
##XYDATA=(XY..XY) 1 
    12         16
    13         39
    14        872
    15          9
    16          8
    24          3
    25         11
    26         20
    27          2
    28        104
    29        567
    30        302
    31          6
    32          1
    36          2
    40          8
    41         49
    42        552
    43         13
    44         59
    45         11
    47          3
    48          1
    49          2
    56         14
    58        191
    59          4
    60          4
    61          3
    62          1
    63          2
    84          1
    85          2
    86        999
    87         35
    88          6