##TITLE=Library Entry 4694
##JCAMP-DX=Revision 4.10 
##DATA TYPE=MASS SPECTRUM
##SAMPLE DESCRIPTION=Japan AIST/NIMC Database- Spectrum MS-NW-2890
##NAMES=HP
##CAS NAME=Thiophene, tetrahydro-3-methyl-, 1,1-dioxide
##MOLFORM=C5H10O2S
##CAS REGISTRY NO=872-93-5
##MP= -300
##BP= -300
##MW= 134
##$RETENTION INDEX=0
##$CONDENSED SPECTRUM=NO
##NPOINTS= 66
##XYDATA=(XY..XY) 1 
    14          1
    15          9
    18          2
    26         16
    27        110
    28         39
    29         93
    30          2
    31          1
    32          7
    33          1
    34          2
    37          4
    38         11
    39        142
    40         46
    41        385
    42        999
    43         40
    44          6
    45         10
    46          3
    47          3
    48          9
    49          2
    50          6
    51          9
    52          4
    53         30
    54         18
    55        543
    56         28
    57          5
    58          2
    59          3
    60          2
    61          1
    62          1
    63          9
    64          6
    65          4
    66          2
    67          9
    68          9
    69        251
    70        189
    71         10
    73          1
    74          1
    76          1
    78          3
    85          1
    90          1
    92          1
    93          1
   102          3
   105          2
   106         48
   107          2
   108          2
   117         46
   118          3
   119          3
   134        126
   135          9
   136          6