##TITLE=Library Entry 71925
##JCAMP-DX=Revision 4.10 
##DATA TYPE=MASS SPECTRUM
##SAMPLE DESCRIPTION=Exported from NIST MS Search
##NAMES=HP
##CAS NAME=2-Pyrrolidinone, 1-methyl-
##MOLFORM=C5H9NO
##CAS REGISTRY NO=872-50-4
##MP= -300
##BP= -300
##MW= 99
##$RETENTION INDEX=1044
##$CONDENSED SPECTRUM=NO
##NPOINTS= 69
##XYDATA=(XY..XY) 1 
    13         15
    14         80
    15        290
    16         10
    17          4
    18         19
    19          1
    20          1
    24          1
    25          9
    26         87
    27        228
    28        529
    29         55
    30         72
    31          5
    32         30
    33          1
    34          2
    35          1
    36          3
    37         21
    38         40
    39        185
    40        106
    41        474
    42        840
    43        256
    44        929
    45         25
    49          1
    50          4
    51          7
    52         15
    53         12
    54         29
    55         41
    56         81
    57         16
    58         53
    59          2
    60          1
    62          1
    63          1
    64          2
    65          1
    66          4
    67          4
    68         34
    69         41
    70         97
    71        121
    72          8
    73          1
    78          1
    79          1
    80          2
    81          7
    82          5
    83          2
    84          4
    85          1
    96          1
    97         10
    98        689
    99        999
   100         73
   101          2
   102          4