##TITLE=Library Entry 37504
##JCAMP-DX=Revision 4.10 
##DATA TYPE=MASS SPECTRUM
##SAMPLE DESCRIPTION=Japan AIST/NIMC Database- Spectrum MS-NW-4012
##NAMES=HP
##CAS NAME=Pentane, 1,1'-thiobis-
##MOLFORM=C10H22S
##CAS REGISTRY NO=872-10-6
##MP= -300
##BP= -300
##MW= 174
##$RETENTION INDEX=1276
##$CONDENSED SPECTRUM=NO
##NPOINTS= 85
##XYDATA=(XY..XY) 1 
    15          5
    26          6
    27        139
    28         15
    29        178
    30          4
    31          2
    32          4
    34          2
    35          7
    37          1
    38          3
    39         81
    40         13
    41        337
    42        338
    43        467
    44         14
    45         43
    46         33
    47         70
    48          9
    49          7
    50          2
    51          3
    52          1
    53         17
    54          8
    55        250
    56         26
    57         19
    58          6
    59         18
    60         46
    61        508
    62         24
    63         26
    64          1
    65          3
    66          1
    67         12
    68          9
    69        527
    70        999
    71        194
    72          9
    73         10
    74         13
    75         45
    76          6
    77          3
    83          1
    84          2
    85          2
    87         21
    88          1
    89         18
    90          1
    91          1
    98          1
   101          3
   102         29
   103        506
   104        188
   105         87
   106         12
   107          3
   115          1
   117        137
   118         15
   119          8
   131         40
   132          3
   133          2
   136          3
   145         20
   146          3
   147          1
   159          3
   160          1
   173         12
   174        320
   175         39
   176         16
   177          2