##TITLE=Library Entry 21963
##JCAMP-DX=Revision 4.10 
##DATA TYPE=MASS SPECTRUM
##SAMPLE DESCRIPTION=NIST Mass Spectrometry Data Center
##NAMES=HP
##CAS NAME=5,5-Dimethyl-1,3-dioxane
##MOLFORM=C6H12O2
##CAS REGISTRY NO=872-98-0
##MP= -300
##BP= -300
##MW= 116
##$RETENTION INDEX=803
##$CONDENSED SPECTRUM=NO
##NPOINTS= 41
##XYDATA=(XY..XY) 1 
    14          3
    15         25
    16          2
    26         11
    27        111
    28         54
    29        177
    30         18
    31         61
    37          5
    38         15
    39        135
    40         46
    41        444
    42         28
    43         54
    44         56
    45         49
    50          7
    51         10
    52          3
    53         21
    54          8
    55         88
    56        999
    57         99
    58          4
    59          1
    67          3
    68          3
    69         63
    70         29
    71         14
    73          7
    86        126
    87         33
    88          1
    98          3
   115         97
   116         62
   117          4