##TITLE=Library Entry 70371
##JCAMP-DX=Revision 4.10 
##DATA TYPE=MASS SPECTRUM
##SAMPLE DESCRIPTION=NIST Mass Spectrometry Data Center, 1990.
##NAMES=HP
##CAS NAME=Thiophene, 2-ethyl-
##MOLFORM=C6H8S
##CAS REGISTRY NO=872-55-9
##MP= -300
##BP= -300
##MW= 112
##$RETENTION INDEX=871
##$CONDENSED SPECTRUM=NO
##NPOINTS= 82
##XYDATA=(XY..XY) 1 
    13          0
    14          3
    15          9
    16          1
    17          1
    18          1
    25          1
    26         13
    27         50
    28          6
    29          4
    32          3
    33          1
    34          0
    36          1
    37         15
    38         31
    39        105
    40          8
    41         18
    42          1
    45        170
    46          6
    47         13
    48          1
    49          7
    50         32
    51         46
    52         14
    53         92
    54          8
    55          5
    56          2
    57         23
    58         39
    59         11
    60          3
    61          8
    62         13
    63         20
    64          2
    65         18
    66          8
    67         22
    68          5
    69         44
    70         14
    71         26
    72          3
    73          5
    74          6
    75          2
    76          2
    77         47
    78         17
    79          4
    80          1
    81         11
    82         11
    83          6
    84         20
    85         19
    86          1
    87          0
    92          1
    93          4
    94          1
    95          9
    96          0
    97        999
    98         61
    99         43
   100          2
   105          0
   108          2
   109         11
   110         10
   111         71
   112        335
   113         25
   114         16
   115          1