##TITLE=Library Entry 4930
##JCAMP-DX=Revision 4.10 
##DATA TYPE=MASS SPECTRUM
##SAMPLE DESCRIPTION=N. DE KIMPE, LAB. ORG. CHEM., UNIV. GENT, BELGIUM
##NAMES=HP
##CAS NAME=N-(3-Bromo-3-methyl-2-butylidene)isopropylamine
##MOLFORM=C8H16BrN
##CAS REGISTRY NO=87207-68-9
##MP= -300
##BP= -300
##MW= 205
##$RETENTION INDEX=0
##$CONDENSED SPECTRUM=NO
##NPOINTS= 18
##XYDATA=(XY..XY) 1 
    40         50
    41        310
    42        999
    43        210
    53         50
    54         30
    55         50
    57         50
    67         40
    68        250
    69        150
    84        410
   110        190
   111         40
   125        170
   126         90
   205          2
   207          2