##TITLE=Library Entry 51128
##JCAMP-DX=Revision 4.10 
##DATA TYPE=MASS SPECTRUM
##SAMPLE DESCRIPTION=V. KADENTSEV,ZELINSKII INST. ORG. CHEM.,ACAD. SCI.,MOSC
OW,USSR
##NAMES=HP
##CAS NAME=Thieno[3,4-d]-1,3-diseleno-2-thione
##MOLFORM=C5H2S2Se2
##CAS REGISTRY NO=87207-40-7
##MP= -300
##BP= -300
##MW= 286
##$RETENTION INDEX=0
##$CONDENSED SPECTRUM=NO
##NPOINTS= 57
##XYDATA=(XY..XY) 1 
    44        270
    45        950
    49        100
    50        210
    57        530
    68         60
    69        380
    76        130
    77         60
    78        170
    80        350
    81        480
    82        999
    83         70
    84         60
    89         50
    90         60
    91         90
    92         80
    93        210
   110        170
   112        320
   113        130
   114        170
   115        300
   116        100
   117        630
   118         80
   119        120
   127         70
   128         80
   129         70
   130        120
   156         70
   158        130
   160        160
   162         60
   190         50
   192         60
   236         60
   237         40
   238        160
   239         90
   240        250
   241         30
   242        300
   243         20
   244        100
   280         40
   281         30
   282        130
   283         70
   284        210
   285         30
   286        260
   287         20
   288         90