##TITLE=Library Entry 98037
##JCAMP-DX=Revision 4.10 
##DATA TYPE=MASS SPECTRUM
##SAMPLE DESCRIPTION=V.Zaikin,Topchiev Inst.Petrochem.Synth.,Moscow
##NAMES=HP
##CAS NAME=Dichloroacetic acid, 3-phenylpropyl ester
##MOLFORM=C11H12Cl2O2
##CAS REGISTRY NO=87228-47-5
##MP= -300
##BP= -300
##MW= 246
##$RETENTION INDEX=0
##$CONDENSED SPECTRUM=NO
##NPOINTS= 86
##XYDATA=(XY..XY) 1 
    26          5
    27         10
    28          4
    29          4
    31          1
    35          3
    36         18
    38          6
    39         31
    40          3
    41         34
    42          2
    43          2
    44          1
    45          1
    47          3
    48          9
    49          4
    50         13
    51         38
    52         12
    53          5
    55         13
    57          2
    58         13
    59          4
    60          4
    62          5
    63         20
    64          6
    65         81
    66          6
    73          4
    74          4
    75          5
    76         14
    77         68
    78         48
    79         35
    80          2
    82          2
    83         50
    84          3
    85         32
    86          2
    87          5
    89         24
    90         15
    91        936
    92        122
    93          8
   101          2
   102         11
   103         63
   104         37
   105         59
   106          6
   107          4
   111          5
   113          4
   115         53
   116         17
   117        906
   118        999
   119        251
   120         17
   125          5
   127          2
   129          2
   131          2
   133          2
   134          2
   135          1
   139          2
   141          1
   155          2
   157          2
   163          3
   169          3
   171          2
   173          2
   246         20
   247          2
   248         13
   249          2
   250          2