##TITLE=Library Entry 67307
##JCAMP-DX=Revision 4.10 
##DATA TYPE=MASS SPECTRUM
##SAMPLE DESCRIPTION=NIST Mass Spectrometry Data Center
##NAMES=HP
##CAS NAME=3-Tigloyloxy-6-propionyloxy-7-hydroxytropane
##MOLFORM=C16H25NO5
##CAS REGISTRY NO=872205-33-9
##MP= -300
##BP= -300
##MW= 311
##$RETENTION INDEX=1986
##$CONDENSED SPECTRUM=NO
##NPOINTS= 159
##XYDATA=(XY..XY) 1 
    27          3
    29          7
    30          1
    39         10
    40          1
    41          8
    42         38
    43          7
    44          4
    45          5
    46          1
    47          4
    50          1
    51          2
    52          2
    53         13
    54          9
    55         82
    56          8
    57          5
    58          5
    59         25
    60          3
    61          8
    62          1
    63          1
    65          4
    66          2
    67         10
    68          9
    69          7
    70          4
    71          3
    72          2
    74          1
    75         58
    76          4
    77         12
    78          4
    79          5
    80          7
    81         12
    82         19
    83         52
    84         12
    85         11
    86          5
    87          2
    88          2
    89          2
    90          1
    91          3
    92          2
    93          8
    94        999
    95        642
    96         62
    97          7
    98          4
    99         11
   100          7
   101         30
   102          4
   103          4
   104          1
   105          2
   106          3
   107          3
   108          8
   109          3
   110          6
   111          9
   112         14
   113          8
   114         15
   115         13
   116         24
   117          7
   118          4
   119          1
   120          7
   121          3
   122          2
   123          1
   124          2
   125          3
   126          3
   127          5
   128         12
   129         64
   130         18
   131          6
   132          2
   134          1
   135          1
   136          4
   137          2
   138          3
   139          2
   140          1
   141          4
   142         12
   143          6
   144          5
   146          1
   148          1
   149          1
   150          2
   151          4
   152          2
   153          2
   154          2
   155          5
   156          3
   157          3
   158          2
   159          2
   164          1
   165          1
   166          3
   167          3
   168          3
   169          5
   170         12
   171         10
   172          6
   173          1
   178          1
   179          1
   180          2
   181          1
   182          6
   183          2
   184         10
   185          3
   186          1
   194         46
   195         38
   196         12
   197          2
   198          1
   210          9
   211         41
   212         98
   213         16
   214          5
   215          1
   226          1
   228         20
   229          3
   230          1
   254          2
   296         37
   297          8
   298          2
   311         87
   312         19
   313          5
   314          1