##TITLE=Library Entry 60734
##JCAMP-DX=Revision 4.10 
##DATA TYPE=MASS SPECTRUM
##SAMPLE DESCRIPTION=Chemical Concepts
##NAMES=HP
##CAS NAME=4,7-Methano-1H-indene, 2,4,5,6,7,7a-hexahydro-
##MOLFORM=C10H14
##CAS REGISTRY NO=87238-76-4
##MP= -300
##BP= -300
##MW= 134
##$RETENTION INDEX=0
##$CONDENSED SPECTRUM=NO
##NPOINTS= 84
##XYDATA=(XY..XY) 1 
    26          6
    27         85
    28         13
    29         19
    37          3
    38         12
    39        185
    40         29
    41        158
    42          8
    43          7
    44          9
    45          1
    50         28
    51         94
    52         43
    53         68
    54         13
    55         30
    56          8
    57          4
    58         14
    59          1
    61          2
    62         10
    63         41
    64         21
    65        125
    66        193
    67        170
    68         21
    69         15
    70          1
    71          1
    74          7
    75          8
    76          8
    77        345
    78        204
    79        255
    80        134
    81         20
    82          9
    83         33
    84          4
    86          1
    87          2
    89         13
    90          4
    91        999
    92        442
    93        651
    94         61
    95          8
    96          2
    97          2
   101          1
   102         12
   103         63
   104        118
   105        381
   106        414
   107         43
   108          4
   109          6
   110          2
   115         42
   116         16
   117         66
   118          9
   119        456
   120         47
   121          6
   122          6
   127          4
   128         10
   129          6
   130          1
   131         15
   132         28
   133        105
   134        502
   135         55
   136          5