##TITLE=Library Entry 68349
##JCAMP-DX=Revision 4.10 
##DATA TYPE=MASS SPECTRUM
##SAMPLE DESCRIPTION=Japan AIST/NIMC Database- Spectrum MS-NW-9630
##NAMES=HP
##CAS NAME=4,7-Methanobenzofuran, 2,2'-oxybis[octahydro-7,8,8-trimethyl-, [2
R[2.alpha.(2'R*,3'aS*,4'R*,7'R*,7'aS*),3a.alpha.,4.alpha.,7.alpha.,7a.alpha.
]]-
##MOLFORM=C24H38O3
##CAS REGISTRY NO=87248-50-8
##MP= -300
##BP= -300
##MW= 374
##$RETENTION INDEX=0
##$CONDENSED SPECTRUM=NO
##NPOINTS= 130
##XYDATA=(XY..XY) 1 
    15          1
    17          5
    18         28
    26          1
    27         35
    28          8
    29         39
    30          1
    31          3
    38          1
    39         58
    40         10
    41        167
    42          9
    43         57
    44          2
    45          2
    50          2
    51         14
    52          7
    53         42
    54          8
    55         95
    56          9
    57         50
    58          5
    59          5
    60          1
    63          4
    64          2
    65         26
    66         16
    67        104
    68         28
    69        192
    70         20
    71         16
    72          6
    73          3
    74          2
    77         48
    78         11
    79         70
    80         27
    81        147
    82         36
    83         60
    84         16
    85          8
    86         38
    87          6
    89          2
    91         60
    92         16
    93        116
    94         50
    95        999
    96        438
    97         45
    98         17
    99         14
   100          3
   102          1
   103          7
   104          3
   105         34
   106         14
   107        115
   108        426
   109        250
   110        107
   111         23
   112         20
   113          9
   114         14
   115          8
   116          3
   117         24
   118         12
   119         87
   120         22
   121        110
   122         65
   123         21
   124          7
   125          8
   126          2
   127          1
   128          1
   129          2
   130          3
   131          5
   132          2
   133         15
   134        121
   135        115
   136         26
   137         26
   138          3
   139          3
   140          1
   143          1
   145         49
   146          6
   147         18
   148          6
   149         27
   150         10
   151          6
   152         35
   153          9
   159          1
   160          9
   161          9
   162          1
   163         96
   164         11
   165         87
   166         40
   167          5
   176          3
   177          2
   178        405
   179        108
   180         11
   181          5
   194          3
   195          2
   196         36
   197          5