##TITLE=Library Entry 97144
##JCAMP-DX=Revision 4.10 
##DATA TYPE=MASS SPECTRUM
##SAMPLE DESCRIPTION=V.Zaikin,Topchiev Inst.Petrochem.Synth.,Moscow
##NAMES=HP
##CAS NAME=2-Dimethyl(octyl)silyloxypropane
##MOLFORM=C13H30OSi
##CAS REGISTRY NO=87261-98-1
##MP= -300
##BP= -300
##MW= 230
##$RETENTION INDEX=0
##$CONDENSED SPECTRUM=NO
##NPOINTS= 92
##XYDATA=(XY..XY) 1 
    26          4
    27          8
    28          3
    29          6
    31          1
    36          6
    38          2
    39         10
    40          3
    41         20
    42         10
    43         12
    44          4
    45         11
    47          8
    50          2
    51          3
    52          3
    53          2
    54          2
    55          9
    56          6
    57          3
    58          6
    59         42
    60          7
    61         56
    62          4
    63          3
    65          1
    67          3
    69          5
    70          4
    71          3
    72          4
    73         11
    74          8
    75        308
    76         24
    77         14
    78          2
    79          5
    81          1
    83          2
    84          1
    85          9
    86          2
    87         14
    88          2
    89          7
    91          6
    92          3
    93          3
    95          2
    97          3
    99         15
   100          2
   101         20
   102          5
   103        122
   104         14
   105          6
   111          4
   112          2
   113         10
   114          2
   115          8
   116          4
   117        999
   118         94
   119         35
   120          2
   127          4
   129          4
   141          1
   143          3
   155         13
   156          2
   157          4
   171         10
   172          2
   173         10
   174          2
   199          1
   207          4
   208          1
   215        237
   216         45
   217         12
   218          1
   229          2
   230          2