##TITLE=Library Entry 17486
##JCAMP-DX=Revision 4.10 
##DATA TYPE=MASS SPECTRUM
##SAMPLE DESCRIPTION=S. GRIFF, 5 OAKWOOD TERRACE, ROCKAWAY, N.J., USA
##NAMES=HP
##CAS NAME=Dimethyl diglycolcarbonate
##MOLFORM=C8H14O7
##CAS REGISTRY NO=87292-23-7
##MP= -300
##BP= -300
##MW= 222
##$RETENTION INDEX=0
##$CONDENSED SPECTRUM=NO
##NPOINTS= 30
##XYDATA=(XY..XY) 1 
    14         20
    15        210
    19         40
    26         40
    27        140
    28        180
    29        500
    30         70
    31        420
    32         20
    33         40
    41         30
    42         40
    43        200
    44        320
    45        999
    46         20
    57         20
    58        130
    59        260
    60         20
    73         20
    75         50
    77        120
    88         30
    90         40
   103        520
   104        150
   133         20
   134         90