##TITLE=Library Entry 49321
##JCAMP-DX=Revision 4.10 
##DATA TYPE=MASS SPECTRUM
##SAMPLE DESCRIPTION=K. BRINK, HEYMANNSTRASSE, LEVERKUSEN, W. GER.
##NAMES=HP
##CAS NAME=Tris(methylsulfonyl)amine
##MOLFORM=C3H9NO6S3
##CAS REGISTRY NO=87293-08-1
##MP= -300
##BP= -300
##MW= 251
##$RETENTION INDEX=0
##$CONDENSED SPECTRUM=NO
##NPOINTS= 14
##XYDATA=(XY..XY) 1 
    46         50
    48         50
    63         80
    64         40
    78         70
    79        999
    95        100
   142        290
   157        330
   158        160
   172        330
   173         40
   236         60
   251         50