##TITLE=Library Entry 63676
##JCAMP-DX=Revision 4.10 
##DATA TYPE=MASS SPECTRUM
##SAMPLE DESCRIPTION=Chemical Concepts
##NAMES=HP
##CAS NAME=Benzenesulfonamide, N-(1-ethyl-2-hydroxy-2-methylpropyl)-4-methyl
-
##MOLFORM=C13H21NO3S
##CAS REGISTRY NO=87291-33-6
##MP= -300
##BP= -300
##MW= 271
##$RETENTION INDEX=0
##$CONDENSED SPECTRUM=NO
##NPOINTS= 104
##XYDATA=(XY..XY) 1 
    26         12
    28         33
    29         17
    30         17
    31         36
    38          2
    39         40
    40          4
    41         76
    42         12
    43         47
    44         11
    45          6
    50          6
    51         16
    52          5
    53          5
    54          3
    55          6
    56         22
    57         11
    58        506
    59        903
    60         25
    61          2
    62          4
    63         20
    64          8
    65        147
    66          8
    67          5
    69          4
    70         31
    71          7
    72          5
    75          3
    76          3
    77         16
    78          6
    79         10
    80          4
    81          2
    82          2
    83          3
    84         61
    85         10
    86          7
    87          4
    89         36
    90         28
    91        999
    92        261
    93         19
    94          1
    95          1
    96          1
    97          1
    98          5
   100          9
   101          4
   105          4
   106          6
   107         25
   108         17
   109          2
   111          3
   114          5
   116         33
   117          3
   118          4
   119          4
   120          4
   121          2
   123          2
   132          6
   133          6
   139         42
   140          7
   141          2
   147          3
   148          2
   155        828
   156         98
   157         49
   158          4
   171         15
   172          3
   173          1
   184         15
   196          0
   211          4
   212        965
   213        120
   214        203
   215         20
   216          7
   224          5
   238          1
   242          8
   254         13
   255          2
   256         14
   257          1
   272          0