##TITLE=Library Entry 76272
##JCAMP-DX=Revision 4.10 
##DATA TYPE=MASS SPECTRUM
##SAMPLE DESCRIPTION=S. GRIFF, 5 OAKWOOD TERRACE, ROCKAWAY, N.J., USA
##NAMES=HP
##CAS NAME=Methyl allyl diglycolcarbonate
##MOLFORM=C10H16O7
##CAS REGISTRY NO=87292-24-8
##MP= -300
##BP= -300
##MW= 248
##$RETENTION INDEX=0
##$CONDENSED SPECTRUM=NO
##NPOINTS= 24
##XYDATA=(XY..XY) 1 
    27        160
    28        150
    29        220
    30         80
    31        140
    38         60
    39         70
    41        680
    42         80
    43        110
    45        130
    57         40
    58         70
    59        210
    60         60
    70         70
    71         70
    73         90
    77         60
    89        130
   103        999
   104         80
   105        100
   129        260