##TITLE=Library Entry 97976
##JCAMP-DX=Revision 4.10 
##DATA TYPE=MASS SPECTRUM
##SAMPLE DESCRIPTION=Japan AIST/NIMC Database- Spectrum MS-NW-1974
##NAMES=HP
##CAS NAME=Benzonitrile, 4-amino-
##MOLFORM=C7H6N2
##CAS REGISTRY NO=873-74-5
##MP= -300
##BP= -300
##MW= 118
##$RETENTION INDEX=0
##$CONDENSED SPECTRUM=NO
##NPOINTS= 60
##XYDATA=(XY..XY) 1 
    14          1
    15          1
    26          5
    27          7
    28          2
    29          1
    30          1
    36          2
    37         22
    38         22
    39         36
    40         13
    41         42
    42          5
    43          1
    44          4
    45          9
    46          1
    49          3
    50         17
    51         15
    52         38
    53          6
    54          9
    58          4
    59         20
    60          1
    61          9
    62         19
    63         63
    64         90
    65         33
    66         10
    67         10
    68          1
    73          2
    74          5
    75         10
    76          9
    77          3
    78         11
    79          4
    86          1
    87          2
    88          6
    89          7
    90         67
    91        252
    92         23
    93          1
    99          2
   100          1
   101          2
   102          3
   103          2
   116          3
   117         45
   118        999
   119         85
   120          3