##TITLE=Library Entry 46813
##JCAMP-DX=Revision 4.10 
##DATA TYPE=MASS SPECTRUM
##SAMPLE DESCRIPTION=NIST Mass Spectrometry Data Center
##NAMES=HP
##CAS NAME=4-Chlorobenzyl alcohol
##MOLFORM=C7H7ClO
##CAS REGISTRY NO=873-76-7
##MP= -300
##BP= -300
##MW= 142
##$RETENTION INDEX=0
##$CONDENSED SPECTRUM=NO
##NPOINTS= 84
##XYDATA=(XY..XY) 1 
    26          4
    27         12
    29         25
    30          2
    31         21
    35          2
    36          2
    37         18
    38         27
    39         51
    40          1
    41          1
    42          1
    43          9
    44          3
    47          3
    48          2
    49         21
    50        160
    51        227
    52         43
    53         47
    54          2
    55          8
    60          8
    61         35
    62         54
    63        103
    64         13
    65          7
    66          2
    67          1
    69          1
    70          8
    72          8
    73         52
    74         96
    75        174
    76         43
    77        999
    78        124
    79        785
    80         50
    81          2
    84         12
    85         31
    86         21
    87         21
    88          5
    89        137
    90         25
    91          2
    96          1
    97          6
    98          1
    99         31
   100          2
   101         10
   104          1
   105         92
   106         46
   107        757
   108         58
   109          4
   110          3
   111        101
   112         28
   113        207
   114         20
   115         59
   116          3
   123          6
   124          6
   125        155
   126         13
   127         50
   128          3
   139         37
   140          5
   141        146
   142        591
   143         88
   144        195
   145         14