##TITLE=Library Entry 52663
##JCAMP-DX=Revision 4.10 
##DATA TYPE=MASS SPECTRUM
##SAMPLE DESCRIPTION=MYNARD C. HAMMING
##NAMES=HP
##CAS NAME=Cyclohexanone, 3,3,5-trimethyl-
##MOLFORM=C9H16O
##CAS REGISTRY NO=873-94-9
##MP= -300
##BP= -300
##MW= 140
##$RETENTION INDEX=1285
##$CONDENSED SPECTRUM=NO
##NPOINTS= 78
##XYDATA=(XY..XY) 1 
    12          0
    13          5
    14         15
    15         68
    16          2
    17          1
    18          3
    19          0
    25          0
    26         14
    27        204
    28         69
    29        160
    30          4
    31          2
    32          3
    33          0
    36          0
    37          5
    38         17
    39        261
    40         52
    41        424
    42        144
    43         90
    44          3
    45          2
    46          1
    49          0
    50         10
    51         22
    52         10
    53         62
    54         20
    55        433
    56        423
    57         96
    58          5
    62          1
    63          4
    64          0
    65         10
    66          5
    67         32
    68         10
    69        557
    70        195
    71         23
    72          4
    78          0
    79          9
    80          2
    81         13
    82         24
    83        999
    84         97
    85         14
    86          0
    91          2
    93          1
    95          2
    96         13
    97         30
    98         16
    99          1
   107          6
   108          0
   109          1
   111          2
   112          7
   113          0
   122          2
   125         69
   126          6
   127          0
   140        139
   141         12
   142          1