##TITLE=Library Entry 46816
##JCAMP-DX=Revision 4.10 
##DATA TYPE=MASS SPECTRUM
##SAMPLE DESCRIPTION=NIST Mass Spectrometry Data Center
##NAMES=HP
##CAS NAME=3-Chlorobenzyl alcohol
##MOLFORM=C7H7ClO
##CAS REGISTRY NO=873-63-2
##MP= -300
##BP= -300
##MW= 142
##$RETENTION INDEX=0
##$CONDENSED SPECTRUM=NO
##NPOINTS= 83
##XYDATA=(XY..XY) 1 
    13          2
    16          1
    18          3
    19          3
    25          4
    26         14
    27         26
    28          6
    29         94
    30         13
    31         25
    35          9
    36         12
    37         51
    38         67
    39        108
    40         10
    42          3
    43         11
    44          6
    47          5
    48          5
    49         39
    50        237
    51        292
    52         51
    53         54
    54          3
    55         12
    56          3
    57          3
    60         14
    61         47
    62         69
    63        108
    64         15
    65          9
    66          3
    69          3
    71         11
    72         11
    73         58
    74         83
    75        187
    77        999
    78        136
    79        837
    80         56
    81          3
    84         17
    85         38
    86         26
    87         21
    89        135
    90         21
    91          3
    97          7
    99         29
   100          2
   101          9
   103          3
   105         88
   107        552
   108         43
   109          4
   111         75
   112         36
   113        196
   114         24
   115         54
   116          3
   123          5
   124          9
   125         84
   126          9
   127         30
   128          1
   139         36
   141        100
   142        469
   143         69
   144        155
   145         10