##TITLE=Library Entry 83502
##JCAMP-DX=Revision 4.10 
##DATA TYPE=MASS SPECTRUM
##SAMPLE DESCRIPTION=Japan AIST/NIMC Database- Spectrum MS-NW-6607
##NAMES=HP
##CAS NAME=Benzenemethanol, 4-bromo-
##MOLFORM=C7H7BrO
##CAS REGISTRY NO=873-75-6
##MP= -300
##BP= -300
##MW= 186
##$RETENTION INDEX=0
##$CONDENSED SPECTRUM=NO
##NPOINTS= 109
##XYDATA=(XY..XY) 1 
    14          1
    15          1
    18          2
    25          2
    26         14
    27         49
    28         11
    29         71
    30          6
    31         59
    32          3
    36          5
    37         38
    38         63
    39        108
    40          9
    41          3
    42          3
    43         17
    44         12
    45          7
    48          3
    49         24
    50        222
    51        248
    52         67
    53        112
    54          4
    55          9
    56          2
    57          2
    58          2
    59          2
    60          6
    61         25
    62         49
    63         86
    64         19
    65          6
    66          3
    67          1
    68          1
    71          1
    72          2
    73         23
    74         96
    75        129
    76        107
    77        985
    78        379
    79        949
    80         62
    81          8
    82          9
    83          1
    84          3
    85          9
    86         11
    87          9
    88          7
    89        115
    90        102
    91         18
    92         14
    93         11
    94          3
   103          1
   104          2
   105         47
   106         15
   107        999
   108         78
   109          5
   116          1
   117          8
   118          2
   119          7
   121          1
   128          2
   129          4
   130          2
   131          5
   133          1
   137          1
   141          1
   143          4
   145          3
   154          1
   155         55
   156         10
   157        150
   158         16
   159         96
   160          8
   167          2
   168          3
   169         85
   170         14
   171         84
   172         12
   178          1
   183         35
   184         15
   185        130
   186        578
   187        143
   188        560
   189         46
   190          3