##TITLE=Library Entry 31559
##JCAMP-DX=Revision 4.10 
##DATA TYPE=MASS SPECTRUM
##SAMPLE DESCRIPTION=Exported from NIST MS Search
##NAMES=HP
##CAS NAME=Benzonitrile, N-oxide
##MOLFORM=C7H5NO
##CAS REGISTRY NO=873-67-6
##MP= -300
##BP= -300
##MW= 119
##$RETENTION INDEX=0
##$CONDENSED SPECTRUM=NO
##NPOINTS= 54
##XYDATA=(XY..XY) 1 
    25        115
    26        184
    27        195
    28         26
    29        115
    30         22
    31         11
    35         60
    36         17
    37        186
    38        333
    39        764
    40        144
    41         13
    42         22
    43         44
    47         93
    48         13
    49         88
    50        682
    51        711
    52        244
    61        166
    62        422
    63        999
    64        888
    65        228
    66         22
    73         40
    74        155
    75        206
    76        406
    77        391
    78         48
    82         60
    83         13
    84         44
    85         40
    86         80
    87         80
    88         66
    89        297
    90         93
    91        682
    92         53
    99         17
   100         13
   101         11
   102         22
   103        573
   104         62
   118        148
   119        835
   120         77