##TITLE=Library Entry 66142
##JCAMP-DX=Revision 4.10 
##DATA TYPE=MASS SPECTRUM
##SAMPLE DESCRIPTION=Exported from NIST MS Search
##NAMES=HP
##CAS NAME=Spiro[4.4]non-1-ene
##MOLFORM=C9H14
##CAS REGISTRY NO=873-12-1
##MP= -300
##BP= -300
##MW= 122
##$RETENTION INDEX=0
##$CONDENSED SPECTRUM=NO
##NPOINTS= 28
##XYDATA=(XY..XY) 1 
    39        208
    40         47
    41        166
    43        125
    50         20
    51         75
    52         41
    53         83
    54         20
    55         41
    63         31
    65         83
    66        100
    67        150
    68         20
    77        316
    78         83
    79        724
    80        745
    81        158
    91        218
    92         50
    93        999
    94        200
   107         58
   121         16
   122        250
   123         20