##TITLE=Library Entry 107007
##JCAMP-DX=Revision 4.10 
##DATA TYPE=MASS SPECTRUM
##SAMPLE DESCRIPTION=Chemical Concepts
##NAMES=HP
##CAS NAME=Borane, dichlorophenyl-
##MOLFORM=C6H5BCl2
##CAS REGISTRY NO=873-51-8
##MP= -300
##BP= -300
##MW= 158
##$RETENTION INDEX=0
##$CONDENSED SPECTRUM=NO
##NPOINTS= 101
##XYDATA=(XY..XY) 1 
    25          5
    26         24
    27         23
    28          3
    35         10
    36         10
    37         17
    38         16
    39         24
    41          1
    43          1
    45          2
    46         11
    47         11
    48          5
    49         14
    50         75
    51         98
    52         19
    53          2
    55          1
    59          4
    60         15
    61         24
    62          6
    63          4
    65          3
    67          1
    69          1
    70         28
    71         99
    72         17
    73         44
    74         30
    75         14
    76         13
    77         47
    78         11
    79          2
    80         30
    81        116
    82         24
    83         82
    84         20
    85         24
    86         14
    87         41
    88          3
    91          3
    93          5
    94         20
    95         74
    96         39
    97         66
    98         14
    99         12
   100          2
   102          1
   103          6
   104         18
   105          8
   106          4
   107          9
   108          3
   113          6
   115          5
   118          5
   119         19
   120         11
   121         59
   122        327
   123        999
   124        179
   125        316
   126         26
   127          1
   130          2
   131          5
   132          3
   133          1
   134          1
   135          1
   136          1
   137          3
   139          1
   141          2
   142          9
   143          2
   144          3
   145          1
   152          1
   153          1
   154          1
   155         23
   156          5
   157        215
   158        861
   159        191
   160        544
   161         58
   162         93