##TITLE=Library Entry 97434
##JCAMP-DX=Revision 4.10 
##DATA TYPE=MASS SPECTRUM
##SAMPLE DESCRIPTION=Japan AIST/NIMC Database- Spectrum MS-IW- 581
##NAMES=HP
##CAS NAME=Benzene, cyclopropyl-
##MOLFORM=C9H10
##CAS REGISTRY NO=873-49-4
##MP= -300
##BP= -300
##MW= 118
##$RETENTION INDEX=1032
##$CONDENSED SPECTRUM=NO
##NPOINTS= 55
##XYDATA=(XY..XY) 1 
    26          3
    27         13
    28          3
    37          4
    38         11
    39         70
    40          7
    41          9
    43          3
    44          1
    49          2
    50         32
    51         72
    52         17
    53          6
    55          1
    57         27
    58         47
    59          1
    61          6
    62         19
    63         57
    64         12
    65         66
    66          6
    73          2
    74         12
    75         11
    76         12
    77         62
    78         60
    79          7
    85          3
    86          5
    87          6
    88          3
    89         59
    90         21
    91        283
    92         32
    93          1
    98          1
   101          2
   102         19
   103         82
   104          9
   105          1
   113          4
   114          4
   115        279
   116         71
   117        999
   118        635
   119         57
   120          3