##TITLE=Library Entry 85164
##JCAMP-DX=Revision 4.10 
##DATA TYPE=MASS SPECTRUM
##SAMPLE DESCRIPTION=A.A.Kutin, Moscow, Russia
##NAMES=HP
##CAS NAME=1H-Imidazole-4-carboxylic acid, 2-methyl-, ethyl ester
##MOLFORM=C7H10N2O2
##CAS REGISTRY NO=87326-25-8
##MP= -300
##BP= -300
##MW= 154
##$RETENTION INDEX=0
##$CONDENSED SPECTRUM=NO
##NPOINTS= 36
##XYDATA=(XY..XY) 1 
    33         17
    38          2
    39         19
    40        365
    41        188
    42        305
    43        110
    44         33
    45         24
    51         36
    52        152
    54        601
    56        106
    66         10
    67         11
    68          5
    70          4
    71          3
    78          3
    81        781
    82        232
    83         11
    95         21
    97          4
    98         32
   108        999
   109        901
   110        165
   111          6
   121          1
   124          3
   126        520
   139         20
   152          1
   154        753
   155         42