##TITLE=Library Entry 32299
##JCAMP-DX=Revision 4.10 
##DATA TYPE=MASS SPECTRUM
##SAMPLE DESCRIPTION=NIST Mass Spectrometry Data Center
##NAMES=HP
##CAS NAME=Dimethyl isopropylidene succinate
##MOLFORM=C9H14O4
##CAS REGISTRY NO=87384-00-7
##MP= -300
##BP= -300
##MW= 186
##$RETENTION INDEX=0
##$CONDENSED SPECTRUM=NO
##NPOINTS= 82
##XYDATA=(XY..XY) 1 
    11          2
    12          3
    15        779
    16         13
    19          2
    24          1
    26         43
    27        216
    28         60
    29        194
    30         44
    31         46
    32          5
    33         12
    37         15
    39        442
    40        156
    41        569
    42         86
    43        155
    45        133
    46          5
    47          6
    48          2
    50         63
    51        126
    52         66
    53        238
    54         33
    55         90
    56         11
    57         11
    59        270
    60          7
    61          7
    62         12
    63         22
    65        143
    67        999
    68        247
    69         69
    70          9
    71          7
    73        210
    74          5
    75          2
    77          5
    79         13
    80          4
    81         17
    82         16
    83         80
    84         13
    85         36
    86          2
    87          2
    89          1
    94        210
    95        484
    96        204
    97         73
    98         14
    99         10
   108          1
   109          3
   111         88
   112         10
   113          4
   115          1
   122         10
   123          9
   126        466
   127        116
   128         10
   129          1
   139          2
   143          1
   152          2
   154        451
   155        185
   156         21
   186          3