##TITLE=Library Entry 46629
##JCAMP-DX=Revision 4.10 
##DATA TYPE=MASS SPECTRUM
##SAMPLE DESCRIPTION=A.A.Kutin, Moscow, Russia
##NAMES=HP
##CAS NAME=2H-Naphtalen-1-one, 3,4-dihydro-6-methoxy-2-(4-methoxybenzylideno
)-
##MOLFORM=C19H18O3
##CAS REGISTRY NO=87384-01-8
##MP= -300
##BP= -300
##MW= 294
##$RETENTION INDEX=0
##$CONDENSED SPECTRUM=NO
##NPOINTS= 164
##XYDATA=(XY..XY) 1 
    33          0
    39        379
    40         41
    41         56
    43         34
    44          7
    45         23
    50        209
    51        690
    52        110
    53         92
    55         96
    56          2
    57          5
    62        112
    63        437
    64        123
    65        191
    66         24
    67          3
    68          2
    69         12
    70          3
    74         71
    75        129
    76        252
    77        999
    78        196
    79         51
    80          0
    81          9
    82         47
    85          0
    86         17
    87         51
    88         67
    89        341
    90        191
    91        520
    92         69
    93         13
    94         24
    95         35
    96          4
    97          3
    98         10
    99          8
   100          8
   101         54
   102        259
   103        305
   104         56
   105        151
   106         22
   107         18
   108         22
   109         14
   110         14
   111         15
   112          4
   113         26
   114         30
   115        296
   116         57
   117         43
   118         27
   119         71
   120        504
   121        628
   122         50
   123          5
   124          5
   125         23
   126         36
   127         33
   128         45
   129         16
   130         43
   131        105
   132         25
   133         23
   134         45
   135         19
   137          3
   139         51
   140          7
   141          5
   142          3
   143         32
   144         26
   145        125
   146         70
   147         55
   148         23
   149          7
   150         15
   151         32
   152         79
   153         29
   154          3
   155          0
   158         97
   159         19
   160          8
   161          1
   162         29
   163         20
   164         13
   165         84
   166         13
   167          0
   168          0
   171          7
   173          2
   175          0
   176         26
   177         22
   178         80
   179         41
   180         10
   181          8
   182          0
   186         18
   187          6
   188          2
   189         52
   190         29
   191         45
   192         15
   193          8
   194          1
   195          5
   201          2
   202         17
   203         14
   204          4
   205          9
   206          5
   207         19
   208         20
   209          2
   218         13
   219         21
   220         12
   221          6
   222          0
   234          6
   235         18
   236          6
   250         13
   251         25
   252          1
   263        105
   264         18
   265          5
   266         15
   267          0
   278          1
   279         71
   280          9
   293        225
   294        187
   295         33
   296          1