##TITLE=Library Entry 109021
##JCAMP-DX=Revision 4.10 
##DATA TYPE=MASS SPECTRUM
##SAMPLE DESCRIPTION=NIST Mass Spectrometry Data Center, 1998.
##NAMES=HP
##CAS NAME=Cyclohexanone, 2-acetyl-
##MOLFORM=C8H12O2
##CAS REGISTRY NO=874-23-7
##MP= -300
##BP= -300
##MW= 140
##$RETENTION INDEX=1977
##$CONDENSED SPECTRUM=NO
##NPOINTS= 93
##XYDATA=(XY..XY) 1 
    14          2
    15         13
    26         10
    27         75
    28         16
    29         36
    30          1
    31         10
    37          5
    38         19
    39        175
    40         40
    41        258
    42         91
    43        691
    44         21
    45         13
    46          1
    47          4
    48          1
    49          3
    50         25
    51         55
    52         28
    53         93
    54         28
    55        315
    56         25
    57         26
    58         11
    59          1
    61          4
    62          8
    63         18
    64          5
    65         36
    66         32
    67         74
    68         41
    69        315
    70        126
    71         67
    72          4
    73          1
    74          4
    75          2
    76          1
    77         84
    78         15
    79        171
    80         20
    81         27
    82         11
    83         86
    84        193
    85         21
    86          3
    89          1
    90          1
    91         23
    92          3
    93         13
    94         25
    95         37
    96         12
    97        355
    98        102
    99         31
   100          2
   102          1
   103          2
   104          1
   105          3
   107         21
   108          2
   109          2
   110          1
   111         29
   112         95
   113          7
   120          1
   121         11
   122         11
   123          6
   124          1
   125        999
   126         78
   127          7
   138          2
   139         26
   140        563
   141         50
   142          4