##TITLE=Library Entry 49656
##JCAMP-DX=Revision 4.10 
##DATA TYPE=MASS SPECTRUM
##SAMPLE DESCRIPTION=Chemical Concepts
##NAMES=HP
##CAS NAME=Pyrrole-2-butyronitrile
##MOLFORM=C8H10N2
##CAS REGISTRY NO=874-92-0
##MP= -300
##BP= -300
##MW= 134
##$RETENTION INDEX=0
##$CONDENSED SPECTRUM=NO
##NPOINTS= 64
##XYDATA=(XY..XY) 1 
    26         16
    27         56
    28         76
    29          5
    30          3
    37         17
    38         33
    39         76
    40         28
    41         52
    42          7
    43          5
    46          3
    49          3
    50         22
    51         44
    52         54
    53        131
    54         25
    55          5
    56          3
    57          5
    61          2
    62          6
    63         16
    64         22
    65         48
    66         25
    67         32
    68          6
    69          3
    71          3
    74          3
    75          5
    76          7
    77         19
    78         25
    79         28
    80        999
    81         80
    82          3
    83          2
    85          2
    91          8
    92        111
    93         91
    94         87
    95          7
    97          2
   103          2
   104         12
   105         53
   106         33
   107          4
   116          2
   117          3
   118          5
   119          4
   131          9
   132         17
   133          6
   134        270
   135         29
   136          2