##TITLE=Library Entry 49655
##JCAMP-DX=Revision 4.10 
##DATA TYPE=MASS SPECTRUM
##SAMPLE DESCRIPTION=Chemical Concepts
##NAMES=HP
##CAS NAME=Pyrrole-3-butyronitrile
##MOLFORM=C8H10N2
##CAS REGISTRY NO=874-91-9
##MP= -300
##BP= -300
##MW= 134
##$RETENTION INDEX=0
##$CONDENSED SPECTRUM=NO
##NPOINTS= 65
##XYDATA=(XY..XY) 1 
    26         13
    27         56
    28         74
    29          4
    30          2
    37          8
    38         19
    39         69
    40         24
    41         43
    42          6
    43          5
    46          2
    47          1
    49          3
    50         23
    51         45
    52         54
    53        153
    54         20
    55          5
    56          3
    57          6
    61          3
    62          6
    63         14
    64         10
    65         34
    66         19
    67         42
    68          7
    69          4
    70          2
    71          4
    74          3
    75          4
    76          5
    77         20
    78         19
    79         28
    80        999
    81        141
    82          7
    83          3
    85          2
    91          8
    92         26
    93         85
    94         77
    95          6
    97          3
   104          7
   105         17
   106         14
   107          2
   117          2
   118          6
   119          4
   130          2
   131          4
   132          3
   133          5
   134        281
   135         32
   136          1