##TITLE=Library Entry 10397
##JCAMP-DX=Revision 4.10 
##DATA TYPE=MASS SPECTRUM
##SAMPLE DESCRIPTION=Exported from NIST MS Search
##NAMES=HP
##CAS NAME=2-Propanone, 1-cyclohexylidene-
##MOLFORM=C9H14O
##CAS REGISTRY NO=874-68-0
##MP= -300
##BP= -300
##MW= 138
##$RETENTION INDEX=0
##$CONDENSED SPECTRUM=NO
##NPOINTS= 21
##XYDATA=(XY..XY) 1 
    39        310
    41        280
    43        999
    51         80
    53        150
    55        250
    65         80
    66         70
    67        480
    77        100
    79        210
    80        499
    81        180
    91         80
    93         70
    95        559
   109        130
   110         90
   123        330
   138        529
   139         70