##TITLE=Library Entry 6543
##JCAMP-DX=Revision 4.10 
##DATA TYPE=MASS SPECTRUM
##SAMPLE DESCRIPTION=James Little,Eastman Chem.Co.,Kingsport,TN
##NAMES=HP
##CAS NAME=4-Carboxycyclohexanone
##MOLFORM=C7H10O3
##CAS REGISTRY NO=874-61-3
##MP= -300
##BP= -300
##MW= 142
##$RETENTION INDEX=0
##$CONDENSED SPECTRUM=NO
##NPOINTS= 24
##XYDATA=(XY..XY) 1 
    29        230
    39        318
    41        361
    42        783
    43        999
    44        110
    45        154
    54         68
    55        649
    56         49
    58        110
    59        148
    60         74
    68         82
    69         65
    70        228
    73        119
    83         26
    85         68
    86        310
    96         45
    97         68
   114         77
   142        139