##TITLE=Library Entry 99230
##JCAMP-DX=Revision 4.10 
##DATA TYPE=MASS SPECTRUM
##SAMPLE DESCRIPTION=Japan AIST/NIMC Database- Spectrum MS-NW-2941
##NAMES=HP
##CAS NAME=Benzoyl chloride, 4-methyl-
##MOLFORM=C8H7ClO
##CAS REGISTRY NO=874-60-2
##MP= -300
##BP= -300
##MW= 154
##$RETENTION INDEX=0
##$CONDENSED SPECTRUM=NO
##NPOINTS= 60
##XYDATA=(XY..XY) 1 
    14          1
    15          1
    26          4
    27          8
    28          6
    35          2
    36          6
    37          9
    38         16
    39         70
    40          6
    41         18
    43          9
    44          5
    45          8
    46          5
    49          4
    50         31
    51         31
    52          9
    53          3
    59         10
    60          2
    61          9
    62         22
    63         59
    64         16
    65        137
    66          7
    73          3
    74          8
    75          7
    76          5
    77          3
    84          1
    85          5
    86          5
    87          4
    88          1
    89         44
    90         23
    91        439
    92         35
    93          1
    99          2
   105          2
   118          3
   119        999
   120         87
   121          5
   124          1
   125          5
   126          1
   127          2
   136          4
   138          1
   154         42
   155          4
   156         13
   157          1