##TITLE=Library Entry 97549
##JCAMP-DX=Revision 4.10 
##DATA TYPE=MASS SPECTRUM
##SAMPLE DESCRIPTION=Exported from NIST MS Search
##NAMES=HP
##CAS NAME=1H-Indene, 2,3-dihydro-5-methyl-
##MOLFORM=C10H12
##CAS REGISTRY NO=874-35-1
##MP= -300
##BP= -300
##MW= 132
##$RETENTION INDEX=1136
##$CONDENSED SPECTRUM=NO
##NPOINTS= 99
##XYDATA=(XY..XY) 1 
    24          1
    25          1
    26         15
    27         81
    28         12
    29          5
    30          1
    31          1
    32          1
    36          1
    37          6
    38         20
    39        123
    40         12
    41         18
    42          1
    43          1
    44          1
    45          1
    48          1
    49          3
    50         47
    51        117
    52         30
    53         36
    54          3
    55          1
    56          1
    57          4
    58          8
    59          1
    60          1
    61          6
    62         23
    63         72
    64         90
    65         96
    66         10
    67          1
    68          1
    69          1
    70          1
    71          1
    72          1
    73          2
    74         18
    75         18
    76         13
    77         72
    78         28
    79         16
    80          1
    81          1
    83          1
    84          1
    85          2
    86          5
    87          7
    88          3
    89         22
    90          4
    91        131
    92         13
    93          1
    97          1
    98          3
    99          1
   100          1
   101          5
   102         20
   103         29
   104         21
   105         24
   106          2
   107          1
   109          1
   110          1
   111          1
   113          2
   114          5
   115        198
   116        101
   117        999
   118         99
   119          6
   120          1
   121          1
   122          1
   125          1
   126          6
   127         30
   128         62
   129         51
   130         21
   131        270
   132        442
   133         48
   134          3
   135          1