##TITLE=Library Entry 48621
##JCAMP-DX=Revision 4.10 
##DATA TYPE=MASS SPECTRUM
##SAMPLE DESCRIPTION=Japan AIST/NIMC Database- Spectrum MS-IW-7698
##NAMES=HP
##CAS NAME=1-BUTYLPIRIDINIUM BROMIDE
##MOLFORM=C9H14BrN
##CAS REGISTRY NO=874-80-6
##MP= -300
##BP= -300
##MW= 215
##$RETENTION INDEX=0
##$CONDENSED SPECTRUM=NO
##NPOINTS= 55
##XYDATA=(XY..XY) 1 
    15          2
    25          3
    26         49
    27        136
    28         83
    29        234
    30          5
    36          2
    37         12
    38         25
    39        125
    40         14
    41        434
    42         19
    43         30
    44          1
    48          3
    49         19
    50        110
    51        207
    52        622
    53         73
    54          6
    55         58
    56        142
    57        894
    58         44
    62          1
    63          1
    64          2
    69          1
    71          1
    74          3
    75         14
    76         11
    77          3
    78        131
    79        999
    80         84
    81         12
    82         38
    83          1
    93          7
    95          7
    97          1
   105          1
   106          4
   107         43
   108          7
   109         41
   110          3
   136         86
   137          4
   138         84
   139          3