##TITLE=Library Entry 100339
##JCAMP-DX=Revision 4.10 
##DATA TYPE=MASS SPECTRUM
##SAMPLE DESCRIPTION=Japan AIST/NIMC Database- Spectrum MS-NW-3637
##NAMES=HP
##CAS NAME=Benzene, 1-ethyl-2,4-dimethyl-
##MOLFORM=C10H14
##CAS REGISTRY NO=874-41-9
##MP= -300
##BP= -300
##MW= 134
##$RETENTION INDEX=1075
##$CONDENSED SPECTRUM=NO
##NPOINTS= 65
##XYDATA=(XY..XY) 1 
    15          5
    26          2
    27         23
    28          2
    29          5
    37          1
    38          4
    39         45
    40          5
    41         42
    42          1
    50         10
    51         35
    52          9
    53         17
    54          1
    55          3
    57          8
    58          5
    59          2
    61          2
    62          7
    63         19
    64          9
    65         36
    66         11
    67          3
    74          4
    75          5
    76          4
    77         58
    78         20
    79         25
    80          2
    86          2
    87          2
    89          8
    90          2
    91        110
    92          9
    93         12
    94          1
   101          1
   102          8
   103         32
   104         24
   105         47
   106          8
   107          2
   115         36
   116         12
   117         51
   118         18
   119        999
   120         97
   121          5
   127          2
   128          4
   129          2
   131          5
   132          3
   133         17
   134        296
   135         32
   136          1