##TITLE=Library Entry 56858
##JCAMP-DX=Revision 4.10 
##DATA TYPE=MASS SPECTRUM
##SAMPLE DESCRIPTION=A.A.Kutin, Moscow, Russia
##NAMES=HP
##CAS NAME=Ethoxy-diphenyl-acetic acid 3-diethylamino-2-hydroxy-propyl ester
##MOLFORM=C23H31NO4
##CAS REGISTRY NO=87415-97-2
##MP= -300
##BP= -300
##MW= 385
##$RETENTION INDEX=0
##$CONDENSED SPECTRUM=NO
##NPOINTS= 151
##XYDATA=(XY..XY) 1 
    33          0
    34          1
    39          3
    40         15
    41          8
    42         23
    43         20
    44         19
    45          2
    46          0
    50          1
    51          8
    52          1
    53          0
    54          1
    55          4
    56         18
    57         13
    58         56
    60          5
    61          0
    62          0
    63          1
    64          0
    65          1
    66          0
    67          0
    68          0
    69          1
    70          6
    71          6
    72          7
    73          1
    74          1
    75          1
    77         80
    78          6
    79          1
    80          0
    81          0
    82          1
    83          1
    84          8
    86        999
    87         56
    88          4
    89          1
    91          1
    92          0
    93          0
    94          0
    95          0
    96          0
    97          0
    98          1
    99          0
   100          2
   101          0
   102          0
   103          1
   105        155
   106         12
   107          1
   108          0
   109          0
   110          0
   112          4
   113          1
   114          3
   115          3
   116         39
   117          3
   118          0
   119          0
   120          0
   121          1
   122          0
   124          0
   125          0
   126          1
   127          1
   128          3
   129          2
   130          5
   131          0
   132          0
   133          1
   134          0
   135          0
   136          0
   137          0
   138          0
   139          2
   140          0
   141          0
   144          0
   146          0
   148          0
   149          1
   150          0
   151          1
   152          6
   153          2
   154          0
   155          0
   162          0
   163          2
   164          4
   165         26
   166          8
   167          7
   168          1
   171          0
   174          0
   175          0
   177          0
   179          0
   180          0
   181          2
   183         52
   184          7
   185          0
   189          0
   191          1
   192          0
   194          1
   195          0
   207          0
   209          2
   211        179
   212         26
   213          2
   235          0
   236          0
   237          0
   253          0
   283          0
   324          1
   325          0
   338          0
   340          3
   341          1
   342          7
   343          1
   356          0
   357          0
   368          0
   369          0
   370          0
   384          1
   385          0