##TITLE=Library Entry 64646
##JCAMP-DX=Revision 4.10 
##DATA TYPE=MASS SPECTRUM
##SAMPLE DESCRIPTION=Japan AIST/NIMC Database- Spectrum MS-IW-1228
##NAMES=HP
##CAS NAME=Methyl 2-benzyl-4-hydroxy-5-oxo-3-phenyl-2,5-dihydro-2-furoate
##MOLFORM=C19H16O5
##CAS REGISTRY NO=87414-47-9
##MP= -300
##BP= -300
##MW= 324
##$RETENTION INDEX=0
##$CONDENSED SPECTRUM=NO
##NPOINTS= 199
##XYDATA=(XY..XY) 1 
    15         17
    16          2
    17          1
    18          1
    27          3
    28          8
    29          2
    31          1
    38          1
    39         24
    40          2
    41          6
    43          1
    44         45
    45          3
    50          6
    51         23
    52          4
    53          3
    55          2
    59         22
    61          1
    62          6
    63         29
    64          8
    65         77
    66          5
    69          1
    74          5
    75          9
    76          9
    77         35
    78          7
    79          6
    81          2
    82          9
    83          4
    86          2
    87          5
    88          7
    89         84
    90         32
    91        999
    92         87
    93          4
    94          9
    95          8
    96          5
    97          1
    98          1
    99          1
   100          1
   101          7
   102         15
   103         36
   104          5
   105         40
   106          6
   107          2
   109          5
   110          4
   111          1
   113          5
   114          7
   115        154
   116         19
   117         29
   118         65
   119          9
   120          1
   121         18
   122          1
   123          3
   124          3
   125          2
   126          4
   127          2
   128          4
   129         25
   130          8
   131         26
   132          5
   133          2
   134          1
   137          1
   138          1
   139          7
   140          1
   141          1
   142          2
   143          9
   144          3
   145         84
   146         10
   147          3
   149          4
   150          4
   151          4
   152          9
   153          3
   157          1
   158          1
   159         21
   160          3
   161         66
   162          9
   163          9
   164          6
   165         49
   166         10
   167          2
   170          1
   172          1
   173          8
   174         11
   175          6
   176         23
   177         12
   178         49
   179         22
   180          4
   181          2
   186         22
   187         12
   188          7
   189        266
   190         66
   191        319
   192        372
   193        156
   194         24
   195          2
   200          1
   201         15
   202         19
   203         27
   204          8
   205         24
   206          6
   207         14
   208         10
   209          4
   214          4
   215          1
   217          2
   218         60
   219        160
   220        189
   221         71
   222         10
   223          4
   224          1
   229          1
   230          1
   231          6
   232          2
   233          2
   234          1
   235         11
   236         21
   237         40
   238          7
   239          1
   245          2
   246        116
   247         58
   248         48
   249         16
   250         14
   251         15
   252        135
   253         24
   254          3
   257          1
   262          1
   263          6
   264         60
   265         96
   266         20
   267          3
   274          2
   275          3
   277          2
   278         40
   279        315
   280        350
   281         66
   282          8
   292        188
   293         42
   294         12
   295          2
   306         15
   307          3
   308          1
   324        507
   325        110
   326         15
   327          2