##TITLE=Library Entry 14972
##JCAMP-DX=Revision 4.10 
##DATA TYPE=MASS SPECTRUM
##SAMPLE DESCRIPTION=A. Brossi, LC, NIDDK, NIH, Bethesda, MD 20892
##NAMES=HP
##CAS NAME=Acetamide, N-(5,6,7,9-tetrahydro-2-hydroxy-1,3-dimethoxy-10-(meth
ylthio)-9-oxobenzo(a)heptalen-7-yl)-, (S)-
##MOLFORM=C21H23NO5S
##CAS REGISTRY NO=87424-26-8
##MP= -300
##BP= -300
##MW= 401
##$RETENTION INDEX=0
##$CONDENSED SPECTRUM=NO
##NPOINTS= 111
##XYDATA=(XY..XY) 1 
    41         54
    42        118
    43        999
    44         23
    45         38
    47         20
    54         14
    55         64
    56         28
    57         86
    60         44
    67         15
    68         16
    70         35
    71         57
    89         14
   112         34
   115         36
   127         16
   128         16
   129         92
   139         40
   141         15
   147         14
   149         78
   151         14
   152         60
   153         39
   155         14
   165         45
   166         16
   167         41
   168         17
   171         16
   178         15
   180         16
   181         24
   183         14
   184         16
   195         17
   196         19
   197         17
   198         14
   199         14
   206         14
   207         15
   208         20
   209         20
   211         21
   212         15
   213         14
   221         18
   223         18
   224         55
   225         21
   226         14
   227         18
   228         17
   235         19
   236         38
   237         50
   238         20
   239         38
   240         34
   241         58
   242         15
   251         63
   252        171
   253         64
   254         43
   255         33
   256         58
   257         33
   266         14
   267        159
   268         63
   269         48
   270         15
   271         47
   272         15
   279         13
   281        112
   282         42
   283        119
   284         69
   285         32
   286         56
   287         14
   297         15
   298         18
   299        158
   300         84
   301         35
   302         53
   309         30
   313         36
   314        512
   315        121
   316         83
   330         34
   340         14
   342         43
   354         34
   358         38
   368        198
   369         47
   373        228
   374         46
   401        532
   402        139
   403         42