##TITLE=Library Entry 114930
##JCAMP-DX=Revision 4.10 
##DATA TYPE=MASS SPECTRUM
##SAMPLE DESCRIPTION=G. Lange, Inst. Org. Chem., Univ. Wurzburg, Germany
##NAMES=HP
##CAS NAME=2,3-Diazabicyclo[2.2.2]oct-2-ene, 1,4-diphenyl-
##MOLFORM=C18H18N2
##CAS REGISTRY NO=87433-33-8
##MP= -300
##BP= -300
##MW= 262
##$RETENTION INDEX=0
##$CONDENSED SPECTRUM=NO
##NPOINTS= 105
##XYDATA=(XY..XY) 1 
    38          2
    39         73
    40          5
    41         13
    42          1
    43         50
    44          1
    49          2
    50         16
    51         90
    52         22
    53         19
    54          2
    55          2
    57          2
    62          4
    63         28
    64          9
    65         70
    66          4
    74          4
    75         11
    76         30
    77        182
    78         83
    79         15
    87          3
    88          3
    89         32
    90          4
    91        367
    92         31
    94          2
    95          4
    96          1
   101         13
   102         68
   103        109
   104        299
   105         43
   106          3
   107          3
   108          4
   109          4
   113         11
   114         11
   115        441
   116         92
   117        195
   118         21
   119          1
   120          2
   126          4
   127         36
   128        151
   129        340
   130        999
   131        115
   132          7
   133          2
   139          4
   140          1
   141         45
   142         36
   143        170
   144         21
   145          2
   151          4
   152         13
   153         12
   154          7
   155         18
   156         43
   157         10
   165          9
   166          1
   167          1
   176          2
   177          1
   178         11
   179          5
   180          1
   189          7
   190          4
   191         13
   192          3
   193          2
   202         15
   203         15
   204         16
   205         17
   206          8
   215          8
   216          3
   217          4
   218          3
   219         38
   220          7
   230          4
   231          1
   232          5
   233          4
   234        170
   235         34
   236          3