##TITLE=Library Entry 24966
##JCAMP-DX=Revision 4.10 
##DATA TYPE=MASS SPECTRUM
##SAMPLE DESCRIPTION=NIST Mass Spectrometry Data Center, 1990.
##NAMES=HP
##CAS NAME=1-Cyclopentyl-2-propen-1-ol
##MOLFORM=C8H14O
##CAS REGISTRY NO=87453-54-1
##MP= -300
##BP= -300
##MW= 126
##$RETENTION INDEX=0
##$CONDENSED SPECTRUM=NO
##NPOINTS= 43
##XYDATA=(XY..XY) 1 
    26         32
    27        171
    28          0
    29        197
    31         58
    38         46
    39        396
    40         91
    41        684
    42         70
    43         65
    50         50
    51         96
    52         55
    53        128
    54         52
    55        209
    57        999
    58        889
    59         62
    63         37
    65        121
    66        106
    67        673
    68        310
    69        608
    70         54
    77        212
    78         65
    79        320
    80        135
    81         82
    82        120
    83         77
    85        112
    91        156
    93        339
    94         31
    95         27
    97         96
    98         15
   107         26
   108        151