##TITLE=Library Entry 42365
##JCAMP-DX=Revision 4.10 
##DATA TYPE=MASS SPECTRUM
##SAMPLE DESCRIPTION=V.G.Zaikin, TIPS, Russian Acad. Sci.
##NAMES=HP
##CAS NAME=1,4-Bis(trimethylsilyl)-2,3,6,7-tetrathiacyclooctane
##MOLFORM=C10H24S4Si2
##CAS REGISTRY NO=87495-58-7
##MP= -300
##BP= -300
##MW= 328
##$RETENTION INDEX=0
##$CONDENSED SPECTRUM=NO
##NPOINTS= 44
##XYDATA=(XY..XY) 1 
    41         20
    42         10
    43         90
    44         30
    45        180
    46         10
    47         10
    53         20
    55         20
    57         10
    58         10
    59        170
    60         20
    61         20
    72         10
    73        999
    74        100
    75         90
    76         10
    77         20
    83         10
    85         70
    90         20
    91        150
    92         10
    93         20
   117        150
   118         20
   119         10
   132        420
   133         60
   134         40
   149         20
   163         30
   164         10
   181         10
   196        260
   197         30
   198         40
   328         30
   329          7
   330          8
   331          2
   332          1