##TITLE=Library Entry 82697
##JCAMP-DX=Revision 4.10 
##DATA TYPE=MASS SPECTRUM
##SAMPLE DESCRIPTION=Chemical Concepts
##NAMES=HP
##CAS NAME=(R)-(-)-2-Phenylglycine
##MOLFORM=C8H9NO2
##CAS REGISTRY NO=875-74-1
##MP= -300
##BP= -300
##MW= 151
##$RETENTION INDEX=0
##$CONDENSED SPECTRUM=NO
##NPOINTS= 84
##XYDATA=(XY..XY) 1 
    30          4
    31          0
    34          0
    36          0
    37          9
    38         17
    39         42
    41          3
    42          1
    43          0
    44         11
    45         47
    46          2
    47          0
    48          0
    49          7
    50         75
    51        115
    52         49
    53         46
    54         10
    55          1
    56          0
    57          0
    60          1
    61          6
    62         12
    63         27
    64          6
    65          7
    66          3
    67          5
    68          0
    69          0
    72          0
    73          5
    74         22
    75         13
    76         25
    77        259
    78         64
    79        436
    80         36
    81          1
    82          0
    83          0
    84          0
    85          1
    86          2
    87          1
    88          0
    89         17
    90         12
    91          6
    92          0
    93          0
    94          0
    95          0
    98          0
    99          0
   100          0
   102          2
   103         21
   104        116
   105         30
   106        999
   107        106
   108          4
   111          0
   113          0
   116          1
   117          0
   118          3
   119          0
   120          0
   130          0
   131          0
   132          0
   133          0
   134          0
   135          2
   136          0
   150          0
   152          0