##TITLE=Library Entry 54650
##JCAMP-DX=Revision 4.10 
##DATA TYPE=MASS SPECTRUM
##SAMPLE DESCRIPTION=Exported from NIST MS Search
##NAMES=HP
##CAS NAME=2-Norbornanethione, 1,3,3-trimethyl-
##MOLFORM=C10H16S
##CAS REGISTRY NO=875-06-9
##MP= -300
##BP= -300
##MW= 168
##$RETENTION INDEX=0
##$CONDENSED SPECTRUM=NO
##NPOINTS= 76
##XYDATA=(XY..XY) 1 
    39        447
    40        104
    41        947
    42         41
    43        208
    44         62
    45        281
    46         20
    51        104
    52         52
    53        239
    54         52
    55        270
    56         31
    57         62
    58         83
    59        229
    60         20
    65        187
    66         52
    67        239
    68         52
    69        416
    70         41
    71         93
    77        239
    78         72
    79        395
    80         52
    81        156
    82         52
    83         52
    84         41
    85        999
    86         62
    87         52
    91        395
    92        104
    93        437
    94        104
    95        489
    96         52
    97        208
    98        125
    99        208
   100         52
   101         72
   105        125
   106         52
   107        177
   108         72
   109        104
   110         41
   111        312
   112        531
   113        791
   114         62
   115         52
   119        135
   120         52
   121         62
   124         83
   125        791
   126        312
   127         72
   135        166
   136         20
   139        114
   140         52
   153        385
   154         31
   166         20
   167         41
   168        864
   169        104
   170         52