##TITLE=Library Entry 87526
##JCAMP-DX=Revision 4.10 
##DATA TYPE=MASS SPECTRUM
##SAMPLE DESCRIPTION=Exported from NIST MS Search
##NAMES=HP
##CAS NAME=Quinoline, decahydro-1-methyl-, trans-
##MOLFORM=C10H19N
##CAS REGISTRY NO=875-63-8
##MP= -300
##BP= -300
##MW= 153
##$RETENTION INDEX=0
##$CONDENSED SPECTRUM=NO
##NPOINTS= 20
##XYDATA=(XY..XY) 1 
    39         30
    41         50
    42         90
    53         20
    54         20
    55         30
    67         40
    68         20
    70         30
    79         20
    81         20
    82         40
    84         20
    96         80
    97         90
   110        999
   124         30
   152         40
   153        100
   154         10