##TITLE=Library Entry 40716
##JCAMP-DX=Revision 4.10 
##DATA TYPE=MASS SPECTRUM
##SAMPLE DESCRIPTION=Chemical Concepts
##NAMES=HP
##CAS NAME=3-(1-Ethoxy-ethoxy)-2-ethyl-butyric acid, ethyl ester
##MOLFORM=C12H24O4
##CAS REGISTRY NO=87519-08-2
##MP= -300
##BP= -300
##MW= 232
##$RETENTION INDEX=0
##$CONDENSED SPECTRUM=NO
##NPOINTS= 92
##XYDATA=(XY..XY) 1 
    25          3
    26         28
    27        202
    28         32
    29        341
    30          8
    31         81
    36          2
    38          3
    39         63
    40         13
    41        186
    42         58
    43        245
    44        147
    45        681
    46         26
    47         15
    51          3
    53         19
    54          7
    55        124
    56          9
    57         51
    58          5
    59         35
    60          6
    61         10
    65          3
    67         14
    68         10
    69        232
    70        110
    71        107
    72         76
    73        999
    74         52
    75         11
    77          3
    79          2
    81          3
    82          2
    83          9
    84          2
    85          7
    86          9
    87         58
    88         67
    89         16
    91          4
    95          6
    96          3
    97        136
    98         13
    99         65
   100          3
   101        166
   102         11
   103          5
   105          2
   107          2
   109          2
   111          2
   113         17
   114         13
   115        290
   116        165
   117         20
   119          2
   122          2
   123          5
   125          2
   127          7
   129          4
   131          5
   132          3
   133          2
   135          2
   140          2
   141         12
   142         19
   143        235
   144         26
   145         16
   153          5
   157          9
   158          2
   159          6
   186          2
   187         32
   188          4
   217          3