##TITLE=Library Entry 63054
##JCAMP-DX=Revision 4.10 
##DATA TYPE=MASS SPECTRUM
##SAMPLE DESCRIPTION=NIST Mass Spectrometry Data Center, 1998.
##NAMES=HP
##CAS NAME=Ethyl 2-isocyanato-2-phenylpropionate
##MOLFORM=C12H13NO3
##CAS REGISTRY NO=87543-80-4
##MP= -300
##BP= -300
##MW= 219
##$RETENTION INDEX=0
##$CONDENSED SPECTRUM=NO
##NPOINTS= 120
##XYDATA=(XY..XY) 1 
    15          3
    18          1
    19          2
    25          1
    26          8
    27         73
    28         38
    29        261
    30         14
    31         29
    37          1
    38          4
    39         42
    40          5
    41         17
    42         18
    43         20
    44          9
    45         34
    46         51
    47         12
    50         17
    51         57
    52         15
    53          6
    54          2
    55          7
    56        185
    57          9
    58          6
    61          1
    62         10
    63         39
    64         13
    65        175
    66         12
    67          1
    68          2
    69          1
    70          2
    72          2
    73          8
    74        321
    75         15
    76         10
    77        117
    78         35
    79         20
    80          3
    83          6
    84         17
    85          1
    86          2
    87          2
    88          2
    89         56
    90         42
    91        999
    92        154
    93         32
    94          3
    98          1
    99          1
   100          3
   101         20
   102        494
   103        167
   104         87
   105         38
   106          5
   107          9
   108          1
   114          1
   115          6
   116         15
   117         49
   118        100
   119        105
   120        387
   121         40
   122          2
   128        133
   129         21
   130         50
   131        332
   132         46
   133          9
   134          2
   135          4
   136          1
   144          1
   145          8
   146         88
   147         57
   148        263
   149         28
   150          2
   157          2
   158         25
   159          4
   161         14
   162          4
   163         29
   164         15
   165          2
   172          1
   174        152
   175         53
   176        779
   177         96
   178          9
   179          1
   190          2
   191         13
   192        336
   193         42
   194          4
   219          1
   220         21
   221          3