##TITLE=Library Entry 54127
##JCAMP-DX=Revision 4.10 
##DATA TYPE=MASS SPECTRUM
##SAMPLE DESCRIPTION=Div. of Experiment Therapeutics WRAIR, WRAMC, Washingto
n DC 20307
##NAMES=HP
##CAS NAME=2-Methylpiperidine-1-thiocarboxylic acid 2-[1-[2-pyridyl 1-oxide]
##MOLFORM=C14H20N4OS
##CAS REGISTRY NO=87587-05-1
##MP= -300
##BP= -300
##MW= 292
##$RETENTION INDEX=0
##$CONDENSED SPECTRUM=NO
##NPOINTS= 201
##XYDATA=(XY..XY) 1 
    41        328
    42        804
    43        586
    44        215
    45         34
    46         13
    47         22
    48         15
    49         93
    50        103
    51        376
    52        168
    53         92
    54         69
    55        597
    56        518
    57        157
    58         81
    59         31
    60         54
    61         15
    62         35
    63         86
    64         83
    65         85
    66        138
    67         52
    68         46
    69         92
    70        209
    71         80
    72         87
    73         10
    74         18
    75         14
    76         38
    77         37
    78        754
    79        398
    80         45
    81         41
    82         41
    83         66
    84        999
    85         61
    86         39
    87          7
    88         10
    89          8
    90          7
    91          9
    92         50
    93         35
    94         26
    95         61
    96         44
    97        105
    98        936
    99        201
   100         23
   101          4
   102          4
   103         10
   104        241
   105        230
   106         56
   107         16
   108          6
   109         27
   110         12
   111          4
   112          7
   113          4
   114         10
   115          3
   116          3
   117          7
   118          6
   119         31
   120        117
   121        117
   122         45
   123         21
   124         10
   125         10
   126         39
   128         14
   129          2
   130          8
   131          3
   132          2
   133         13
   134         15
   135        106
   136         28
   137         35
   138         19
   139          2
   140          9
   141          1
   142        112
   143         16
   144          8
   145          3
   146          6
   147         15
   148         30
   149          9
   150         10
   151         23
   152          5
   153          3
   154          6
   155         12
   156          5
   157         13
   158          5
   160         12
   161          3
   162         20
   163          6
   164          6
   165          2
   166          1
   167          1
   168          1
   170          2
   171          0
   173          2
   174          0
   175          1
   176          9
   177         31
   178        208
   179         21
   180         10
   181          1
   182          1
   185          0
   186          0
   187          0
   190          0
   191          4
   192          6
   193        121
   194         20
   195          7
   196          4
   197          1
   198          5
   199          1
   201          0
   205          1
   207          1
   210          0
   213          1
   214          0
   215          2
   216          3
   217          2
   219          2
   222          0
   224          3
   225          1
   227          2
   229          1
   231          0
   233          1
   238          1
   241          2
   242          0
   243          4
   244          2
   245          2
   246          0
   247         12
   248          4
   249          2
   256          4
   258          3
   259         11
   260          4
   261          5
   262          2
   263          1
   264          2
   265          0
   272          2
   273          2
   274          1
   275        134
   276         38
   277         21
   278          4
   279          1
   280          1
   290          1
   291          2
   292          7
   293          1
   294          0