##TITLE=Library Entry 71187
##JCAMP-DX=Revision 4.10 
##DATA TYPE=MASS SPECTRUM
##SAMPLE DESCRIPTION=Div. of Experiment Therapeutics WRAIR, WRAMC, Washingto
n DC 20307
##NAMES=HP
##CAS NAME=3-Methylpiperidine-1-thiocarboxylic acid 2-[1-[2-pyridyl 1-oxide]
ethylidenehydrazide
##MOLFORM=C14H20N4OS
##CAS REGISTRY NO=87587-06-2
##MP= -300
##BP= -300
##MW= 292
##$RETENTION INDEX=0
##$CONDENSED SPECTRUM=NO
##NPOINTS= 222
##XYDATA=(XY..XY) 1 
    41        452
    42        270
    43        263
    44        270
    45         29
    46          7
    47          9
    48          7
    49         16
    50         59
    51        208
    52        114
    53         72
    54         47
    55        603
    56        225
    57        123
    58         32
    59         22
    60         59
    61         10
    62         22
    63         52
    64         54
    65         63
    66         67
    67         41
    68         47
    69         97
    70        113
    71         29
    72        139
    73         14
    74         19
    75         13
    76         37
    77         61
    78        604
    79        379
    80         47
    81         43
    82         75
    83        111
    84        135
    85         14
    86         22
    87          8
    88          5
    89          7
    90          5
    91         19
    92         52
    93         49
    94         18
    95         65
    96         43
    97         91
    98        999
    99        172
   100         20
   101          4
   102          5
   103         15
   104        192
   105        178
   106         92
   107         25
   108         12
   109         21
   110         13
   111          8
   112         15
   113          8
   114          4
   115          4
   116          3
   117         12
   118          7
   119         48
   120        139
   121        180
   122         77
   123         23
   124         12
   125         22
   126         54
   127         10
   128         13
   129          3
   130         12
   131          7
   132          7
   133         11
   134         36
   135         53
   136         37
   137         60
   138         23
   139          4
   140         15
   141         16
   142        182
   143         22
   144         14
   145          5
   146          7
   147          8
   148         24
   149         10
   150         21
   151         31
   152          8
   153          5
   154          7
   155          4
   156          3
   157         10
   158         11
   159         15
   160          1
   161          4
   162         18
   163         12
   164          9
   165          8
   166          5
   167          2
   168          2
   169          2
   170          1
   171          1
   172          5
   173          9
   174          2
   175          2
   176         10
   177         42
   178        346
   179         40
   180         18
   181          2
   185          2
   186          2
   187          3
   188          0
   189          1
   190          2
   191          0
   192         11
   193         38
   194         21
   195          4
   196          8
   197          4
   198         15
   199          5
   200          2
   201          2
   202          1
   203          2
   204          2
   205          3
   206          0
   209          3
   210          1
   211          0
   213          6
   214          3
   215          5
   216         15
   217          6
   218          0
   219          6
   224          5
   225          1
   226          1
   227          3
   228          1
   229          3
   230          1
   231          2
   232          1
   234          0
   238          1
   240          3
   241          9
   242          9
   243         11
   244          3
   245          4
   246          2
   247         49
   248          8
   249          3
   255          2
   256          2
   258          5
   259         18
   260         11
   261         14
   262          3
   263          2
   264          2
   265          1
   268          0
   273          2
   274          3
   275        192
   276         71
   277         57
   278         10
   279          4
   280          4
   281          0
   287          1
   289          0
   290          3
   291          3
   292         64
   293         12
   294          4
   295          0