##TITLE=Library Entry 70997
##JCAMP-DX=Revision 4.10 
##DATA TYPE=MASS SPECTRUM
##SAMPLE DESCRIPTION=Div. of Experiment Therapeutics WRAIR, WRAMC, Washingto
n DC 20307
##NAMES=HP
##CAS NAME=Azacycloheptane-1-thiocarboxylic acid 2-[1-[2-pyridyl]ethylidene]
##MOLFORM=C14H20N4OS
##CAS REGISTRY NO=87587-04-0
##MP= -300
##BP= -300
##MW= 292
##$RETENTION INDEX=0
##$CONDENSED SPECTRUM=NO
##NPOINTS= 198
##XYDATA=(XY..XY) 1 
    41        416
    42        189
    43        245
    44        136
    45         22
    46          6
    47         12
    48          6
    49         37
    50         52
    51        152
    52         89
    53         57
    54         37
    55        578
    56        130
    57         51
    58         18
    59         22
    60         54
    61          8
    62         14
    63         30
    64         23
    65         45
    66         54
    67         37
    68         80
    69         69
    70         86
    72        147
    73         11
    74         18
    75          7
    76         22
    77         38
    78        439
    79        374
    80         37
    81         38
    82         27
    83         53
    84         35
    86         34
    87          6
    88          9
    89          4
    90          3
    91          7
    92         32
    93         39
    94          8
    95         74
    96         59
    97         29
    98        999
    99        100
   100         10
   101          5
   102          4
   103          5
   104        120
   105        110
   106         53
   107         19
   108          8
   109         28
   110         10
   111          7
   112          6
   113         12
   114          4
   115          3
   116          3
   117          7
   118          4
   119         38
   120        167
   121        166
   122         54
   123         18
   124         14
   125          9
   126         12
   127          2
   128          5
   129          2
   130          6
   131          3
   132          6
   133          8
   134          9
   135         26
   136         27
   137         56
   138         17
   139          5
   140         13
   141          1
   142        148
   143         15
   144         12
   145          4
   146          7
   147          4
   148         11
   149          5
   150         19
   151         34
   152          9
   153          3
   154          5
   155          4
   156          3
   157          9
   158          3
   159          8
   160          4
   161          2
   162          8
   163         14
   164         11
   165          3
   166          2
   167          1
   168          2
   169          1
   170          2
   171          2
   172          1
   173          4
   174          1
   175          0
   176          7
   177         18
   178        368
   179         38
   180         16
   181          2
   185          1
   186          1
   187          1
   188          1
   190          1
   191          2
   192          1
   193         22
   194          7
   195          1
   196         13
   197          0
   198         17
   199          5
   200          2
   201          1
   203          1
   205          2
   206          1
   208          1
   213          4
   214          1
   215          3
   216         12
   217          4
   219          2
   223          2
   224          0
   227          2
   229          0
   241          6
   242          4
   243          8
   244          2
   245          0
   247         26
   248          4
   249          1
   256          1
   258          3
   259         13
   260          3
   261          8
   262          2
   263          0
   264          1
   272          5
   273          2
   275        263
   276         68
   277         50
   278          8
   279          2
   289          1
   290          1
   292         57
   293         10
   294          3
   295          0