##TITLE=Library Entry 13666
##JCAMP-DX=Revision 4.10 
##DATA TYPE=MASS SPECTRUM
##SAMPLE DESCRIPTION=Chemical Concepts
##NAMES=HP
##CAS NAME=Sucrose, 1',2,3,3',4',6'-hexa-O-acetyl-4,6-O-(ethyl)boranediyl-
##MOLFORM=C26H37BO17
##CAS REGISTRY NO=87591-47-7
##MP= -300
##BP= -300
##MW= 632
##$RETENTION INDEX=0
##$CONDENSED SPECTRUM=NO
##NPOINTS= 189
##XYDATA=(XY..XY) 1 
    27          9
    28          5
    29         15
    30          1
    31          4
    35          0
    36          1
    37          0
    38          0
    39          5
    40          0
    41          9
    42         15
    43        999
    44         25
    45         11
    46          0
    50          0
    51          0
    52          1
    53          4
    54          2
    55         11
    56          4
    57         17
    58          1
    59          1
    60          8
    61          6
    63          0
    65          0
    66          0
    67          1
    68          7
    69         23
    70          5
    71          7
    72          1
    73         29
    74          2
    75          0
    77          0
    79          0
    80          0
    81         16
    82          3
    83         25
    84          7
    85         19
    86          8
    87          3
    88          0
    89          0
    91          0
    94          0
    95          1
    96          2
    97         38
    98         16
    99         39
   100          3
   101         34
   102          5
   103          9
   104          0
   108          0
   109        115
   110         23
   111         24
   112          8
   113          8
   114          2
   115         13
   116          3
   117          0
   122          0
   123          0
   124          2
   125          7
   126         11
   127         24
   128          6
   129          3
   131          1
   132          1
   133          0
   134          1
   135          3
   136          2
   137          4
   138          1
   139          7
   140          2
   141          4
   142          0
   143          1
   144          1
   145          6
   146          0
   147          0
   148          0
   149          1
   150          0
   151          1
   152          3
   153          9
   154          8
   155          5
   156          3
   157          3
   158          0
   159          0
   160          0
   161          0
   163          0
   164          7
   165         25
   166          4
   167          4
   168          2
   169        128
   170         12
   171          2
   172          0
   173          2
   174          0
   176          0
   177          1
   178          2
   179          0
   180          0
   181          2
   182         33
   183        120
   184         11
   185          2
   186          3
   187          3
   188          0
   191          0
   194          0
   195          2
   196          1
   197          0
   198          0
   199          1
   200          2
   201          0
   202          0
   203          0
   204          0
   207          0
   209          0
   211        234
   212         26
   213          5
   214          0
   215          2
   216          0
   218          0
   219          0
   221          0
   222          0
   223          0
   224         27
   225        108
   226         12
   227          2
   228          2
   229          2
   230          0
   233          2
   241          0
   242          0
   243          0
   245          1
   255          0
   271          1
   275          2
   276          0
   283          0
   284         11
   285         47
   286          6
   287          0
   331         66
   332          9
   333          2
   384          0