##TITLE=Library Entry 89730
##JCAMP-DX=Revision 4.10 
##DATA TYPE=MASS SPECTRUM
##SAMPLE DESCRIPTION=A.A.Kutin, Moscow, Russia
##NAMES=HP
##CAS NAME=Imidazolo[4,5-d]imidazole-2,5(1H,3H)-dione, tetrahydro-1-ethyl-
##MOLFORM=C6H10N4O2
##CAS REGISTRY NO=87623-30-1
##MP= -300
##BP= -300
##MW= 170
##$RETENTION INDEX=0
##$CONDENSED SPECTRUM=NO
##NPOINTS= 79
##XYDATA=(XY..XY) 1 
    39          5
    40         61
    41         76
    42        170
    43        165
    44        357
    45         41
    52          2
    53         22
    54         25
    55         63
    56        261
    57         73
    58          5
    64          3
    67          7
    69        203
    70         68
    71        171
    72         48
    75          2
    77         14
    78          4
    79         27
    80         15
    81          9
    83        162
    84        373
    85        124
    86         15
    87         60
    91         31
    92          5
    93         32
    94          2
    95         49
    96          2
    97         39
    98        234
    99        194
   100         36
   103          4
   105          9
   107         15
   108         36
   109         29
   110         36
   112        999
   113         62
   114         33
   115          5
   116          1
   119          3
   121         11
   123        119
   124          8
   126        141
   127        152
   128         22
   133          6
   134          8
   135        111
   137        216
   138         24
   139          7
   140          4
   142         19
   151          3
   152          2
   154          2
   155        642
   156         34
   162          5
   164          3
   165          3
   166          1
   167          2
   170        357
   171         27