##TITLE=Library Entry 23275
##JCAMP-DX=Revision 4.10 
##DATA TYPE=MASS SPECTRUM
##SAMPLE DESCRIPTION=Chemical Concepts
##NAMES=HP
##CAS NAME=Phosphonous dichloride, [[chloro(1,1-dimethylethyl)phosphino]meth
yl]-
##MOLFORM=C5H11Cl3P2
##CAS REGISTRY NO=87648-08-6
##MP= -300
##BP= -300
##MW= 238
##$RETENTION INDEX=0
##$CONDENSED SPECTRUM=NO
##NPOINTS= 109
##XYDATA=(XY..XY) 1 
    28          1
    29        194
    30          4
    31          0
    35          0
    36          2
    37          0
    38          0
    39         38
    40          0
    41        236
    42          9
    43          4
    44          4
    45         34
    46          1
    47          0
    48          0
    49          0
    50          1
    51          1
    52          0
    53          4
    54          0
    55         17
    56          7
    57        999
    58         44
    59          3
    60          0
    61          0
    62          2
    66          4
    67          3
    68          1
    69          1
    70          0
    71          3
    72          0
    73          3
    74          2
    75          8
    76          0
    77          0
    79          1
    80          4
    81         13
    82          1
    83          4
    85          2
    86          0
    87          6
    88          0
    93          0
    95          0
    97          0
    99          0
   101         21
   102          2
   103         14
   105          2
   107          1
   108          0
   109          0
   110          2
   111          1
   112          0
   113          0
   115          0
   117          0
   121          3
   122          1
   123          2
   124          0
   125          0
   137          1
   139          0
   145          0
   146          1
   147          2
   148          1
   149          1
   161          0
   167          0
   169          0
   181          1
   182          3
   183          1
   184          2
   185          0
   186          0
   187          0
   189          0
   202          0
   203          5
   204          0
   205          3
   206          0
   207          0
   223          1
   225          1
   227          0
   238         52
   239          3
   240         51
   241          3
   242         16
   243          1
   244          1