##TITLE=Library Entry 79858
##JCAMP-DX=Revision 4.10 
##DATA TYPE=MASS SPECTRUM
##SAMPLE DESCRIPTION=A.A.Kutin, Moscow, Russia
##NAMES=HP
##CAS NAME=Imidazolidine, 1,3-dibenzoyl-2-phenyl-
##MOLFORM=C23H20N2O2
##CAS REGISTRY NO=87645-26-9
##MP= -300
##BP= -300
##MW= 356
##$RETENTION INDEX=0
##$CONDENSED SPECTRUM=NO
##NPOINTS= 134
##XYDATA=(XY..XY) 1 
    37          0
    38          2
    39          6
    40          1
    41          4
    42          5
    43          0
    44          0
    45          0
    50         39
    51        132
    52          7
    53          1
    54          0
    55          0
    56          0
    62          2
    63          6
    64          3
    65         12
    66          0
    69          0
    70          3
    74         10
    75         15
    77        689
    78         40
    79          3
    87          0
    89         16
    90         17
    91         82
    92          6
    93          3
    94          0
   101          0
   102          2
   103         20
   105        999
   106         67
   107          4
   115          1
   116          5
   117         42
   118         33
   119          5
   120          3
   121          5
   122          0
   128          1
   130          7
   131          4
   132          4
   133          1
   134         13
   135          2
   136          0
   139          0
   145          6
   146          6
   148        196
   149         17
   150          1
   151          1
   152          5
   153          2
   154          0
   155          0
   157          1
   162          0
   164          0
   165          4
   166          0
   167          0
   173          1
   174          0
   175          1
   176          0
   177          0
   178          0
   180         10
   181          3
   182          0
   192          0
   193          0
   194          1
   195          2
   196          0
   197          1
   205          0
   206          3
   207          3
   208         10
   209         15
   210          4
   211          0
   220          0
   221          3
   222          9
   223         22
   224          6
   225          1
   226          0
   233          6
   234          4
   235          5
   236         12
   237         20
   238          3
   247          0
   248          1
   249          5
   251        420
   252         79
   253         10
   254          0
   265          4
   266          0
   277          0
   279         43
   280          7
   281          0
   299          1
   300          0
   327          8
   328          2
   329          0
   352          0
   354          2
   356        279
   357         57
   358          7
   359          0
   365          0