##TITLE=Library Entry 13205
##JCAMP-DX=Revision 4.10 
##DATA TYPE=MASS SPECTRUM
##SAMPLE DESCRIPTION=A. OKU, DEP. CHEM., KYOTO INST. TECHNOL., KYOTO, JAPAN
##NAMES=HP
##CAS NAME=2-Acetoxy-2-cyanospiro[cyclopropane-1,9'-fluorene]
##MOLFORM=C18H13NO2
##CAS REGISTRY NO=87656-19-7
##MP= -300
##BP= -300
##MW= 275
##$RETENTION INDEX=0
##$CONDENSED SPECTRUM=NO
##NPOINTS= 13
##XYDATA=(XY..XY) 1 
    43        999
   150         20
   151         30
   152         40
   163         15
   165         20
   176         70
   178        460
   190         20
   204         20
   205         25
   232        130
   275        140