##TITLE=Library Entry 22886
##JCAMP-DX=Revision 4.10 
##DATA TYPE=MASS SPECTRUM
##SAMPLE DESCRIPTION=A.Pleshkova, Nesmeyanov Inst.Org.Elem.Cpds, Moscow
##NAMES=HP
##CAS NAME=N-Methoxy-N-trifluoroacetyl-1-methyl-1-carbomethoxyethylamine
##MOLFORM=C8H12F3NO4
##CAS REGISTRY NO=87687-82-9
##MP= -300
##BP= -300
##MW= 243
##$RETENTION INDEX=0
##$CONDENSED SPECTRUM=NO
##NPOINTS= 37
##XYDATA=(XY..XY) 1 
    39         37
    40         24
    41        171
    42        134
    43        134
    44         49
    45        143
    46         16
    49         73
    50         37
    51         73
    52         11
    56        999
    57         61
    58          9
    59        207
    60         37
    69        281
    70         73
    71          6
    73        244
    74         24
    84        159
    85         24
    88        159
    89         18
   101         85
   102         24
   154        207
   155         24
   184        866
   185         73
   186          6
   212         24
   213         12
   243         24
   244          2