##TITLE=Library Entry 42358
##JCAMP-DX=Revision 4.10 
##DATA TYPE=MASS SPECTRUM
##SAMPLE DESCRIPTION=Chemical Concepts
##NAMES=HP
##CAS NAME=2,2,4,4,8,8,10,10-Octamethyl-3,9-dioxa-2,4,8,10-tetrasila-6-stann
aspiro[5.5]undecane
##MOLFORM=C12H32O2Si4Sn
##CAS REGISTRY NO=87683-88-3
##MP= -300
##BP= -300
##MW= 440
##$RETENTION INDEX=0
##$CONDENSED SPECTRUM=NO
##NPOINTS= 146
##XYDATA=(XY..XY) 1 
    36         18
    38         16
    39         36
    40         51
    41         26
    43        177
    45        205
    47          8
    50          1
    51          9
    53          7
    55         43
    57         25
    58        196
    59        206
    60         25
    61          7
    67          9
    69         24
    73        999
    75         77
    77         10
    79          7
    80          2
    81         10
    82         14
    83         15
    85        110
    87         76
    89         12
    91          3
    95          6
    97         13
    99         28
   100          1
   101         22
   102         46
   103         61
   105         51
   106          1
   109          1
   113         31
   115         58
   117        234
   118         49
   119         73
   120         36
   121         11
   122          7
   124          9
   125          1
   127         15
   128          1
   129         66
   131        527
   132        103
   133        224
   135        233
   137         31
   139         34
   141          7
   143         49
   145         64
   147         71
   148         11
   149         11
   150          7
   151          8
   153          2
   155          4
   157         30
   159         34
   161        266
   163        478
   164        155
   165        417
   167         80
   169         77
   171          2
   173         12
   175         34
   176          9
   177         21
   178          6
   179          7
   181          3
   185          2
   187         38
   189        158
   190         35
   191         63
   192         18
   193         25
   194          7
   195         10
   196          1
   197          8
   199          8
   201         25
   203         48
   204         29
   205         85
   206         19
   207         29
   208          4
   209          4
   215          4
   217          7
   231          3
   245         82
   246         18
   247         16
   248          3
   249          4
   251          2
   261         48
   262         17
   263         26
   264         14
   265         28
   266          6
   267          6
   269          4
   277         37
   278         10
   279          9
   321          2
   323          4
   335          4
   336          2
   337          6
   339          3
   421         10
   422          9
   423         23
   424         14
   425         24
   426          8
   427          7
   429          2
   436          2
   437          1
   438          7
   439          3
   440          9
   441          2