##TITLE=Library Entry 26360
##JCAMP-DX=Revision 4.10 
##DATA TYPE=MASS SPECTRUM
##SAMPLE DESCRIPTION=A.Pleshkova, Nesmeyanov Inst.Org.Elem.Cpds, Moscow
##NAMES=HP
##CAS NAME=N-Carbomethoxy-N-methoxy-N-tert.-butylamine
##MOLFORM=C7H15NO3
##CAS REGISTRY NO=87687-81-8
##MP= -300
##BP= -300
##MW= 161
##$RETENTION INDEX=0
##$CONDENSED SPECTRUM=NO
##NPOINTS= 32
##XYDATA=(XY..XY) 1 
    41        291
    42         97
    43         81
    44        133
    45        226
    46        468
    47         22
    56        614
    57        999
    58         81
    59        242
    60        145
    61         11
    73        242
    74         48
    75         35
    83         24
    84        161
    85         22
    86         24
    87         65
    88         24
   101         48
   102         16
   105        999
   106        242
   107         19
   130         32
   146         17
   161         86
   162          9
   163          1