##TITLE=Library Entry 35295
##JCAMP-DX=Revision 4.10 
##DATA TYPE=MASS SPECTRUM
##SAMPLE DESCRIPTION=J.MOLLER, UNIV. OF COPENHAGEN, DENMARK
##NAMES=HP
##CAS NAME=s-Tetrazine, 3,6-bis(dimethylamino)-
##MOLFORM=C6H12N6
##CAS REGISTRY NO=877-77-0
##MP= -300
##BP= -300
##MW= 168
##$RETENTION INDEX=0
##$CONDENSED SPECTRUM=NO
##NPOINTS= 17
##XYDATA=(XY..XY) 1 
    15        298
    27         47
    28        202
    40         35
    41         50
    42        213
    43         98
    44         68
    45         23
    53         48
    55         26
    69        999
    70        825
    71        613
    72         43
   168        468
   169         48