##TITLE=Library Entry 22782
##JCAMP-DX=Revision 4.10 
##DATA TYPE=MASS SPECTRUM
##SAMPLE DESCRIPTION=ASES Database, Dalian Institute, P.R. China
##NAMES=HP
##CAS NAME=3,6-Dimethyl-7-oxo-1,7-dihydro-[1,2,4]-triazolo(4,3-b)-[1,2,4]-tr
iazine
##MOLFORM=C6H7N5O
##CAS REGISTRY NO=877-27-0
##MP= -300
##BP= -300
##MW= 165
##$RETENTION INDEX=0
##$CONDENSED SPECTRUM=NO
##NPOINTS= 16
##XYDATA=(XY..XY) 1 
    40        210
    41        571
    42        381
    43        190
    53        140
    54        160
    55        272
    56        999
    57        319
    67        129
    68        220
    69        202
   124        825
   125         40
   165        762
   166         40