##TITLE=Library Entry 25
##JCAMP-DX=Revision 4.10 
##DATA TYPE=MASS SPECTRUM
##SAMPLE DESCRIPTION=Humboldt-Universitat zu Berlin, Department of Chemistry
, Analytical Group
##NAMES=HP
##CAS NAME=1,3,5-Triazine, 2,4,6-trimethoxy-
##MOLFORM=C6H9N3O3
##CAS REGISTRY NO=877-89-4
##MP= -300
##BP= -300
##MW= 171
##$RETENTION INDEX=0
##$CONDENSED SPECTRUM=NO
##NPOINTS= 85
##XYDATA=(XY..XY) 1 
    12          6
    13          9
    14         36
    15        999
    16         12
    17          5
    18         53
    26          3
    27         18
    28         91
    29        112
    30         90
    31         21
    35          1
    38          3
    39          2
    40          9
    41         22
    42        205
    43         26
    44         11
    45          5
    49          1
    52          2
    53         12
    54         15
    55         21
    56         68
    57         16
    58         98
    59          6
    61          1
    62          1
    63          1
    66         16
    67         36
    68         15
    69        119
    70        401
    71         18
    72         41
    73          2
    76          2
    78          3
    81          2
    82          4
    83         70
    84          8
    85          5
    86          1
    87          4
    88          4
    89          1
    94         29
    95          8
    96          8
    97          2
    98         57
    99         27
   100          6
   101         20
   110          5
   111         10
   112          2
   113          5
   114          2
   117          1
   126        284
   127         17
   128          3
   130          4
   141        197
   142         23
   143          2
   145         10
   147          4
   149          4
   151          2
   156         18
   157          1
   170         51
   171        164
   172         27
   173          3
   175          2