##TITLE=Library Entry 88353
##JCAMP-DX=Revision 4.10 
##DATA TYPE=MASS SPECTRUM
##SAMPLE DESCRIPTION=V.A.KOPTYUG, ATLAS OF MASS SPECTRA OF ORGANIC COMPOUNDS
##NAMES=HP
##CAS NAME=1-Hydroxy-4-isopropyl-2,2,5,5-tetramethyl-3-imidazoline
##MOLFORM=C10H20N2O
##CAS REGISTRY NO=87703-51-3
##MP= -300
##BP= -300
##MW= 184
##$RETENTION INDEX=0
##$CONDENSED SPECTRUM=NO
##NPOINTS= 92
##XYDATA=(XY..XY) 1 
    41        178
    42        178
    43        113
    44         30
    45          5
    50          3
    51          4
    52          6
    53         24
    54         29
    55        110
    56         33
    57         23
    58         44
    59          8
    60          2
    65          6
    66          5
    67         19
    68         56
    69        102
    70        257
    71         20
    72          2
    73          3
    74          8
    76          4
    77          8
    78          2
    79         13
    80         12
    81         17
    82         20
    83         83
    84         33
    85          6
    86          2
    88          1
    91          3
    92          1
    93          5
    94         16
    95         18
    96        522
    97         89
    98         59
    99         40
   100          2
   105          2
   106          1
   107          2
   108          8
   109         12
   110         93
   111        999
   112        119
   113          5
   117         13
   118         33
   119         14
   120         31
   121          4
   122         11
   123          8
   124          4
   125          3
   126          3
   127          2
   128         44
   129          4
   134          2
   135          4
   136         13
   137         34
   138         85
   139          9
   149          8
   151         12
   152         21
   153        200
   154         30
   155          2
   165          1
   166          2
   167         21
   168         15
   169         83
   170         10
   183         16
   184        168
   185         22
   186          2