##TITLE=Library Entry 73742
##JCAMP-DX=Revision 4.10 
##DATA TYPE=MASS SPECTRUM
##SAMPLE DESCRIPTION=Chemical Concepts
##NAMES=HP
##CAS NAME=Cyclohexane, 1,1-dimethoxy-2-pentyl-
##MOLFORM=C13H26O2
##CAS REGISTRY NO=87722-29-0
##MP= -300
##BP= -300
##MW= 214
##$RETENTION INDEX=0
##$CONDENSED SPECTRUM=NO
##NPOINTS= 127
##XYDATA=(XY..XY) 1 
    26          2
    27         34
    28         23
    29         47
    30          2
    31         14
    33          0
    37          0
    38          1
    39         32
    40          6
    41        118
    42          8
    43         43
    44          1
    45         40
    46          0
    47          3
    50          1
    51          4
    52          3
    53         21
    54         10
    55         85
    56          7
    57         14
    58         19
    59         15
    60          0
    61          0
    62          0
    63          1
    64          0
    65          9
    66          4
    67         50
    68          7
    69         31
    70          4
    71         19
    72          6
    73          3
    74          2
    75          9
    76          1
    77         21
    78          4
    79         41
    80          6
    81         47
    82          6
    83         21
    84         29
    85          8
    86          0
    87          5
    88         89
    89          5
    90          0
    91         11
    92          1
    93         18
    94          4
    95         56
    96          7
    97         43
    98         14
    99          8
   100          1
   101        999
   102         49
   103          4
   104          0
   105          1
   106          0
   107          4
   108          1
   109         17
   110          4
   111         54
   112         84
   113          8
   114          2
   115         35
   116          3
   117          0
   119          0
   121          2
   122          0
   123          2
   124          1
   125         89
   126          8
   127          2
   128          0
   129          4
   130          1
   135          0
   137          0
   139          4
   140          0
   141          1
   143         16
   144          2
   145          0
   151          3
   152          0
   153          2
   157         58
   158          6
   159          1
   167          0
   168          0
   169          0
   171         33
   172          3
   181          1
   182         14
   183         89
   184         11
   185          6
   186          1
   199          1
   213          1
   214         40
   215          5
   216          0