##TITLE=Library Entry 14019
##JCAMP-DX=Revision 4.10 
##DATA TYPE=MASS SPECTRUM
##SAMPLE DESCRIPTION=Chemical Concepts
##NAMES=HP
##CAS NAME=2-Butenoic acid, 3-acetoxy-4-iodo-, methyl ester
##MOLFORM=C7H9IO4
##CAS REGISTRY NO=87730-94-7
##MP= -300
##BP= -300
##MW= 284
##$RETENTION INDEX=0
##$CONDENSED SPECTRUM=NO
##NPOINTS= 96
##XYDATA=(XY..XY) 1 
    26          9
    27         43
    28          3
    29         17
    30          2
    31          7
    33          1
    37          6
    38         15
    39         33
    40          5
    41         13
    42         54
    43        999
    44         24
    45         17
    53          6
    54          2
    55         81
    56          6
    57          4
    58          8
    59         30
    60          2
    66          3
    67          6
    68          3
    69         85
    70          3
    71          1
    83         20
    84         68
    85         10
    86          1
    87         87
    88          4
    97          2
    98          7
    99          1
   100          1
   101         84
   102          3
   113          0
   114         11
   115        105
   116         17
   117          1
   121          0
   124          1
   125          7
   126          1
   127         24
   128          8
   129          8
   130          1
   138          1
   139          1
   140          2
   141         19
   142          7
   143          2
   153          2
   155          2
   156          3
   157         75
   158          5
   165          3
   166          3
   167          1
   168          4
   169          5
   170          1
   180          3
   181          2
   183          2
   194          1
   196          1
   197          3
   198          2
   199          1
   200          1
   209          0
   210         19
   211         85
   212         11
   213          1
   229          4
   241          2
   242        779
   243         44
   244          5
   252          6
   253         24
   254          1
   284         13
   285          1