##TITLE=Library Entry 6702
##JCAMP-DX=Revision 4.10 
##DATA TYPE=MASS SPECTRUM
##SAMPLE DESCRIPTION=Chemical Concepts
##NAMES=HP
##CAS NAME=4-Nitro-3-oxobutyric acid, methyl ester
##MOLFORM=C5H7NO5
##CAS REGISTRY NO=87730-77-6
##MP= -300
##BP= -300
##MW= 161
##$RETENTION INDEX=0
##$CONDENSED SPECTRUM=NO
##NPOINTS= 76
##XYDATA=(XY..XY) 1 
    25          7
    26         45
    27        176
    29        337
    30        213
    31        474
    33         19
    36          2
    37          7
    38         16
    39         43
    40         11
    41         48
    42        476
    43        999
    44        608
    45         75
    46         33
    50          3
    51          5
    52          3
    53          7
    54          5
    55        101
    56         18
    57        182
    58          9
    59        301
    60         15
    61         10
    62         90
    63          3
    65          4
    66          2
    67          5
    68          3
    69        150
    70         15
    71         10
    72         12
    73          5
    74         38
    75          2
    76          4
    77          5
    79          3
    80          2
    81          3
    83          8
    84         45
    85         13
    86          4
    87        118
    88         52
    89          8
    90          2
    91          4
    92          2
    93          2
    95          2
    97          3
    99          4
   100         13
   101        427
   102         16
   103         14
   104          3
   105          3
   106          2
   114         68
   115         52
   116          3
   130         34
   131          3
   133          3
   161          5