##TITLE=Library Entry 75115
##JCAMP-DX=Revision 4.10 
##DATA TYPE=MASS SPECTRUM
##SAMPLE DESCRIPTION=Chemical Concepts
##NAMES=HP
##CAS NAME=2-Butenoic acid, 3-methoxy-4-nitro-, methyl ester, (E)-
##MOLFORM=C6H9NO5
##CAS REGISTRY NO=87730-86-7
##MP= -300
##BP= -300
##MW= 175
##$RETENTION INDEX=0
##$CONDENSED SPECTRUM=NO
##NPOINTS= 112
##XYDATA=(XY..XY) 1 
    25          2
    26         27
    27        149
    28         22
    29         80
    30         57
    31         31
    33         16
    36          0
    37         12
    38         44
    39        208
    40        189
    41        163
    42         63
    43         60
    44         15
    45        147
    46         17
    47         42
    48          0
    49          0
    50          1
    51          3
    52          3
    53         27
    54         20
    55        472
    56         62
    57         70
    58         17
    59        321
    60          9
    61          3
    65          0
    66         13
    67         32
    68        375
    69        287
    70         19
    71         35
    72         11
    73          5
    74          3
    75         61
    76          2
    77          1
    81          2
    82          4
    83         15
    84         13
    85         76
    86         30
    87          6
    88          4
    89          2
    91          1
    92          0
    93          0
    94          1
    95          1
    96          5
    97         18
    98        409
    99         48
   100         11
   101        999
   102         55
   103         31
   104          2
   105          2
   107          0
   108          0
   109          1
   110          2
   111          1
   112          1
   113         42
   114         51
   115         20
   116         73
   117          7
   118          1
   119          0
   120          0
   121          0
   122          0
   123          0
   124          1
   125          0
   126         15
   127          2
   128         46
   129        946
   130         56
   131          6
   132          5
   133          7
   134          0
   135          0
   141          0
   142          1
   143          8
   144        352
   145         94
   146          9
   147          1
   157          1
   158          8
   159          1
   175         11
   176          1