##TITLE=Library Entry 97587
##JCAMP-DX=Revision 4.10 
##DATA TYPE=MASS SPECTRUM
##SAMPLE DESCRIPTION=Chemical Concepts
##NAMES=HP
##CAS NAME=1-[2-Nitro-1-(3-nitro-phenyl)-ethyl]-3,4-dihydro-1H-naphthalen-2-
one
##MOLFORM=C18H16N2O5
##CAS REGISTRY NO=87732-66-9
##MP= -300
##BP= -300
##MW= 340
##$RETENTION INDEX=0
##$CONDENSED SPECTRUM=NO
##NPOINTS= 217
##XYDATA=(XY..XY) 1 
    26          8
    27         66
    28         24
    29         26
    30         77
    31          4
    37          3
    38         18
    39        189
    40         14
    41         49
    42         28
    43         37
    44          7
    45         13
    46         15
    49          2
    50         73
    51        161
    52         43
    53        151
    54          6
    55         32
    56         10
    57         33
    58          4
    60          6
    61          7
    62         29
    63        147
    64         35
    65        117
    66         11
    67          8
    68          4
    69         22
    70          8
    71         20
    73          5
    74         17
    75         32
    76         52
    77        161
    78         36
    79         11
    80          2
    81         11
    82          6
    83         14
    84          4
    85         11
    86          3
    87          8
    88         12
    89         92
    90         53
    91        225
    92         21
    93          4
    94          4
    95         12
    96          7
    97         11
    98          3
    99          4
   100          2
   101         30
   102         64
   103         94
   104         39
   105         16
   106          3
   107          5
   108          4
   109          6
   110          4
   111          6
   112          2
   113          8
   114         10
   115        350
   116        121
   117        999
   118        101
   119         25
   120          7
   121          3
   123          4
   124          2
   125          4
   126          8
   127         26
   128         51
   129         39
   130         11
   131         27
   132         11
   133         27
   134          3
   135          2
   136         79
   137          8
   138          2
   139          9
   140          3
   141         12
   142          3
   143          5
   144          8
   145        449
   146        117
   147         22
   148          4
   149         50
   150         16
   151          7
   152         15
   153          6
   155          2
   157          2
   159          3
   160          2
   161        124
   162         29
   163         10
   164          9
   165         29
   166          6
   167          2
   169          3
   171          5
   173          4
   174          6
   175          2
   176          9
   177          7
   178         25
   179         13
   180          3
   187          2
   188          3
   189         37
   190         22
   191         31
   192         12
   193          5
   194          4
   200          3
   201          5
   202         33
   203         34
   204         27
   205         19
   206         11
   207          4
   213          3
   215         11
   216          7
   217         11
   218         13
   219          6
   220          7
   221          3
   222          3
   223          2
   227          2
   228          5
   229          4
   230          5
   231          6
   232         11
   233          7
   234          6
   235          3
   236          5
   237          3
   238          4
   244          2
   245          4
   246         37
   247         11
   248          4
   249          2
   250         26
   251         24
   252          9
   258          2
   259          2
   260          3
   262          7
   263          5
   264         18
   265          4
   267          4
   268          2
   274          9
   275          5
   276         39
   277         16
   278          8
   279         23
   280          9
   282         10
   283          2
   290          2
   291          6
   292        147
   293         93
   294         23
   295          4
   304          2
   305          3
   310         28
   311          5
   322          2
   340         79
   341         15