##TITLE=Library Entry 68154
##JCAMP-DX=Revision 4.10 
##DATA TYPE=MASS SPECTRUM
##SAMPLE DESCRIPTION=NIST Mass Spectrometry Data Center, 2010
##NAMES=HP
##CAS NAME=Aciphyllene
##MOLFORM=C15H24
##CAS REGISTRY NO=87745-31-1
##MP= -300
##BP= -300
##MW= 204
##$RETENTION INDEX=1499
##$CONDENSED SPECTRUM=NO
##NPOINTS= 91
##XYDATA=(XY..XY) 1 
    27         41
    29         63
    30          3
    39        169
    40         36
    41        393
    42         36
    43         71
    50         11
    51         62
    52         34
    53        217
    54         26
    55        342
    56         28
    57         22
    58          9
    59          4
    62          5
    63         26
    64         15
    65        177
    66         47
    67        405
    68         59
    69        177
    70         13
    72          3
    76          7
    77        475
    78        109
    79        808
    81        360
    82         44
    83         19
    91        642
    92        125
    93        593
    94        370
    95        999
    96         89
    97         12
   103         59
   104         26
   105        774
   106        223
   107        504
   108        282
   109        225
   110         30
   115         92
   116         38
   117        121
   118         28
   119        476
   120        263
   121        302
   122        195
   123         65
   127         15
   128         41
   129         47
   130         20
   131         90
   133        495
   134        209
   135         88
   136         23
   142          7
   145         44
   146         23
   147        615
   148        191
   149        125
   150         19
   151          3
   152          3
   153          2
   155          1
   161        329
   162        118
   163         25
   173          4
   175        154
   176         63
   189        644
   190         98
   191          8
   204        509
   205         88
   206          5