##TITLE=Library Entry 35891
##JCAMP-DX=Revision 4.10 
##DATA TYPE=MASS SPECTRUM
##SAMPLE DESCRIPTION=Chemical Concepts
##NAMES=HP
##CAS NAME=Perfluoro(1-oxaspiro[4.5]decane)
##MOLFORM=C9F16O
##CAS REGISTRY NO=87744-16-9
##MP= -300
##BP= -300
##MW= 428
##$RETENTION INDEX=0
##$CONDENSED SPECTRUM=NO
##NPOINTS= 20
##XYDATA=(XY..XY) 1 
    31        100
    43         51
    50         48
    69        999
    93        153
   100        767
   109         77
   119        153
   131        600
   143         79
   150        361
   169        187
   181        174
   193         94
   231         46
   243         99
   259        122
   293        127
   309         33
   409         47