##TITLE=Library Entry 68885
##JCAMP-DX=Revision 4.10 
##DATA TYPE=MASS SPECTRUM
##SAMPLE DESCRIPTION=H. NII, RES. LAB., NAGAOKA PERFUM. CO., OSAKA, JAPAN
##NAMES=HP
##CAS NAME=Aciphyllyl alcohol
##MOLFORM=C15H24O
##CAS REGISTRY NO=87745-29-7
##MP= -300
##BP= -300
##MW= 220
##$RETENTION INDEX=0
##$CONDENSED SPECTRUM=NO
##NPOINTS= 52
##XYDATA=(XY..XY) 1 
    41         50
    43         80
    55        170
    67        120
    69         30
    77         30
    79        320
    80         50
    81        270
    91        200
    92         50
    93        300
    94        250
    95        999
    96        100
   105        230
   106         70
   107        270
   108         90
   109        100
   117         50
   119        170
   120         50
   121        180
   122        170
   123         80
   124         70
   131        200
   132         30
   133        200
   134        150
   135        100
   136         30
   145        270
   146         80
   147        230
   148         30
   149         40
   150         60
   159         80
   160         50
   161        100
   162         70
   163        150
   173         30
   188        170
   189        500
   190         60
   202        100
   205         30
   220        250
   221         30