##TITLE=Library Entry 68300
##JCAMP-DX=Revision 4.10 
##DATA TYPE=MASS SPECTRUM
##SAMPLE DESCRIPTION=Chemical Concepts
##NAMES=HP
##CAS NAME=Cyclopentanecarboxylic acid, 3-methyl-4-methylene-, methyl ester,
 cis-
##MOLFORM=C9H14O2
##CAS REGISTRY NO=87753-69-3
##MP= -300
##BP= -300
##MW= 154
##$RETENTION INDEX=0
##$CONDENSED SPECTRUM=NO
##NPOINTS= 88
##XYDATA=(XY..XY) 1 
    26         22
    27        236
    28          7
    29         87
    30          8
    31         16
    33         10
    37          5
    38         23
    39        243
    40         53
    41        254
    42         25
    43         61
    44          2
    45         20
    46          3
    47          3
    48          2
    49          2
    50         32
    51         92
    52         46
    53        162
    54         26
    55        251
    56         13
    57          7
    58          2
    59         75
    60          2
    61         16
    62          8
    63         18
    64          6
    65         59
    66         32
    67        249
    68         73
    69         20
    71          6
    72          3
    73          4
    74          7
    75          9
    76          5
    77        144
    78         38
    79        631
    80        100
    81         42
    82          9
    83          5
    84          1
    85          7
    87         12
    88          1
    89          4
    90          3
    91         65
    92          9
    93        157
    94        639
    95        999
    96         75
    97         16
    98          4
    99          2
   100          4
   105          2
   107         17
   108          3
   109          3
   111         32
   112          8
   113          5
   121          8
   122        104
   123        109
   124          8
   125         12
   126          1
   137          2
   139         37
   140          3
   153          1
   154         48
   155          4