##TITLE=Library Entry 24759
##JCAMP-DX=Revision 4.10 
##DATA TYPE=MASS SPECTRUM
##SAMPLE DESCRIPTION=H. GLOMBIK, DEP. PHARM. SYNTH., HOECHST AG, FRANKFURT,
 W. GER.
##NAMES=HP
##CAS NAME=3-Methyl-2-(2-oxopropyl)furan
##MOLFORM=C8H10O2
##CAS REGISTRY NO=87773-62-4
##MP= -300
##BP= -300
##MW= 138
##$RETENTION INDEX=0
##$CONDENSED SPECTRUM=NO
##NPOINTS= 15
##XYDATA=(XY..XY) 1 
    55        770
    56        260
    57        999
    65        210
    67        230
    69        680
    70        250
    71        450
    81        210
    83        210
    95        450
   109        240
   123         50
   137         40
   138         70