##TITLE=Library Entry 72300
##JCAMP-DX=Revision 4.10 
##DATA TYPE=MASS SPECTRUM
##SAMPLE DESCRIPTION=Chemical Concepts
##NAMES=HP
##CAS NAME=1,4-Dioxaspiro[4.5]decane-6-methanol, 6-methyl-
##MOLFORM=C10H18O3
##CAS REGISTRY NO=87787-09-5
##MP= -300
##BP= -300
##MW= 186
##$RETENTION INDEX=0
##$CONDENSED SPECTRUM=NO
##NPOINTS= 91
##XYDATA=(XY..XY) 1 
    26          5
    27         42
    28         17
    29         56
    30          6
    31         27
    39         43
    40         13
    41        125
    42         49
    43         88
    44         13
    45         46
    51          7
    52          4
    53         31
    54         12
    55        127
    56         23
    57         32
    58         10
    59          5
    60          4
    66          9
    67         44
    68         18
    69         66
    70         10
    71         20
    73        111
    74          8
    78          5
    79         24
    80          9
    81         36
    82         54
    83         43
    84         14
    85         21
    86        183
    87         35
    89          8
    91         31
    92          4
    93         19
    94          7
    95         58
    96         90
    97         50
    98         12
    99        999
   100        104
   101         21
   102          5
   103          5
   104         14
   105          4
   106          4
   108          4
   109         13
   110          5
   111         27
   112         61
   113        103
   114         22
   115         37
   117          6
   123          7
   124        126
   125         40
   126         14
   127         14
   128         12
   130         38
   131          7
   139          5
   141          7
   143         16
   149          4
   153          4
   155        124
   156         42
   157          9
   158          9
   168         18
   169        102
   170         13
   171          9
   185          5
   186         98
   187         22