##TITLE=Library Entry 51101
##JCAMP-DX=Revision 4.10 
##DATA TYPE=MASS SPECTRUM
##SAMPLE DESCRIPTION=Chemical Concepts
##NAMES=HP
##CAS NAME=2-Cyclohexen-1-one, 6-(1-hydroxy-1-methylethyl)-3-methyl-
##MOLFORM=C10H16O2
##CAS REGISTRY NO=87791-00-2
##MP= -300
##BP= -300
##MW= 168
##$RETENTION INDEX=0
##$CONDENSED SPECTRUM=NO
##NPOINTS= 77
##XYDATA=(XY..XY) 1 
    25          4
    26         29
    27        109
    28         28
    29         21
    30          0
    31          5
    34          1
    36          2
    37         17
    38         37
    39        281
    40         45
    41         83
    42         74
    43        513
    44         13
    45          2
    49          3
    50         24
    51         37
    52         24
    53         83
    54        267
    55         28
    56          2
    57          7
    58        196
    59         12
    60          1
    61          4
    62          6
    63         12
    64          3
    65         19
    66         11
    67         65
    68         11
    69          7
    70          1
    71          2
    73          1
    74          3
    75          2
    76          1
    77         17
    78          5
    79         20
    80          4
    81         13
    82        999
    83         66
    84          4
    85          0
    91          6
    92          1
    93          2
    94          2
    95         21
    96          2
   105          2
   107          8
   108          3
   109         11
   110        416
   111         44
   112          3
   115          0
   121          1
   122          2
   131          0
   135          6
   136          0
   149          2
   150         14
   151          2
   153          2