##TITLE=Library Entry 107047
##JCAMP-DX=Revision 4.10 
##DATA TYPE=MASS SPECTRUM
##SAMPLE DESCRIPTION=LAC, NIDDK, NIH, Bethesda, MD 20892
##NAMES=HP
##CAS NAME=Thiophenol, S-[3-phenylthiopropionyl]-
##MOLFORM=C15H14OS2
##CAS REGISTRY NO=87797-69-1
##MP= -300
##BP= -300
##MW= 274
##$RETENTION INDEX=0
##$CONDENSED SPECTRUM=NO
##NPOINTS= 144
##XYDATA=(XY..XY) 1 
    41          1
    42          1
    43          2
    45        173
    46          5
    47          8
    49          1
    50         22
    51         74
    52          6
    53          3
    55        124
    56          6
    57          8
    58         13
    59         39
    60          4
    61          3
    62          5
    63         34
    65        195
    66         25
    67          1
    69         64
    70          4
    71          9
    72          0
    73          2
    74          6
    75          7
    76          7
    77         99
    78         17
    79         28
    80          2
    81          6
    82         16
    83         12
    84          8
    85          1
    86          0
    87          1
    89          4
    91         58
    92          4
    93         11
    94          2
    95          1
    96          1
    97          6
   102          2
   103         20
   104         17
   105          4
   106          1
   108         58
   109        560
   110        127
   111         34
   112          6
   113          0
   115          1
   119          0
   121         13
   123        999
   124         88
   125         31
   126          3
   127          1
   128          0
   131          0
   132          1
   133          0
   134          2
   135        113
   136         50
   137        654
   138         63
   139         32
   140          5
   141          8
   142          1
   143          1
   145          0
   147          2
   148          0
   149          1
   150          1
   151          5
   152          7
   153          4
   154          7
   155          1
   157          0
   161          1
   164        277
   165        956
   166         98
   167         50
   168          5
   169          0
   171          1
   173          0
   175          3
   176          0
   177          0
   178          3
   179          8
   180          3
   181          2
   182         26
   183          3
   184          9
   185          8
   186          2
   187          1
   193          0
   197          2
   198          1
   199          0
   200          9
   201          1
   202          3
   203          0
   206          1
   207          0
   217          0
   218         24
   219          4
   220          2
   231          2
   232          1
   233          0
   234          0
   245          0
   246          1
   254          0
   258          0
   272          0
   273          0
   274        708
   275        131
   276         72
   277         12