##TITLE=Library Entry 21343
##JCAMP-DX=Revision 4.10 
##DATA TYPE=MASS SPECTRUM
##SAMPLE DESCRIPTION=Japan AIST/NIMC Database- Spectrum MS-NW-9737
##NAMES=HP
##CAS NAME=Cycloundecanone
##MOLFORM=C11H20O
##CAS REGISTRY NO=878-13-7
##MP= -300
##BP= -300
##MW= 168
##$RETENTION INDEX=1486
##$CONDENSED SPECTRUM=NO
##NPOINTS= 111
##XYDATA=(XY..XY) 1 
    15          4
    26          7
    27        123
    28         50
    29        177
    30          4
    31          7
    32          2
    34          2
    37          1
    38          3
    39        157
    40         39
    41        647
    42        295
    43        424
    44         13
    45          9
    46          2
    47          2
    48          7
    50          4
    51         11
    52          6
    53         67
    54        152
    55        999
    56        343
    57        159
    58        656
    59        165
    60          6
    62          1
    63          3
    64          1
    65         17
    66         28
    67        270
    68        294
    69        462
    70        306
    71        564
    72         62
    73          6
    75          1
    77         18
    78         18
    79        159
    80         72
    81        303
    82        247
    83        451
    84        375
    85        102
    86         34
    87          3
    91         18
    92          6
    93        131
    94         98
    95        135
    96         67
    97        520
    98        811
    99         78
   100         29
   101          2
   103          1
   104          1
   105          5
   106          3
   107         71
   108        133
   109         50
   110        211
   111        920
   112        354
   113         49
   114          7
   115          1
   117          1
   119          2
   120          2
   121         90
   122         20
   123          6
   124          9
   125        722
   126         86
   127         23
   128          3
   129          1
   133          1
   135         44
   136          5
   137          2
   138          1
   139         58
   140         10
   141          2
   148          1
   149          4
   150         14
   151          2
   153         19
   154          3
   166          2
   167          2
   168        355
   169         94
   170          9