##TITLE=Library Entry 33671
##JCAMP-DX=Revision 4.10 
##DATA TYPE=MASS SPECTRUM
##SAMPLE DESCRIPTION=Chemical Concepts
##NAMES=HP
##CAS NAME=.delta.-9-Octaline, 3,7-dibora-3,7-dimethyl-2,4,6,8-tetraoxa-1,5-
dioxo-
##MOLFORM=C6H6B2O6
##CAS REGISTRY NO=87841-11-0
##MP= -300
##BP= -300
##MW= 196
##$RETENTION INDEX=0
##$CONDENSED SPECTRUM=NO
##NPOINTS= 105
##XYDATA=(XY..XY) 1 
    26         90
    27          8
    28         17
    29         25
    30          0
    33         11
    34         59
    35          9
    36          3
    37          9
    38          5
    39         12
    40         52
    41        102
    42        170
    43         47
    44          4
    45          0
    49          0
    50          1
    51          4
    52         14
    53         26
    54         23
    55         70
    56         61
    57          7
    58          1
    59          0
    62          0
    63          0
    64          0
    65         20
    66         85
    67         24
    68        999
    69        139
    70         54
    71          2
    72          0
    74          0
    78          1
    79          2
    80          1
    81          3
    82         16
    83        112
    84        231
    85          6
    86          1
    93          0
    94          6
    95         24
    96         21
    97          2
    98          3
   100          0
   101          0
   106          1
   107          7
   108         14
   109         13
   110         53
   111        101
   112        194
   113          7
   114          2
   122          2
   123         20
   124         39
   125         22
   126         78
   127          3
   128          1
   134          0
   135          0
   136          4
   137          5
   138          1
   139          0
   140          0
   142          0
   143          0
   144          0
   151          0
   152          1
   153          9
   154         34
   155          2
   156          0
   162          0
   165          0
   166          4
   167         10
   168          1
   169          0
   180          0
   181          0
   193          0
   194         14
   195        113
   196        226
   197         17
   198          3
   199          0