##TITLE=Library Entry 98745
##JCAMP-DX=Revision 4.10 
##DATA TYPE=MASS SPECTRUM
##SAMPLE DESCRIPTION=Chemical Concepts
##NAMES=HP
##CAS NAME=[1,3,2]Dioxaborino[5,4-d]-1,3,2-dioxaborin-4,8-dione, 2,6-bis(4-m
ethylphenyl)-
##MOLFORM=C18H14B2O6
##CAS REGISTRY NO=87841-20-1
##MP= -300
##BP= -300
##MW= 348
##$RETENTION INDEX=0
##$CONDENSED SPECTRUM=NO
##NPOINTS= 137
##XYDATA=(XY..XY) 1 
    24          2
    26          3
    27         24
    28         31
    29         11
    36          1
    37          3
    38         11
    39         83
    40         15
    41         26
    42          4
    43          4
    44         11
    50         19
    51         28
    52         18
    53         36
    54          6
    55          7
    56         23
    57          2
    58          2
    59          1
    60          1
    61          7
    62          8
    63         22
    64         13
    65         98
    66         29
    67         20
    68         11
    69          2
    70          2
    73          3
    74          5
    75         11
    76         23
    77         32
    78         12
    79          4
    81          1
    82          1
    83          1
    85          9
    86          2
    87          7
    88          5
    89         35
    90         82
    91        297
    92         50
    93          2
    96          0
    99          3
   100         11
   101         15
   102         12
   103          8
   104          3
   105          2
   111          3
   114          3
   115         10
   116         95
   117        597
   118        999
   119        122
   120          8
   128          2
   129          4
   130         12
   131          4
   133          3
   142          2
   143          9
   144         19
   145         13
   146          7
   151          0
   157          2
   158          4
   159          3
   160          2
   161          1
   162          1
   163          1
   172          2
   173         19
   174         52
   175          1
   176          1
   177          1
   186          5
   187          1
   191          1
   192         11
   201         17
   202         45
   203          6
   219          2
   220          5
   228          4
   229          5
   230          7
   231         14
   232          2
   234          3
   235         34
   236         69
   237          9
   238          2
   251          2
   259          1
   260          5
   261          1
   276         10
   277          1
   285          5
   286         13
   287          1
   291          4
   292          1
   294          2
   302          0
   303          2
   304          3
   318          1
   319          6
   320          4
   346         65
   347        428
   348        925
   349        172
   350         27
   351          2