##TITLE=Library Entry 22045
##JCAMP-DX=Revision 4.10 
##DATA TYPE=MASS SPECTRUM
##SAMPLE DESCRIPTION=Chemical Concepts
##NAMES=HP
##CAS NAME=[1,3,2]Dioxaborino[5,4-d]-1,3,2-dioxaborin-4,8-dione, 2,6-bis(1,1
-dimethylethyl)-
##MOLFORM=C12H18B2O6
##CAS REGISTRY NO=87841-14-3
##MP= -300
##BP= -300
##MW= 280
##$RETENTION INDEX=0
##$CONDENSED SPECTRUM=NO
##NPOINTS= 156
##XYDATA=(XY..XY) 1 
    26         17
    27        149
    28         21
    29        230
    30          3
    36          3
    37         11
    38         13
    39        199
    40         58
    41        525
    42        178
    43        271
    44          7
    45         13
    50          9
    51         18
    52         34
    53        174
    54         62
    55        232
    56        999
    57        492
    58         22
    64          6
    65         30
    66         28
    67         93
    68        150
    69        239
    70         15
    71          9
    77          3
    78          4
    79         15
    80         16
    81         41
    82         15
    83         24
    84          3
    85        155
    86          7
    87          5
    91          4
    92          3
    93         18
    94          6
    95         23
    96         19
    97         48
    98          4
    99          7
   103          2
   105          2
   107         11
   108         10
   109         38
   110         39
   111        125
   112          8
   113          5
   121          5
   122          6
   123         24
   124         18
   125         49
   126         12
   127         22
   133          2
   134          6
   135         24
   136         36
   137        138
   138         22
   139         51
   140          9
   141         17
   144          3
   145          2
   147          2
   148          2
   149          6
   150         10
   151         37
   152         38
   153        111
   154         31
   155         66
   156          5
   160          2
   161          8
   163          3
   164          6
   165         19
   166         11
   167         26
   168          6
   169          8
   176          4
   177         14
   178         40
   179         84
   180         48
   181        102
   182         12
   183          6
   184          4
   185          3
   187          2
   191          3
   192          4
   193         16
   194         32
   195         64
   196         48
   197        104
   198         10
   202          2
   203          5
   204          4
   205          7
   206          3
   207          9
   208          8
   209         12
   210          4
   211          2
   219          6
   220         38
   221         84
   222         48
   223         74
   224         28
   225         40
   226          3
   235          5
   236         15
   237         31
   238         16
   239          3
   247          7
   248         27
   249         37
   250          8
   251          6
   262          5
   263         68
   264        309
   265        484
   266         65
   267          8
   278         18
   279        129
   280        271
   281         42
   282          5