##TITLE=Library Entry 21251
##JCAMP-DX=Revision 4.10 
##DATA TYPE=MASS SPECTRUM
##SAMPLE DESCRIPTION=Chemical Concepts
##NAMES=HP
##CAS NAME=Butanoic acid, 2-(hydroxymethyl)-, ethyl ester, (R)-
##MOLFORM=C7H14O3
##CAS REGISTRY NO=87884-38-6
##MP= -300
##BP= -300
##MW= 146
##$RETENTION INDEX=0
##$CONDENSED SPECTRUM=NO
##NPOINTS= 68
##XYDATA=(XY..XY) 1 
    26         31
    27        321
    28         36
    29        526
    30         15
    31        326
    38          9
    39        122
    40         22
    41        282
    42         85
    43        469
    44         47
    45        226
    46          8
    47         18
    50          4
    51          8
    53         22
    54         29
    55        999
    56        249
    57        117
    58         26
    59         28
    60         32
    61          7
    63         16
    65         10
    68          8
    69         55
    70        210
    71        112
    72         81
    73        742
    74         36
    75         12
    77          3
    78          2
    82         22
    83         48
    84          5
    85         20
    86         12
    87         67
    88        186
    89        143
    90         10
    91         72
    92         34
    99        100
   100        135
   101        927
   102         56
   103          8
   113          8
   114          5
   115         17
   116        539
   117        191
   118        243
   119         19
   122         15
   128         21
   129          9
   131          5
   145          9
   147         16