##TITLE=Library Entry 92557
##JCAMP-DX=Revision 4.10 
##DATA TYPE=MASS SPECTRUM
##SAMPLE DESCRIPTION=Chemical Concepts
##NAMES=HP
##CAS NAME=Butanoic acid, 2-(hydroxymethyl)-3-methyl-, ethyl ester, (R)-
##MOLFORM=C8H16O3
##CAS REGISTRY NO=87884-39-7
##MP= -300
##BP= -300
##MW= 160
##$RETENTION INDEX=0
##$CONDENSED SPECTRUM=NO
##NPOINTS= 80
##XYDATA=(XY..XY) 1 
    26         28
    27        325
    28         69
    29        461
    30         16
    31        204
    38         12
    39        177
    40         31
    41        561
    42        137
    43        459
    44         95
    45        470
    46         19
    47         20
    50          6
    51         13
    52          5
    53         43
    54         50
    55        351
    56        123
    57        162
    58         61
    59         89
    60         48
    61          9
    63          6
    65         11
    67         21
    68         33
    69        711
    70        149
    71        200
    72        187
    73        166
    74         19
    75         14
    76         18
    77          5
    81          9
    82         38
    83         43
    84         74
    85         50
    86         45
    87        535
    88         45
    89        160
    90         14
    91         52
    92         30
    95          6
    96         15
    97         16
    98          5
    99         82
   100        189
   101         72
   102         12
   103         11
   104          8
   113         30
   114         61
   115        999
   116         72
   117        189
   118        535
   119         32
   122         14
   127          4
   129         35
   130        252
   131         20
   141          3
   142         20
   143          5
   145          3
   161         10