##TITLE=Library Entry 18139
##JCAMP-DX=Revision 4.10 
##DATA TYPE=MASS SPECTRUM
##SAMPLE DESCRIPTION=V.A.Korolev, Moscow, Russia
##NAMES=HP
##CAS NAME=1-Methyl-4-nitro-2-phenylindole
##MOLFORM=C15H12N2O2
##CAS REGISTRY NO=87885-88-9
##MP= -300
##BP= -300
##MW= 252
##$RETENTION INDEX=0
##$CONDENSED SPECTRUM=NO
##NPOINTS= 108
##XYDATA=(XY..XY) 1 
    29          3
    30        169
    37         83
    38        284
    39        829
    40        169
    41        137
    42        182
    43         37
    44         99
    46        118
    50        668
    51        999
    52        279
    53         76
    54         31
    55         46
    56         27
    57         33
    61        145
    62        554
    63        784
    64        167
    65        194
    66        166
    67         46
    68         41
    69        135
    74        391
    75        503
    76        648
    77        994
    78        131
    79         33
    81        194
    82        264
    83        253
    85         43
    86        195
    87        351
    88        447
    89        370
    90        111
    91        163
    92         28
    95         91
    97         46
    98        100
    99         74
   100         44
   101        200
   102        579
   104         67
   105        137
   110         47
   111        107
   112         24
   113         89
   114         69
   115        156
   116         59
   117         29
   118         68
   126        178
   127         80
   128        270
   129         51
   130         16
   137         35
   138         45
   139        197
   140         65
   141         52
   150         71
   151        132
   152        193
   153         46
   162         21
   163        178
   164        184
   165        451
   166         96
   167         35
   168          4
   176        116
   177         98
   178        370
   179        115
   180         29
   181          3
   190        320
   191        167
   192         53
   193         45
   194        332
   195         42
   196          3
   204        498
   205        384
   206        567
   207         98
   208          4
   222        284
   223         29
   224          2
   252        759
   253        129
   254          7