##TITLE=Library Entry 83100
##JCAMP-DX=Revision 4.10 
##DATA TYPE=MASS SPECTRUM
##SAMPLE DESCRIPTION=NIST Mass Spectrometry Data Center
##NAMES=HP
##CAS NAME=4,7-Diethyl-1,2,3,5,6-pentathiepane
##MOLFORM=C6H12S5
##CAS REGISTRY NO=878997-71-8
##MP= -300
##BP= -300
##MW= 244
##$RETENTION INDEX=1897
##$CONDENSED SPECTRUM=NO
##NPOINTS= 83
##XYDATA=(XY..XY) 1 
    18          1
    26          2
    27         14
    29          2
    34          2
    37          1
    38          4
    39         66
    40          7
    41        237
    42         15
    44          5
    45        172
    46         30
    47         30
    48          2
    58         30
    59         48
    60          8
    61         11
    62          1
    63          1
    64        166
    65          8
    66         19
    71         28
    72         84
    73        256
    74        263
    75         33
    76         18
    77         13
    78         29
    79          2
    80          2
    83          8
    87          2
    91          3
    92          5
    96         14
    97          5
   103          8
   104         12
   105         54
   106        999
   107         57
   108         94
   109          8
   110          3
   112         14
   113         22
   114          1
   115         40
   116         42
   117          6
   118          2
   120          1
   123          2
   124          7
   128         43
   130         10
   137          4
   138          9
   168         44
   169          5
   170        534
   171         36
   172         98
   173          5
   174          6
   175          2
   178          1
   179         39
   180        496
   181         53
   182         69
   183          7
   184          2
   211          1
   212          1
   244         44
   245          4
   246         10