##TITLE=Library Entry 65732
##JCAMP-DX=Revision 4.10 
##DATA TYPE=MASS SPECTRUM
##SAMPLE DESCRIPTION=Chemical Concepts
##NAMES=HP
##CAS NAME=4-Cyclohexene-1,2-dicarboxylic acid, 4-methyl-, diethyl ester, tr
ans-
##MOLFORM=C13H20O4
##CAS REGISTRY NO=87902-71-4
##MP= -300
##BP= -300
##MW= 240
##$RETENTION INDEX=0
##$CONDENSED SPECTRUM=NO
##NPOINTS= 120
##XYDATA=(XY..XY) 1 
    27        118
    28          3
    29        305
    30          6
    31          9
    37          0
    38          2
    39         49
    40         10
    41         46
    42          4
    43         33
    44          3
    45         11
    46          1
    47         24
    48          0
    49          0
    50          4
    51         20
    52         10
    53         35
    54          5
    55         27
    56          1
    57          3
    58          0
    59          0
    60          0
    61          0
    62          1
    63          6
    64          2
    65         31
    66          8
    67         29
    68          8
    69          4
    70          0
    71          3
    72          0
    73          2
    74          1
    75          3
    76          1
    77        146
    78         24
    79        111
    80         11
    81         17
    82          1
    83          2
    84          1
    85          0
    86          1
    87          1
    88          0
    89          4
    90          3
    91        113
    92        273
    93        999
    94        110
    95         23
    96          2
    97          3
    98          0
    99          3
   100          0
   103          0
   105          4
   106          0
   107          5
   108          0
   109          4
   110          2
   111          8
   112          1
   113          0
   117          0
   119          8
   120         10
   121         34
   122          6
   123         15
   124          1
   125          0
   127          0
   135          0
   136          1
   137         44
   138         13
   139          7
   140          0
   141          0
   142          1
   143          1
   147          0
   148          0
   149          1
   150          0
   151         16
   152          1
   157          0
   158          0
   163          0
   164          1
   165         10
   166        260
   167         54
   168          4
   169          0
   189          0
   193          0
   194         90
   195        118
   196         13
   197          1
   240          5
   241          0