##TITLE=Library Entry 58276
##JCAMP-DX=Revision 4.10 
##DATA TYPE=MASS SPECTRUM
##SAMPLE DESCRIPTION=Chemical Concepts
##NAMES=HP
##CAS NAME=Butanamide, 2-hydroxy-N,3,3-trimethyl-
##MOLFORM=C7H15NO2
##CAS REGISTRY NO=87919-98-0
##MP= -300
##BP= -300
##MW= 145
##$RETENTION INDEX=0
##$CONDENSED SPECTRUM=NO
##NPOINTS= 59
##XYDATA=(XY..XY) 1 
    26          7
    27        134
    29        184
    30        154
    31         89
    32        693
    33         12
    37          2
    38         10
    39        149
    40         17
    41        420
    42         84
    43        127
    44         26
    45        183
    46         26
    47          3
    50          6
    51         10
    52          4
    53         32
    54          9
    55        126
    56         19
    57        211
    58        298
    59         52
    60        154
    61          7
    67         12
    68          8
    69        271
    70         24
    71         63
    72         14
    73        112
    74         28
    81         11
    82          4
    83         25
    84         15
    85          6
    86          4
    87        260
    88         77
    89        999
    90         44
    91          6
    95          4
    97          3
    98          3
    99          2
   112          9
   113          0
   130          3
   145          1
   146         61
   147          6