##TITLE=Library Entry 47604
##JCAMP-DX=Revision 4.10 
##DATA TYPE=MASS SPECTRUM
##SAMPLE DESCRIPTION=Chemical Concepts
##NAMES=HP
##CAS NAME=2-(4-Bromophenyl)-2-hydroxy-N-methyl-acetamide
##MOLFORM=C9H10BrNO2
##CAS REGISTRY NO=87920-03-4
##MP= -300
##BP= -300
##MW= 243
##$RETENTION INDEX=0
##$CONDENSED SPECTRUM=NO
##NPOINTS= 142
##XYDATA=(XY..XY) 1 
    26          7
    27         38
    29         78
    30        230
    31         75
    35          1
    36          2
    37         11
    38         28
    39         73
    40          6
    41         30
    42         28
    43         33
    44         26
    45         11
    47          3
    48          2
    49          9
    50        149
    51        266
    52         80
    53         23
    54          6
    55         32
    56         10
    57         28
    58        486
    59         33
    60         68
    61         14
    62         38
    63         65
    64          6
    65          5
    66          3
    67         10
    68          6
    69         22
    70          7
    71         13
    72          1
    73         16
    74         58
    75         88
    76         91
    77        999
    78        550
    79        165
    80         11
    81         10
    82          7
    83         15
    84          5
    85          8
    86         11
    87         13
    88         11
    89         88
    90         11
    91          8
    92          2
    93          3
    94          2
    95          7
    96          6
    97         11
    98          4
    99          2
   101          2
   102          2
   103          4
   104          8
   105         79
   106         63
   107        150
   108         12
   109          5
   110          3
   111          5
   112          2
   113          1
   114          1
   115          3
   116          1
   117          3
   118          5
   119          3
   121          2
   123          2
   124          2
   125          2
   127          1
   128          1
   129          2
   130          1
   131          2
   132          1
   133          4
   134          2
   135          2
   136         68
   137          7
   138          1
   139          1
   141          3
   143          1
   146          1
   147          2
   149          6
   152          1
   153          1
   155         40
   156          5
   157        183
   158         15
   159        141
   160          9
   164        198
   165         21
   166          2
   168          4
   169          3
   170          5
   171          2
   172          1
   176          1
   183         39
   184          9
   185        592
   186         81
   187        555
   188         70
   189          4
   215         10
   216          1
   217         10
   218          1
   243         30
   244          9
   245         30
   246          8