##TITLE=Library Entry 73503
##JCAMP-DX=Revision 4.10 
##DATA TYPE=MASS SPECTRUM
##SAMPLE DESCRIPTION=Tox21 Consortium/NIST Mass Spectrometry Data Center, 20
12
##NAMES=HP
##CAS NAME=4-Chloro-N-(3-morpholin-4-ylpropyl)benzamide
##MOLFORM=C14H19ClN2O2
##CAS REGISTRY NO=87940-60-1
##MP= -300
##BP= -300
##MW= 282
##$RETENTION INDEX=0
##$CONDENSED SPECTRUM=NO
##NPOINTS= 157
##XYDATA=(XY..XY) 1 
    14          1
    15          4
    18          3
    26          2
    27         12
    28         50
    29         25
    30         24
    31          3
    36          1
    37          1
    38          2
    39          6
    40          2
    41         39
    42         75
    43         38
    44         25
    45         10
    47          1
    48          1
    49          1
    50         16
    51         11
    52          3
    53          2
    54         18
    55         38
    56        146
    57         37
    58         12
    59          2
    61          2
    62          1
    63          2
    65          1
    66          1
    67          3
    68         40
    69         51
    70         64
    71         18
    72         14
    73          4
    74         12
    75         66
    76         24
    77          9
    78          2
    79          1
    80          2
    81          4
    82         21
    83         10
    84         23
    85         21
    86         77
    87         16
    88          4
    89          2
    90          1
    91          1
    92          1
    94          2
    95          1
    96         32
    97         19
    98         25
   100        999
   101         74
   102          8
   103          5
   104         15
   105          4
   106          1
   109         24
   110          7
   111        159
   112         31
   113         54
   114         83
   115          7
   116          1
   117          1
   118          1
   121          1
   122          1
   124          1
   125          4
   126         17
   127        186
   128         16
   129          2
   130          1
   132          1
   133          2
   137          4
   138          5
   139        280
   140         25
   141        100
   142          6
   143          2
   151          1
   152          2
   153          2
   154          1
   155          3
   156         12
   157          3
   158          3
   159          1
   161          1
   162          1
   166          2
   167          1
   168         47
   169         12
   170         16
   171          4
   172          1
   178          1
   179          1
   180          2
   181          2
   182          4
   183          1
   184          1
   185          1
   194          3
   195          2
   196         38
   197          5
   198         13
   199          1
   207          1
   209          3
   210          1
   211          1
   223          1
   224          3
   225          2
   226          1
   227          1
   237          1
   239         45
   240          7
   241         15
   242          2
   251         26
   252          4
   253          8
   254          2
   255          1
   267          1
   280          1
   282          1