##TITLE=Library Entry 55876
##JCAMP-DX=Revision 4.10 
##DATA TYPE=MASS SPECTRUM
##SAMPLE DESCRIPTION=NIST Mass Spectrometry Data Center, 2013
##NAMES=HP
##CAS NAME=Pentedrone
##MOLFORM=C12H17NO
##CAS REGISTRY NO=879722-57-3
##MP= -300
##BP= -300
##MW= 191
##$RETENTION INDEX=1508
##$CONDENSED SPECTRUM=NO
##NPOINTS= 85
##XYDATA=(XY..XY) 1 
    15          5
    18          2
    26          2
    27         23
    28         35
    29         21
    30         25
    31          1
    32          8
    38          2
    39         16
    40          3
    41         25
    42         73
    43         24
    44        303
    45          8
    49          1
    50         18
    51         69
    52          6
    53          5
    54          6
    55         33
    56         45
    57         54
    58         39
    59          1
    62          1
    63          3
    64          1
    65          3
    66          1
    67          1
    68          5
    69          1
    70         22
    71          6
    72          1
    73          1
    74          5
    75          4
    76          8
    77        146
    78         15
    79          3
    80          1
    82          1
    83          1
    84         12
    85          4
    86        999
    87         59
    88          2
    89          3
    90          1
    91          9
    92          1
   102          1
   103          4
   104          2
   105         58
   106          6
   107          1
   115          3
   116          1
   117          2
   118          2
   119          1
   120          6
   127          1
   128          1
   129          1
   130          2
   131          2
   132          1
   133          6
   134          2
   144          1
   145          1
   146          2
   147          1
   148         19
   149          3
   162          1