##TITLE=Library Entry 49151
##JCAMP-DX=Revision 4.10 
##DATA TYPE=MASS SPECTRUM
##SAMPLE DESCRIPTION=Chemical Concepts
##NAMES=HP
##CAS NAME=Mixture of: exo-4-brombicyclo[3.2.0]hept-2-en-7-on + ...-6-on (67
:33)
##MOLFORM=C7H7BrO
##CAS REGISTRY NO=87973-93-1
##MP= -300
##BP= -300
##MW= 186
##$RETENTION INDEX=0
##$CONDENSED SPECTRUM=NO
##NPOINTS= 98
##XYDATA=(XY..XY) 1 
    26        100
    27        152
    28         10
    29         15
    31          1
    36          4
    37         54
    38         94
    39        294
    40         23
    41         10
    42         64
    43          8
    45          4
    48          2
    49         25
    50        153
    51        159
    52        103
    53         52
    54          5
    55          3
    57          2
    60          4
    61         25
    62         41
    63         98
    64         27
    65        391
    66         43
    67          6
    68          2
    69          1
    71          1
    72          1
    73          8
    74         26
    75         10
    76         11
    77        604
    78        247
    79        999
    80         69
    81         25
    82          9
    83          1
    85          2
    86          1
    87          1
    89          3
    90          1
    91         14
    92          1
    93          2
    95          3
    96          3
   100          5
   102          1
   103          3
   105         32
   106          5
   107        615
   108         41
   109          3
   111          1
   113          1
   115          3
   116          3
   117          3
   119          3
   122          3
   123          1
   124         16
   125          2
   127          1
   128          4
   129          3
   130          1
   131         11
   132          2
   133          3
   135          1
   141          1
   143          3
   144        103
   145          9
   146        136
   147          9
   148          1
   157          2
   158          5
   159          2
   160          6
   185          1
   186          4
   187          1
   188          5
   189          1