##TITLE=Library Entry 96368
##JCAMP-DX=Revision 4.10 
##DATA TYPE=MASS SPECTRUM
##SAMPLE DESCRIPTION=O. TIMOFEEV,PHYS. CHEM. INST.,ACAD. SCI.,ODESSA,USSR
##NAMES=HP
##CAS NAME=10,19-Dimethyl-1,4,7,13,16-pentaoxa-10,19-diazacycloheneicosane-1
1,14,18-trione
##MOLFORM=C16H28N2O8
##CAS REGISTRY NO=87989-11-5
##MP= -300
##BP= -300
##MW= 376
##$RETENTION INDEX=0
##$CONDENSED SPECTRUM=NO
##NPOINTS= 111
##XYDATA=(XY..XY) 1 
    55         81
    56         75
    57        938
    58        813
    59        144
    60         27
    68         28
    69        100
    70        311
    71        263
    72        356
    73        181
    74         94
    81         38
    82         34
    83         63
    84         56
    85        481
    86        563
    87        244
    88        119
    89        113
    90         44
    97        175
    98        231
    99        813
   100        488
   101        219
   102        431
   103         94
   111         53
   112         69
   113         75
   114        788
   115        813
   116        999
   117        181
   118         46
   126         50
   127         43
   128        269
   129        194
   130        263
   131        144
   132        150
   133         45
   134         34
   141         51
   142         88
   143         94
   144        281
   145        106
   146         63
   156        250
   157        300
   158        381
   159        106
   160        200
   161         69
   162         49
   172        363
   173        163
   174        594
   175        150
   176        100
   177         18
   178         35
   186        156
   187         75
   188        306
   189         34
   190         75
   203         94
   204         75
   205         88
   214        150
   215         25
   216         63
   217         28
   218         75
   219         69
   220         63
   231         33
   232         78
   233         88
   234         69
   244         69
   245        169
   246         36
   247         23
   248         35
   258         31
   259         23
   260         26
   261         69
   262         47
   270         31
   271         69
   272         15
   276         29
   278         63
   287         69
   288         16
   289         88
   290         18
   291         28
   292         53
   317         19
   319         19
   320         50
   334         16