##TITLE=Library Entry 10130
##JCAMP-DX=Revision 4.10 
##DATA TYPE=MASS SPECTRUM
##SAMPLE DESCRIPTION=Japan AIST/NIMC Database- Spectrum MS-NW-1290
##NAMES=HP
##CAS NAME=Acetic acid, diethyl-
##MOLFORM=C6H12O2
##CAS REGISTRY NO=88-09-5
##MP= -300
##BP= -300
##MW= 116
##$RETENTION INDEX=0
##$CONDENSED SPECTRUM=NO
##NPOINTS= 63
##XYDATA=(XY..XY) 1 
    14          3
    15         18
    16          1
    17          2
    18          7
    26         21
    27        252
    28         65
    29        257
    30          6
    31         17
    32         12
    36          1
    37          5
    38         14
    39        153
    40         22
    41        299
    42         58
    43        999
    44         30
    45         84
    46          3
    47          3
    50          6
    51          8
    52          3
    53         21
    54          6
    55        173
    56         13
    57         20
    58          1
    59         16
    60         26
    61          3
    62          2
    63          2
    65          2
    66          1
    67          4
    68          9
    69         74
    70         37
    71        277
    72         14
    73        661
    74         36
    75          4
    81          1
    83          9
    85          2
    86          5
    87        323
    88        900
    89         44
    90          4
    97          1
    98          5
    99          8
   101         52
   102          2
   117          3