##TITLE=Library Entry 58814
##JCAMP-DX=Revision 4.10 
##DATA TYPE=MASS SPECTRUM
##SAMPLE DESCRIPTION=Japan AIST/NIMC Database- Spectrum MS-NW-9139
##NAMES=HP
##CAS NAME=Benzenesulfonamide, 2-methyl-
##MOLFORM=C7H9NO2S
##CAS REGISTRY NO=88-19-7
##MP= -300
##BP= -300
##MW= 171
##$RETENTION INDEX=0
##$CONDENSED SPECTRUM=NO
##NPOINTS= 91
##XYDATA=(XY..XY) 1 
    16          2
    17         15
    18         93
    26          2
    27         11
    28         27
    29          2
    30         31
    32          4
    34          1
    36          1
    37          2
    38         10
    39        120
    40         10
    41         33
    42          2
    43          3
    44          6
    45          7
    46          2
    47          1
    48          3
    49          1
    50         20
    51         58
    52         15
    53         10
    54          2
    55          1
    58          1
    61          5
    62         19
    63         90
    64         47
    65        344
    66         22
    67          3
    69          5
    70          1
    71          1
    74          6
    75          7
    76          5
    77         78
    78         41
    79         39
    80         10
    81          2
    82          1
    84          1
    85          2
    86          4
    87          4
    88          3
    89        243
    90        999
    91        726
    92         55
    93          3
    94          1
    95          1
    96          1
    97          1
   104          5
   105          5
   106        717
   107        213
   108         34
   109         20
   110          4
   111          6
   121          7
   122          3
   123          1
   125          1
   126          3
   134          4
   136         24
   137        193
   138         18
   139         10
   153          1
   154         98
   155         21
   156          6
   157          1
   171        358
   172         32
   173         17
   174          1