##TITLE=Library Entry 88513
##JCAMP-DX=Revision 4.10 
##DATA TYPE=MASS SPECTRUM
##SAMPLE DESCRIPTION=Japan AIST/NIMC Database- Spectrum MS-NW-3740
##NAMES=HP
##CAS NAME=Ethanone, 1-(2-thienyl)-
##MOLFORM=C6H6OS
##CAS REGISTRY NO=88-15-3
##MP= -300
##BP= -300
##MW= 126
##$RETENTION INDEX=1091
##$CONDENSED SPECTRUM=NO
##NPOINTS= 75
##XYDATA=(XY..XY) 1 
    12          1
    13          1
    14          7
    15         40
    17          1
    18          8
    25          2
    26          6
    27          9
    28          9
    29          2
    32          3
    33          1
    36          2
    37         16
    38         28
    39        255
    40          9
    41          3
    42         12
    43        143
    44          6
    45         70
    46          2
    47          4
    48          2
    49          9
    50         16
    51         12
    52          3
    53         12
    54          1
    55          5
    56          2
    57         50
    58         37
    59          4
    60          3
    61          4
    62          5
    63          6
    64          1
    65          2
    66          1
    68          3
    69         19
    70          3
    71          3
    72          1
    73          1
    74          2
    76          1
    77          2
    80          2
    81         19
    82         23
    83        111
    84         26
    85          7
    86          1
    93          2
    95          2
    97         10
    98          1
   109          2
   110          1
   111        999
   112         65
   113         48
   114          3
   125          1
   126        424
   127         31
   128         20
   129          1