##TITLE=Library Entry 688
##JCAMP-DX=Revision 4.10 
##DATA TYPE=MASS SPECTRUM
##SAMPLE DESCRIPTION=Japan AIST/NIMC Database- Spectrum MS-NW-3733
##NAMES=HP
##CAS NAME=Carbamic chloride, diethyl-
##MOLFORM=C5H10ClNO
##CAS REGISTRY NO=88-10-8
##MP= -300
##BP= -300
##MW= 135
##$RETENTION INDEX=0
##$CONDENSED SPECTRUM=NO
##NPOINTS= 99
##XYDATA=(XY..XY) 1 
    12          1
    13          3
    14         10
    15        115
    16          2
    25          4
    26         71
    27        391
    28        215
    29        999
    30         53
    31          1
    32          1
    35          7
    36         27
    37          3
    38          9
    39         13
    40         35
    41         66
    42        223
    43         20
    44        423
    45          9
    46          1
    47          1
    48          1
    49         28
    50          3
    51         10
    52          6
    53          2
    54         17
    55         13
    56        538
    57         24
    58         50
    59          2
    61          1
    62          8
    63        150
    64        109
    65         52
    66         34
    67          1
    68          3
    69          4
    70         84
    71         28
    72        770
    73         34
    74          4
    75          2
    76          5
    77          2
    78         24
    79          1
    80          9
    82          1
    83          1
    84         11
    85          1
    86          1
    88          1
    90          2
    91          1
    92        429
    93         12
    94        139
    95          5
    96          1
    97          1
    98          1
    99          1
   100        843
   101         52
   102          4
   104          2
   105          1
   106         34
   107          5
   108         13
   109          3
   110          1
   111          3
   113          2
   115          1
   116          1
   119          1
   120        704
   121         37
   122        226
   123         11
   124          1
   134          6
   135        450
   136         30
   137        145
   138          9