##TITLE=Library Entry 89539
##JCAMP-DX=Revision 4.10 
##DATA TYPE=MASS SPECTRUM
##SAMPLE DESCRIPTION=NIST Mass Spectrometry Data Center
##NAMES=HP
##CAS NAME=2-Furancarboxylic acid
##MOLFORM=C5H4O3
##CAS REGISTRY NO=88-14-2
##MP= -300
##BP= -300
##MW= 112
##$RETENTION INDEX=1088
##$CONDENSED SPECTRUM=NO
##NPOINTS= 50
##XYDATA=(XY..XY) 1 
    14          2
    17          1
    24          2
    25          8
    26         16
    27         18
    28         28
    29         63
    30          2
    33          6
    36         17
    37        112
    38        189
    39        524
    40         50
    41         26
    42         43
    43          2
    44         11
    45        105
    46          2
    47          6
    49          9
    50          7
    51         13
    52          4
    53         33
    54          5
    55        101
    56         26
    57          1
    58          1
    64          1
    65          5
    66         26
    67         58
    68         10
    69          3
    77          1
    83          6
    84         64
    85          3
    86          1
    93          1
    95        856
    96         48
    97          5
   112        999
   113         57
   114          8