##TITLE=Library Entry 22731
##JCAMP-DX=Revision 4.10 
##DATA TYPE=MASS SPECTRUM
##SAMPLE DESCRIPTION=Japan AIST/NIMC Database- Spectrum MS-NW-1029
##NAMES=HP
##CAS NAME=2-Pyrrolidinone, 1-ethenyl-
##MOLFORM=C6H9NO
##CAS REGISTRY NO=88-12-0
##MP= -300
##BP= -300
##MW= 111
##$RETENTION INDEX=1102
##$CONDENSED SPECTRUM=NO
##NPOINTS= 43
##XYDATA=(XY..XY) 1 
    14          6
    15         14
    17          3
    18         11
    25          2
    26         27
    27        108
    28        240
    29         20
    30         21
    37          4
    38          9
    39         62
    40         25
    41        112
    42         57
    43          7
    44          5
    50          1
    51          3
    52         10
    53          6
    54        101
    55         70
    56        999
    57         36
    58          1
    64          1
    65          2
    66          2
    67          9
    68         72
    69         12
    70          2
    80          7
    81          2
    82         75
    83         61
    84          5
   110         19
   111        495
   112         35
   113          2