##TITLE=Library Entry 91151
##JCAMP-DX=Revision 4.10 
##DATA TYPE=MASS SPECTRUM
##SAMPLE DESCRIPTION=NIST Mass Spectrometry Data Center, 1994
##NAMES=HP
##CAS NAME=Benzenamine, 2-(trifluoromethyl)-
##MOLFORM=C7H6F3N
##CAS REGISTRY NO=88-17-5
##MP= -300
##BP= -300
##MW= 161
##$RETENTION INDEX=956
##$CONDENSED SPECTRUM=NO
##NPOINTS= 101
##XYDATA=(XY..XY) 1 
    15          8
    16          5
    17          1
    18          4
    20          5
    25          4
    26         25
    27         28
    28         25
    29          4
    30          1
    31         42
    32          2
    33          2
    37         56
    38         94
    39        143
    40         30
    41         50
    42         11
    43          1
    44          6
    45          9
    46         22
    48          3
    49         12
    50         81
    51         68
    52         96
    53         13
    54         13
    56         13
    57         42
    58          4
    59          2
    60          1
    61         36
    62         54
    63        125
    64         76
    65         95
    66         29
    67          2
    68         12
    69         84
    70          2
    71         54
    72          5
    73          7
    74         25
    75         84
    76         33
    77         19
    78         11
    79          3
    81         26
    82          4
    83         33
    84         10
    85          2
    87         21
    88        105
    89         21
    90         24
    91         50
    92         14
    93          9
    94         15
    95         28
    96          8
    97         10
    99         15
   100         12
   101         12
   102         52
   103          5
   106          4
   107          5
   108          2
   109          4
   110          6
   111         16
   112         13
   113          2
   114        999
   115         74
   116          3
   120         36
   121         12
   122         41
   123          4
   125          4
   126          1
   132          9
   133         13
   141        642
   142        195
   143         14
   145          3
   161        559
   162         46