##TITLE=Library Entry 66185
##JCAMP-DX=Revision 4.10 
##DATA TYPE=MASS SPECTRUM
##SAMPLE DESCRIPTION=Japan AIST/NIMC Database- Spectrum MS-NW-7853
##NAMES=HP
##CAS NAME=Aniline-o-sulfonic acid
##MOLFORM=C6H7NO3S
##CAS REGISTRY NO=88-21-1
##MP= -300
##BP= -300
##MW= 173
##$RETENTION INDEX=0
##$CONDENSED SPECTRUM=NO
##NPOINTS= 132
##XYDATA=(XY..XY) 1 
    14          3
    15          9
    16          5
    17          5
    18         19
    26          9
    27         34
    28         68
    29         12
    30          7
    31          8
    32         12
    33          3
    34         12
    35          9
    36         71
    37         19
    38         72
    39        227
    40         60
    41         99
    42         28
    43         13
    44         23
    45         14
    46         47
    47          9
    48        105
    49          3
    50         42
    51         57
    52        112
    53         48
    54         47
    55         10
    56          6
    57         15
    58          2
    59          2
    60         31
    61         15
    62         39
    63        117
    64        247
    65        436
    66        359
    67         48
    68          7
    69          8
    70          6
    71          5
    72          3
    73         18
    74         15
    75         11
    76         19
    77         18
    78         31
    79         21
    80         71
    81         11
    82          4
    83          2
    84          2
    85          3
    86          2
    87          3
    88          5
    89          8
    90         16
    91        506
    92        229
    93        999
    94         81
    95          5
    96          6
    97          5
    98          4
    99          5
   100          3
   101          2
   102          2
   103          2
   104          2
   105          3
   106         18
   107          8
   108         76
   109         30
   110          5
   111          2
   112          2
   113          2
   115          2
   117          2
   118          2
   119          2
   120          2
   121          1
   122          5
   123          3
   124          3
   125          7
   126          4
   127          5
   128          1
   129          2
   130          1
   131          1
   133          1
   134          1
   135          2
   138         45
   139          6
   140          7
   141          3
   142          2
   144          2
   145          2
   151          1
   152          1
   153          1
   154          2
   155        220
   156         24
   157         13
   158          4
   172          2
   173        376
   174         33
   175         23
   176          1