##TITLE=Library Entry 100369
##JCAMP-DX=Revision 4.10 
##DATA TYPE=MASS SPECTRUM
##SAMPLE DESCRIPTION=Japan AIST/NIMC Database- Spectrum MS-NW-4796
##NAMES=HP
##CAS NAME=Benzamide, 2-amino-
##MOLFORM=C7H8N2O
##CAS REGISTRY NO=88-68-6
##MP= -300
##BP= -300
##MW= 136
##$RETENTION INDEX=0
##$CONDENSED SPECTRUM=NO
##NPOINTS= 69
##XYDATA=(XY..XY) 1 
    14          1
    15          1
    16          2
    17          2
    18          2
    26          2
    27          7
    28         31
    29          1
    30          1
    32          2
    37         14
    38         33
    39         93
    40         13
    41         27
    42          9
    43          3
    44         33
    45         10
    46         11
    49          2
    50         17
    51         18
    52         49
    53         14
    54         21
    59          3
    60          7
    61          9
    62         17
    63         56
    64         91
    65        237
    66         45
    67          4
    68         10
    73          1
    74          6
    75          6
    76         15
    77          5
    78          4
    79          1
    80         20
    81          1
    87          1
    88          2
    89          5
    90         26
    91        151
    92        517
    93         37
    94          2
   102          2
   104          1
   105          1
   107         16
   117          5
   118         57
   119        999
   120        153
   121         10
   122          2
   123          4
   135          3
   136        743
   137         61
   138          3