##TITLE=Library Entry 45588
##JCAMP-DX=Revision 4.10 
##DATA TYPE=MASS SPECTRUM
##SAMPLE DESCRIPTION=Japan AIST/NIMC Database- Spectrum MS-NW-1988
##NAMES=HP
##CAS NAME=Benzene, 1-chloro-2-nitro-
##MOLFORM=C6H4ClNO2
##CAS REGISTRY NO=88-73-3
##MP= -300
##BP= -300
##MW= 157
##$RETENTION INDEX=1241
##$CONDENSED SPECTRUM=NO
##NPOINTS= 80
##XYDATA=(XY..XY) 1 
    12          2
    16          3
    24          1
    25          4
    26         11
    27         16
    28         19
    29          1
    30        325
    31          1
    35          9
    36         10
    37         56
    38         53
    39         54
    40          3
    44          3
    46         13
    47          6
    48          5
    49         39
    50        328
    51        152
    52         10
    53          4
    55          1
    60          7
    61         40
    62         23
    63         61
    64         21
    65          2
    66          1
    71          2
    72         13
    73        107
    74        170
    75        999
    76        148
    77          9
    78          1
    84         39
    85        112
    86         18
    87         39
    88          4
    89          2
    90          7
    91          3
    92          4
    94          1
    96          1
    97          2
    98          2
    99        566
   100         31
   101        183
   102         10
   108          3
   109          5
   110         14
   111        926
   112         65
   113        301
   114         19
   115          1
   125          1
   126          1
   127        320
   128         20
   129        104
   130          6
   141         25
   142          1
   143          8
   157        884
   158         62
   159        288
   160         19
   161          2