##TITLE=Library Entry 44683
##JCAMP-DX=Revision 4.10 
##DATA TYPE=MASS SPECTRUM
##SAMPLE DESCRIPTION=FDA, Los Angeles District Laboratory
##NAMES=HP
##CAS NAME=Benzoic acid, 2,3,5-triiodo-
##MOLFORM=C7H3I3O2
##CAS REGISTRY NO=88-82-4
##MP= -300
##BP= -300
##MW= 500
##$RETENTION INDEX=0
##$CONDENSED SPECTRUM=NO
##NPOINTS= 33
##XYDATA=(XY..XY) 1 
    45        120
    49         75
    50         55
    53         30
    61         70
    62        140
    63        305
    64         25
    72         45
    73        415
    74        999
    75        260
    90         75
    91        290
    92         25
   119         45
   126         20
   127        340
   128         45
   176         30
   189         45
   190         35
   200         35
   201        140
   217         35
   218        275
   245         60
   246         55
   250         30
   254         60
   483         75
   500        265
   501         30