##TITLE=Library Entry 1173
##JCAMP-DX=Revision 4.10 
##DATA TYPE=MASS SPECTRUM
##SAMPLE DESCRIPTION=Japan AIST/NIMC Database- Spectrum MS-NW-4614
##NAMES=HP
##CAS NAME=Benzene, 2-chloro-1,3,5-trinitro-
##MOLFORM=C6H2ClN3O6
##CAS REGISTRY NO=88-88-0
##MP= -300
##BP= -300
##MW= 247
##$RETENTION INDEX=0
##$CONDENSED SPECTRUM=NO
##NPOINTS= 131
##XYDATA=(XY..XY) 1 
    12          1
    14          2
    15          1
    16          5
    25          1
    26          2
    27          6
    28         24
    29          8
    30        999
    31          4
    35          2
    36          9
    37         43
    38         25
    39          4
    40          1
    42          1
    43          5
    44         41
    45          1
    46        123
    47          7
    48          4
    49         10
    50         20
    51          8
    52          9
    53         17
    54          1
    55          1
    60         10
    61         65
    62         98
    63         12
    64          9
    65          4
    66          6
    67          3
    68          1
    69          5
    71          5
    72         26
    73        102
    74        629
    75         58
    76         13
    77          7
    78          8
    79          8
    80          9
    81          1
    83          2
    84          9
    85         20
    86         11
    87         22
    88         21
    89          4
    90         11
    91          4
    92         19
    93          2
    94          1
    95          2
    96         32
    97        121
    98         19
    99         40
   100          5
   101          1
   102          1
   103          1
   104          4
   105          3
   106          1
   107          3
   108         87
   109        599
   110         70
   111        200
   112         15
   113         17
   114          3
   115          6
   116          1
   120         29
   121          3
   122          1
   123          2
   124          4
   125         40
   126          7
   127         18
   128          2
   129          2
   136          7
   137          1
   138          3
   139          2
   140          1
   141          8
   142          1
   143          3
   152          3
   153          3
   154         47
   155         26
   156         17
   157          7
   166         12
   167          2
   169          1
   171          2
   173          1
   185          3
   187          1
   201          9
   202          1
   203          3
   213          6
   217          7
   219          2
   231         13
   232          1
   233          5
   247        277
   248         22
   249         93
   250          8
   251          1