##TITLE=Library Entry 76872
##JCAMP-DX=Revision 4.10 
##DATA TYPE=MASS SPECTRUM
##SAMPLE DESCRIPTION=Exported from NIST MS Search
##NAMES=HP
##CAS NAME=1,2-Benzenedicarboxylic acid
##MOLFORM=C8H6O4
##CAS REGISTRY NO=88-99-3
##MP= -300
##BP= -300
##MW= 166
##$RETENTION INDEX=1643
##$CONDENSED SPECTRUM=NO
##NPOINTS= 47
##XYDATA=(XY..XY) 1 
    14          3
    16          7
    17        139
    18        625
    25          3
    26          8
    27          3
    28          3
    29          4
    31          6
    35          3
    36         35
    37        109
    38        194
    39         14
    43          9
    44          6
    45          4
    48          6
    49         51
    50        438
    51         32
    52        101
    53         14
    60          7
    61         21
    62         11
    63         10
    64          4
    66          6
    72          5
    73         47
    74        168
    75        102
    76        859
    77         78
    78          4
   103          4
   104        999
   105         89
   106          6
   148        372
   149         36
   150          3
   163          3
   165          2
   166          2