##TITLE=Library Entry 70833
##JCAMP-DX=Revision 4.10 
##DATA TYPE=MASS SPECTRUM
##SAMPLE DESCRIPTION=NIST Mass Spectrometry Data Center, 1994
##NAMES=HP
##CAS NAME=Piperidine, 1,1'-methylenebis-
##MOLFORM=C11H22N2
##CAS REGISTRY NO=880-09-1
##MP= -300
##BP= -300
##MW= 182
##$RETENTION INDEX=0
##$CONDENSED SPECTRUM=NO
##NPOINTS= 54
##XYDATA=(XY..XY) 1 
    13          0
    14          0
    15         14
    26          5
    27         36
    28         54
    29         31
    30         31
    31          0
    32          0
    37          0
    39         33
    41        137
    42        153
    43         20
    44         39
    45          1
    49          0
    50          1
    51          2
    52          1
    53          7
    54         16
    55         77
    56         33
    57         11
    58          1
    63          0
    65          1
    66          0
    67          6
    68         10
    69         33
    70         46
    71          2
    76          0
    79          0
    80          2
    81          2
    82          4
    83          6
    84         22
    85          4
    86          2
    90          2
    93          0
    94          0
    96         19
    98        999
    99         63
   100          2
   110          0
   181          2
   182          1