##TITLE=Library Entry 70290
##JCAMP-DX=Revision 4.10 
##DATA TYPE=MASS SPECTRUM
##SAMPLE DESCRIPTION=Exported from NIST MS Search
##NAMES=HP
##CAS NAME=Thiophene, 2-octyl-
##MOLFORM=C12H20S
##CAS REGISTRY NO=880-36-4
##MP= -300
##BP= -300
##MW= 196
##$RETENTION INDEX=1463
##$CONDENSED SPECTRUM=NO
##NPOINTS= 130
##XYDATA=(XY..XY) 1 
    37          2
    38          8
    39         92
    40         10
    41        118
    42         14
    43         60
    44          3
    45         91
    46          3
    47          8
    49          1
    50          6
    51         16
    52          7
    53         48
    54          4
    55         25
    56          5
    57         29
    58         16
    59          6
    60          1
    61          1
    62          2
    63          9
    64          2
    65         14
    66          7
    67         13
    68          2
    69         16
    70          7
    71         16
    72          1
    73          2
    74          1
    75          1
    76          1
    77         16
    78          7
    79          8
    80          2
    81          6
    82          4
    83          4
    84         40
    85         34
    86          7
    87          7
    88          1
    89          1
    90          1
    91          7
    92          2
    93          3
    94          2
    95          6
    96          5
    97        999
    98        331
    99         72
   100         18
   101          2
   102          1
   103          1
   104          1
   105          2
   106          1
   107          2
   108          2
   109          8
   110         30
   111         88
   112         15
   113          9
   114          2
   115          2
   116          1
   117          1
   118          1
   119          4
   120          2
   121          3
   122          1
   123         12
   124          3
   125          6
   126          4
   127          2
   128          2
   129          1
   133          3
   134          2
   135          2
   136          2
   137          3
   138          1
   139         23
   140          5
   141          4
   142          1
   143          1
   147          1
   149          2
   150          1
   151          1
   152          1
   153         17
   154          5
   155          2
   156          1
   162          2
   163          5
   164          1
   165          1
   166          1
   167          9
   168          7
   169          1
   170          1
   181          2
   182          1
   193          1
   194          1
   195          3
   196        203
   197         29
   198         11
   199          1