##TITLE=Library Entry 1309
##JCAMP-DX=Revision 4.10 
##DATA TYPE=MASS SPECTRUM
##SAMPLE DESCRIPTION=Japan AIST/NIMC Database- Spectrum MS-NW-7517
##NAMES=HP
##CAS NAME=Benzene, pentafluoronitro-
##MOLFORM=C6F5NO2
##CAS REGISTRY NO=880-78-4
##MP= -300
##BP= -300
##MW= 213
##$RETENTION INDEX=0
##$CONDENSED SPECTRUM=NO
##NPOINTS= 89
##XYDATA=(XY..XY) 1 
    12          1
    16          2
    20          1
    27          3
    28         28
    29          6
    30        999
    31        198
    32          3
    36          6
    38          2
    39          2
    41          7
    43          2
    44          5
    45          1
    46        174
    47          3
    48          3
    50          3
    55         24
    56          7
    57          2
    60          6
    62          9
    67          5
    69        113
    70          2
    71          2
    72          1
    74         46
    75          2
    76          3
    79         86
    80          5
    81         11
    82          2
    85          5
    86         39
    87          2
    88          1
    91          2
    93        201
    94          7
    98        139
    99          9
   100         16
   101          1
   105         53
   106          3
   107          1
   109          9
   110         13
   111          1
   112          6
   116          1
   117        730
   118         41
   119          7
   124         10
   129          6
   131         28
   132          2
   133          3
   136         13
   137          1
   145          1
   148         78
   149          6
   155        214
   156         13
   157          1
   162          3
   164          1
   166          3
   167        345
   168         23
   181          4
   182          1
   183        270
   184         20
   185         12
   186          1
   194          2
   197         24
   198          2
   213        539
   214         42
   215          4