##TITLE=Library Entry 85789
##JCAMP-DX=Revision 4.10 
##DATA TYPE=MASS SPECTRUM
##SAMPLE DESCRIPTION=C.CATALAN,INST. QUIM. ORG.,UNIV. NAC. TUCUMAN,AYACUCHO,
ARGENT.
##NAMES=HP
##CAS NAME=(1S,5R,10S)-1,5,8,8-Tetramethylbicyclo[8.1.0]undecane-2,6-dione
##MOLFORM=C15H24O2
##CAS REGISTRY NO=88010-66-6
##MP= -300
##BP= -300
##MW= 236
##$RETENTION INDEX=0
##$CONDENSED SPECTRUM=NO
##NPOINTS= 32
##XYDATA=(XY..XY) 1 
    41        505
    43        299
    53        100
    55        422
    56        138
    67        218
    69        640
    81        202
    83        315
    95        370
    96        281
    97        189
   109        999
   110        395
   123        345
   124        128
   125        180
   135        180
   137        197
   138        123
   139        127
   149        210
   150        327
   151        242
   165         88
   180        117
   194        165
   203         31
   208         16
   218         31
   221        146
   236        367