##TITLE=Library Entry 65833
##JCAMP-DX=Revision 4.10 
##DATA TYPE=MASS SPECTRUM
##SAMPLE DESCRIPTION=Mark Whitten, Florida Museum of Natural History, U. of
 Florida
##NAMES=HP
##CAS NAME=Bergamotol, Z-.alpha.-trans-
##MOLFORM=C15H24O
##CAS REGISTRY NO=88034-74-6
##MP= -300
##BP= -300
##MW= 220
##$RETENTION INDEX=1700
##$CONDENSED SPECTRUM=NO
##NPOINTS= 107
##XYDATA=(XY..XY) 1 
    41        625
    43        662
    44         22
    45         27
    50         14
    51         70
    52         37
    53        211
    54         35
    55        411
    56         47
    57         82
    58         25
    59          5
    62          3
    63         18
    64          9
    65        127
    66         33
    67        169
    68        193
    69        106
    70         16
    71         80
    72          8
    73          3
    74          2
    75          3
    77        391
    78         83
    79        400
    80         90
    81        167
    82         23
    83         42
    84         72
    85         14
    86          3
    89          7
    91        523
    92        249
    93        999
    94        167
    95        138
    96         18
    97         29
    98          5
   102          5
   103         33
   104         17
   105        261
   106         74
   107        337
   108         58
   109         32
   110         16
   111          5
   115         27
   116          9
   117         41
   119        639
   120        124
   121        113
   122         30
   123         15
   124          7
   125         16
   126          4
   127          3
   128          8
   129          8
   130          6
   131        121
   132        300
   133         76
   134         72
   135         32
   136          7
   137          8
   138          3
   139         12
   141          2
   143          3
   145        100
   146         38
   147         30
   148          8
   149          5
   150          3
   151          2
   152          3
   158          2
   159         33
   160         13
   161         22
   162         10
   163          5
   173         11
   174          5
   187         46
   188          7
   189         12
   190          2
   202         21
   203          3
   205          3
   220          3