##TITLE=Library Entry 63262
##JCAMP-DX=Revision 4.10 
##DATA TYPE=MASS SPECTRUM
##SAMPLE DESCRIPTION=NIST Mass Spectrometry Data Center, 1994
##NAMES=HP
##CAS NAME=6-Methoxy-m-toluenesulfonyl chloride
##MOLFORM=C8H9ClO3S
##CAS REGISTRY NO=88040-86-2
##MP= -300
##BP= -300
##MW= 220
##$RETENTION INDEX=0
##$CONDENSED SPECTRUM=NO
##NPOINTS= 110
##XYDATA=(XY..XY) 1 
    15        151
    16          4
    18          4
    26         21
    27         61
    28         37
    29         31
    30         10
    31          6
    32          6
    35         15
    36         15
    37         14
    38         44
    39        189
    40         27
    41         32
    43          9
    45         28
    47          5
    48         43
    50        140
    51        276
    52        179
    53         98
    54          9
    55         13
    57          4
    58          8
    59          4
    60          5
    61         16
    62         53
    63        141
    64         65
    65        307
    66         62
    67         17
    69         22
    70          5
    71          6
    73          7
    74         28
    75         24
    76         39
    77        305
    78        245
    79         48
    80          4
    81         10
    82         11
    83          9
    84          6
    85          8
    86          9
    87         10
    88          4
    89        119
    90          4
    91        999
    92         99
    93        278
    94         35
    95         10
    97         16
    98          3
    99          9
   103         11
   105        130
   106        225
   107         34
   108          8
   109         25
   110          8
   111         16
   112          4
   113         18
   115          6
   119         10
   121         77
   122         19
   123          8
   124          2
   125          9
   126          9
   127         18
   135          2
   137        119
   138         10
   139         20
   141         22
   142          3
   143          7
   151         10
   152          3
   154         32
   155         66
   156         16
   157          5
   158          3
   169          5
   170          4
   185        424
   186         38
   187         23
   220        228
   221         25
   222         83
   223          8
   224          4