##TITLE=Library Entry 8138
##JCAMP-DX=Revision 4.10 
##DATA TYPE=MASS SPECTRUM
##SAMPLE DESCRIPTION=A.S.Moskovkin,I.M.Karnaukh, Russian Center on Disaster
 Medicine
##NAMES=HP
##CAS NAME=3-Butyl-4,5-dimethyl-4-hydroxyhexahydropyrimidin-2-thione
##MOLFORM=C10H20N2OS
##CAS REGISTRY NO=88070-31-9
##MP= -300
##BP= -300
##MW= 216
##$RETENTION INDEX=0
##$CONDENSED SPECTRUM=NO
##NPOINTS= 123
##XYDATA=(XY..XY) 1 
    38          4
    39        100
    40         19
    41        530
    42        110
    43        999
    44        210
    45         52
    46         15
    47         11
    50          3
    51         10
    52          6
    53         28
    54         26
    55        170
    56        120
    57        500
    58        830
    59         81
    60        190
    61         15
    62         24
    63          4
    65          8
    66          3
    67         18
    68         21
    69         56
    70         35
    71         67
    72        200
    73         48
    74         84
    75         44
    76         29
    77         36
    78          6
    79          6
    80          5
    81         17
    82         22
    83         30
    84         90
    85        190
    86         90
    87         13
    88         13
    89         28
    90        130
    91         22
    92          8
    93          4
    94          3
    95         10
    96          9
    97         13
    98         12
    99        110
   100         90
   101         39
   102         35
   103         56
   104         18
   105          9
   109          9
   110         10
   111         31
   112          8
   113         12
   114         11
   115         42
   116        110
   117        120
   118         21
   119          7
   123          4
   124          8
   125          6
   126          3
   127         28
   128          8
   129         18
   130          6
   131        110
   132         40
   133         35
   134          3
   139          8
   140          6
   141         25
   142         22
   143         21
   144         29
   145         19
   146          7
   147          3
   155          4
   157          7
   159          7
   165          9
   169         10
   171        110
   172         13
   173        540
   174         56
   175         27
   176          6
   183         67
   184          9
   187          4
   188          3
   191          1
   197          8
   198         43
   199         16
   200          4
   201          9
   215         45
   216        590
   217         76
   218         30
   219          3