##TITLE=Library Entry 13750
##JCAMP-DX=Revision 4.10 
##DATA TYPE=MASS SPECTRUM
##SAMPLE DESCRIPTION=A.A.Kutin, Moscow, Russia
##NAMES=HP
##CAS NAME=4'-Bromo-2'-nitroacetanilide
##MOLFORM=C8H7BrN2O3
##CAS REGISTRY NO=881-50-5
##MP= -300
##BP= -300
##MW= 258
##$RETENTION INDEX=0
##$CONDENSED SPECTRUM=NO
##NPOINTS= 78
##XYDATA=(XY..XY) 1 
    33          2
    34          0
    37         15
    38         28
    39         25
    40         72
    41         14
    43        999
    44         24
    45          2
    49          3
    50         23
    51         32
    52         51
    53          6
    55          3
    61         22
    62         55
    63        133
    64         45
    65         10
    66          1
    74         11
    75         20
    76         22
    77         13
    78         34
    79         11
    80          3
    81          1
    83          4
    87          0
    88         13
    89         14
    90         70
    91         80
    92          8
    95         13
   103         10
   104          7
   105          5
   107          3
   110          0
   117          5
   118          2
   119          6
   122          1
   132          2
   133          3
   143         18
   144          3
   145         19
   146          1
   155          1
   157          2
   158         13
   159          1
   160         12
   168          9
   170         93
   171          9
   172         68
   173          4
   186         10
   188         12
   200          2
   201          2
   202          4
   205          2
   212          3
   214          5
   216        222
   217         24
   218        211
   219         11
   258         27
   260         32
   261          1