##TITLE=Library Entry 114940
##JCAMP-DX=Revision 4.10 
##DATA TYPE=MASS SPECTRUM
##SAMPLE DESCRIPTION=Japan AIST/NIMC Database- Spectrum MS-NW-7783
##NAMES=HP
##CAS NAME=Quinoline, 2-methyl-8-nitro-
##MOLFORM=C10H8N2O2
##CAS REGISTRY NO=881-07-2
##MP= -300
##BP= -300
##MW= 188
##$RETENTION INDEX=1788
##$CONDENSED SPECTRUM=NO
##NPOINTS= 101
##XYDATA=(XY..XY) 1 
    14          1
    15         15
    16          2
    18          1
    26         23
    27         88
    28         34
    29          4
    30        124
    37         32
    38         66
    39        314
    40         19
    41         18
    42          6
    43         43
    44          2
    46         19
    49         11
    50        139
    51        168
    52         64
    53         26
    54          3
    55          2
    56          3
    57         12
    58          3
    60          2
    61         33
    62        103
    63        224
    64         74
    65         90
    66          9
    67          1
    70          7
    73         11
    74        122
    75        114
    76         74
    77        176
    78         48
    79          6
    80          1
    84          1
    85          8
    86         23
    87         48
    88         68
    89        199
    90         42
    91         19
    92          3
    93          1
    94          2
    97          3
    98         16
    99         19
   100         36
   101         29
   102         60
   103        263
   104         44
   105          3
   109          1
   110          2
   111          4
   112          5
   113         64
   114         91
   115        790
   116        201
   117         15
   126          3
   127         42
   128         49
   129         21
   130        999
   131        105
   132          5
   138          2
   139          4
   140        145
   141         71
   142        257
   143         30
   144          2
   155          3
   156          3
   157          3
   158        283
   159         32
   160          3
   171          2
   172         17
   173          2
   187          2
   188        662
   189         83
   190          9