##TITLE=Library Entry 11477
##JCAMP-DX=Revision 4.10 
##DATA TYPE=MASS SPECTRUM
##SAMPLE DESCRIPTION=Humboldt-Universitat zu Berlin, Department of Chemistry
, Analytical Group
##NAMES=HP
##CAS NAME=5(4H)-Oxazolone, 2-methyl-4-(phenylmethylene)-
##MOLFORM=C11H9NO2
##CAS REGISTRY NO=881-90-3
##MP= -300
##BP= -300
##MW= 187
##$RETENTION INDEX=0
##$CONDENSED SPECTRUM=NO
##NPOINTS= 85
##XYDATA=(XY..XY) 1 
    32          5
    37         11
    38         23
    39         73
    40         11
    41          8
    43        999
    44         28
    45          4
    49          4
    50         48
    51         47
    52         19
    53          2
    54          0
    55          1
    56          1
    57          2
    58          1
    60          0
    61         12
    62         34
    63         87
    64         23
    65         13
    66          4
    67          0
    69          0
    70          1
    71          1
    72          0
    73          3
    74         19
    75         19
    76         27
    77          9
    78          1
    82          0
    83          0
    84          0
    85          2
    86          4
    87         11
    88         15
    89        141
    90        113
    91         10
    92          0
    97          1
    98          3
    99          2
   100          2
   101          3
   102         23
   103          4
   104          0
   105          0
   110          0
   111          1
   112          1
   113          1
   114          8
   115          8
   116         67
   117        573
   118         53
   119          3
   127          1
   128          0
   129          1
   130          1
   131          1
   140          0
   142          2
   143          1
   144          2
   145          0
   159        105
   160         12
   161          0
   171          0
   185          0
   187        150
   188         19
   189          2