##TITLE=Library Entry 95336
##JCAMP-DX=Revision 4.10 
##DATA TYPE=MASS SPECTRUM
##SAMPLE DESCRIPTION=Japan AIST/NIMC Database- Spectrum MS-NW-4424
##NAMES=HP
##CAS NAME=Naphthalene, 2-methyl-1-nitro-
##MOLFORM=C11H9NO2
##CAS REGISTRY NO=881-03-8
##MP= -300
##BP= -300
##MW= 187
##$RETENTION INDEX=1627
##$CONDENSED SPECTRUM=NO
##NPOINTS= 140
##XYDATA=(XY..XY) 1 
    14          1
    15          1
    16          1
    17          1
    18          2
    26          8
    27         21
    28          8
    29          6
    30         39
    31          2
    37         10
    38         22
    39        110
    40          7
    41          6
    43         11
    44          2
    45          1
    46          4
    49          5
    50         75
    51        107
    52         23
    53          8
    54          1
    55          9
    56          7
    57         95
    58          9
    60          1
    61         24
    62         75
    63        195
    64         37
    65         57
    66          5
    67          3
    68          2
    69         54
    70         27
    71         15
    72          1
    73          8
    74         75
    75         79
    76         48
    77         60
    78         20
    79          3
    84          3
    85         28
    86         46
    87         68
    88         42
    89        115
    90         21
    91         45
    92          5
    93          2
    94          2
    95          1
    96          1
    97          3
    98         24
    99         18
   100         12
   101         25
   102         55
   103         32
   104         14
   105          6
   106          1
   107          2
   108          1
   109          5
   110          9
   111          9
   112          6
   113         68
   114         86
   115        999
   116        194
   117         34
   118          9
   119          3
   120          2
   121          2
   122          3
   123          2
   124          2
   125          6
   126         66
   127        222
   128        436
   129        445
   130        227
   131        107
   132         18
   133          8
   134          3
   135          2
   136          1
   137         14
   138         24
   139        411
   140        175
   141        584
   142        457
   143        114
   144         26
   145          9
   146          2
   147          1
   148          1
   151          1
   152         10
   153          6
   154          9
   155         12
   156         13
   157        190
   158         74
   159         35
   160          6
   161          1
   168          1
   169          5
   170        172
   171         28
   172         32
   173          4
   174          1
   184          1
   185          3
   186        107
   187        901
   188        111
   189         10
   190          1