##TITLE=Library Entry 35061
##JCAMP-DX=Revision 4.10 
##DATA TYPE=MASS SPECTRUM
##SAMPLE DESCRIPTION=ASES Database, Dalian Institute, P.R. China
##NAMES=HP
##CAS NAME=(1-Bromo-pentyl)-cyclopropane
##MOLFORM=C8H15Br
##CAS REGISTRY NO=88106-30-3
##MP= -300
##BP= -300
##MW= 190
##$RETENTION INDEX=0
##$CONDENSED SPECTRUM=NO
##NPOINTS= 16
##XYDATA=(XY..XY) 1 
    40        566
    41        470
    55        690
    56        238
    67        421
    68        169
    69        999
    70         79
    81        250
    83        151
   119         49
   121         50
   148        570
   150        590
   190        169
   192        159