##TITLE=Library Entry 25803
##JCAMP-DX=Revision 4.10 
##DATA TYPE=MASS SPECTRUM
##SAMPLE DESCRIPTION=Zaikin V.G., TIPS RAS, Moscow, Russia
##NAMES=HP
##CAS NAME=2- Chloropropionic acid, octadecyl ester
##MOLFORM=C21H41ClO2
##CAS REGISTRY NO=88104-31-8
##MP= -300
##BP= -300
##MW= 360
##$RETENTION INDEX=2461
##$CONDENSED SPECTRUM=NO
##NPOINTS= 125
##XYDATA=(XY..XY) 1 
    26         15
    27         76
    28          2
    29        132
    30          3
    31          5
    35          6
    36         43
    37          4
    38         18
    39         57
    40         14
    41        422
    42        124
    43        708
    44         76
    45         10
    50          3
    51          5
    52          3
    53         30
    54        102
    55        803
    56        468
    57        999
    58         46
    62          5
    63        151
    64         11
    65         53
    66         17
    67        160
    68        220
    69        769
    70        435
    71        575
    72         34
    73         29
    74        187
    75        114
    76          4
    77          7
    79         18
    80         13
    81        116
    82        380
    83        899
    84        323
    85        397
    86         26
    87          3
    90          3
    91         67
    92          4
    93         21
    94          5
    95         77
    96        235
    97        807
    98        217
    99        106
   100         10
   108        337
   109        265
   110        215
   111        495
   112        151
   113         71
   114          8
   121          3
   122          5
   123         33
   124         72
   125        212
   126         97
   127         51
   128          5
   130          3
   135          4
   136          4
   137         27
   138         54
   139         80
   140         65
   141         34
   142          2
   149          4
   151         10
   152         35
   153         39
   154         46
   155         25
   165          5
   166         24
   167         24
   168         35
   169         21
   179          4
   180         20
   181         15
   182         22
   183         15
   193          7
   194         18
   195         10
   196         17
   197          9
   208         15
   209          8
   210          7
   211          5
   221          4
   222         21
   223          6
   224         52
   225         10
   250         89
   251         18
   252         42
   253         16
   267          4
   295          5
   297         29
   298          5
   360          3