##TITLE=Library Entry 15553
##JCAMP-DX=Revision 4.10 
##DATA TYPE=MASS SPECTRUM
##SAMPLE DESCRIPTION=Chemical Concepts
##NAMES=HP
##CAS NAME=l-Alanine, N-(3-methyl-1-oxobutyl)-, methyl ester
##MOLFORM=C9H17NO3
##CAS REGISTRY NO=88127-27-9
##MP= -300
##BP= -300
##MW= 187
##$RETENTION INDEX=0
##$CONDENSED SPECTRUM=NO
##NPOINTS= 71
##XYDATA=(XY..XY) 1 
    33          6
    37          0
    38          2
    39         56
    40         11
    41        211
    42        115
    43        117
    44        999
    45         46
    46          0
    49          0
    50          0
    51          1
    52          0
    53          5
    54          3
    55         35
    56         33
    57        377
    58         92
    59         51
    60          2
    61          0
    66          0
    67          2
    68          6
    69         29
    70         53
    71          6
    72          1
    73          0
    76          0
    81          0
    82          0
    83          6
    84          3
    85        125
    86         57
    87          9
    88         16
    89          0
    96          0
    98          1
    99          0
   100          0
   102        101
   103         20
   104         39
   105          1
   111          0
   112          8
   113         26
   114          2
   117          0
   126          1
   127          2
   128        170
   129         13
   130          2
   140          1
   144          0
   145        149
   146          9
   147          1
   155          3
   156          6
   157          0
   172          0
   187          4
   188          4