##TITLE=Library Entry 34258
##JCAMP-DX=Revision 4.10 
##DATA TYPE=MASS SPECTRUM
##SAMPLE DESCRIPTION=NIST Mass Spectrometry Data Center
##NAMES=HP
##CAS NAME=(E)-2-Methylbut-2-en-1-yl methacrylate
##MOLFORM=C9H14O2
##CAS REGISTRY NO=88142-95-4
##MP= -300
##BP= -300
##MW= 154
##$RETENTION INDEX=1088
##$CONDENSED SPECTRUM=NO
##NPOINTS= 69
##XYDATA=(XY..XY) 1 
    26          4
    27         41
    28         10
    29         35
    30          1
    31          3
    37          5
    38         14
    39        207
    40         60
    41        662
    42         45
    43         46
    44          3
    45          7
    50          7
    51         14
    52          8
    53        113
    54         16
    55         29
    56          6
    57          8
    58          1
    59         11
    60          1
    62          1
    63          2
    65         11
    66          8
    67        340
    68        304
    69        999
    70         64
    71         11
    77          2
    79          5
    80          1
    81          8
    82          5
    83          8
    84          5
    85         53
    86          4
    87         47
    88          2
    93          7
    94          4
    95          4
    96          2
    97          4
    98          3
    99          1
   107          2
   108         18
   109         50
   110          4
   111         11
   112          3
   113          1
   121          2
   125         30
   126         18
   127          2
   137          1
   139          7
   140          1
   154         30
   155          3