##TITLE=Library Entry 109055
##JCAMP-DX=Revision 4.10 
##DATA TYPE=MASS SPECTRUM
##SAMPLE DESCRIPTION=Div. of Experiment Therapeutics WRAIR, WRAMC, Washingto
n DC 20307
##NAMES=HP
##CAS NAME=5-Amino-2-[p-chlorobenzyloxy]pyridine
##MOLFORM=C12H11ClN2O
##CAS REGISTRY NO=88166-58-9
##MP= -300
##BP= -300
##MW= 234
##$RETENTION INDEX=0
##$CONDENSED SPECTRUM=NO
##NPOINTS= 86
##XYDATA=(XY..XY) 1 
    41          5
    42          2
    43          2
    44          2
    45          0
    49          2
    50         14
    51         31
    52         75
    53         94
    54        336
    55         42
    56          3
    60          1
    61          8
    62         37
    63        156
    64         42
    65         37
    66         56
    67         18
    68          2
    69          1
    70          0
    71          1
    72          2
    73         43
    74         16
    75         55
    76          9
    77         19
    78          2
    79          4
    80          7
    81        223
    82         31
    83          4
    84          8
    85         11
    86         13
    87          8
    89        250
    90         83
    91         14
    93         25
    94        108
    95         50
    97          8
    99         71
   101         29
   102          2
   103          1
   105          3
   106          1
   107          2
   109        131
   110         16
   111         14
   113          8
   115          5
   116          2
   117          2
   121          2
   123         33
   125        999
   127        334
   128         11
   129          0
   139          5
   141          6
   142          1
   143          2
   144          1
   151          1
   154          1
   169          1
   171          1
   173          0
   190          0
   199          1
   205          1
   233          8
   234         66
   235         12
   236         21
   237          2