##TITLE=Library Entry 21145
##JCAMP-DX=Revision 4.10 
##DATA TYPE=MASS SPECTRUM
##SAMPLE DESCRIPTION=V.Zaikin,Topchiev Inst.Petrochem.Synth.,Moscow
##NAMES=HP
##CAS NAME=3-Chloropropionic acid, octadecyl ester
##MOLFORM=C21H41ClO2
##CAS REGISTRY NO=88168-99-4
##MP= -300
##BP= -300
##MW= 360
##$RETENTION INDEX=2508
##$CONDENSED SPECTRUM=NO
##NPOINTS= 146
##XYDATA=(XY..XY) 1 
    27        131
    28         12
    29        249
    30          3
    31         11
    36          4
    37          4
    38          5
    39        119
    40         29
    41        600
    42        181
    43        603
    44         36
    45         10
    47          3
    49          2
    51          5
    52         12
    53         44
    54         87
    55        999
    56        223
    57        422
    58         24
    60          3
    61          4
    63        239
    65         76
    66         20
    67         91
    68        126
    69        441
    70        244
    71        227
    72         12
    73        219
    74          9
    75          8
    76          5
    77         27
    78          3
    79         22
    80          8
    81        120
    82        242
    83        585
    84        220
    85        241
    86         27
    87          3
    89          3
    91        382
    92         17
    93        113
    94         15
    95         90
    96        196
    97        822
    98        253
    99         80
   101         20
   102          3
   103         16
   105          7
   106          7
   107          3
   108         16
   109        592
   110        136
   111        649
   112        197
   113        132
   114         83
   115         24
   119         12
   121          7
   122          3
   123         19
   124         63
   125        181
   126        128
   127        135
   128         19
   129         17
   133          6
   137         19
   138         34
   139         89
   140         49
   141         27
   142         14
   143          6
   146          4
   149         28
   150          5
   151         17
   152         30
   153         42
   154         38
   155         26
   156          4
   157          2
   161          9
   164         14
   165          8
   166         24
   167         24
   168         15
   169         19
   170          3
   171          8
   178          3
   179         11
   180          8
   181         21
   182         16
   183         20
   184          8
   186          3
   193          4
   194          7
   195          9
   196         25
   197          5
   199          3
   207         20
   209          4
   210          5
   211          2
   221          2
   222          2
   223          8
   224         68
   225         13
   227          2
   239          8
   250          6
   251          3
   252         68
   253         26
   259          2
   269          2
   295          3
   324          5
   325         18