##TITLE=Library Entry 9280
##JCAMP-DX=Revision 4.10 
##DATA TYPE=MASS SPECTRUM
##SAMPLE DESCRIPTION=Institute of Organic Chemistry, Novosibirsk, USSR 1988
##NAMES=HP
##CAS NAME=Methyl 15-acetoxyhexadecanoate
##MOLFORM=C19H36O4
##CAS REGISTRY NO=88167-68-4
##MP= -300
##BP= -300
##MW= 328
##$RETENTION INDEX=0
##$CONDENSED SPECTRUM=NO
##NPOINTS= 149
##XYDATA=(XY..XY) 1 
    38         16
    41        198
    42         48
    43        999
    44          4
    45         24
    53          8
    54         39
    55        395
    56         82
    57        117
    58         39
    59         52
    60          3
    61         49
    67         67
    68         75
    69        290
    70         62
    71         46
    72          6
    73         20
    74        503
    75         90
    76          4
    79          9
    80         10
    81         83
    82         76
    83        202
    84        182
    85         33
    86          3
    87        450
    88         30
    89          3
    93          8
    94         14
    95         73
    96        131
    97        175
    98        232
    99         26
   100          5
   101         41
   102          5
   107         10
   108         16
   109         30
   110         67
   111        100
   112         62
   113         13
   114         21
   115         39
   116          9
   119         10
   120          4
   121         18
   122          9
   123         35
   124         32
   125         53
   126         17
   127         12
   128         27
   129         33
   130         34
   133          8
   134         15
   135         17
   136         11
   137         33
   138         41
   139         38
   140         15
   141         43
   142          8
   143         59
   144         11
   147          5
   148         11
   149          9
   150          5
   151         11
   152         94
   153         34
   154         16
   155          7
   157         13
   158          5
   161          4
   162          3
   163          5
   165         16
   166         21
   167         11
   168          5
   169          5
   171         11
   172          4
   175          3
   176          8
   177         16
   179          9
   180          8
   181          4
   183          3
   185         15
   186         10
   191          4
   192         30
   193         13
   194        118
   195         62
   196          4
   199         14
   200          4
   208         11
   209          4
   210          3
   213          4
   218         21
   219          8
   221          3
   222          7
   223          5
   225         11
   226         18
   227         40
   236        222
   237        139
   238         19
   239         18
   240          5
   241         15
   242         12
   250          5
   252          6
   253         80
   254         13
   255          5
   268         46
   269         20
   271         13
   283         14
   284          8
   285         19
   313          3