##TITLE=Library Entry 83422
##JCAMP-DX=Revision 4.10 
##DATA TYPE=MASS SPECTRUM
##SAMPLE DESCRIPTION=V.A.Korolev, Moscow, Russia
##NAMES=HP
##CAS NAME=3-[(4-Aminophenyl)carbamoyl]prop-2-enoic acid
##MOLFORM=C10H10N2O3
##CAS REGISTRY NO=881739-03-3
##MP= -300
##BP= -300
##MW= 206
##$RETENTION INDEX=0
##$CONDENSED SPECTRUM=NO
##NPOINTS= 77
##XYDATA=(XY..XY) 1 
    36          4
    37         13
    38         48
    39         98
    40         55
    41        191
    42         71
    43         94
    44        232
    45        248
    46          9
    48          4
    49          4
    50         28
    51         72
    52        280
    53        470
    54        728
    55         89
    56         27
    57         27
    59         44
    60          4
    61          5
    62         17
    63         43
    64         28
    65         48
    66         16
    67         15
    69         14
    71         44
    72          3
    74         27
    75          3
    76          6
    77         13
    78         33
    79         76
    80        382
    81         72
    82         22
    88          1
    89          2
    90         16
    91         19
    92         11
    98         85
    99         89
   100          4
   104          4
   105         39
   106         58
   107        999
   108        359
   109         30
   110          4
   111          2
   116          4
   117          3
   118         13
   131          4
   132         11
   133          3
   134         10
   135          1
   136          2
   159          2
   160          8
   161         10
   162          2
   178          2
   187          3
   188         52
   189          4
   206        133
   207         13