##TITLE=Library Entry 76026
##JCAMP-DX=Revision 4.10 
##DATA TYPE=MASS SPECTRUM
##SAMPLE DESCRIPTION=NIST Mass Spectrometry Data Center
##NAMES=HP
##CAS NAME=m-(2-Nitrovinyl)nitrobenzene
##MOLFORM=C8H6N2O4
##CAS REGISTRY NO=882-26-8
##MP= -300
##BP= -300
##MW= 194
##$RETENTION INDEX=0
##$CONDENSED SPECTRUM=NO
##NPOINTS= 82
##XYDATA=(XY..XY) 1 
    12          5
    13          5
    18         16
    30        421
    32          5
    37         27
    38         70
    39        193
    40         25
    44          3
    46        117
    50        456
    51        281
    52        137
    53         48
    54         18
    55         45
    60         13
    61         49
    62        132
    63        328
    64        103
    65        169
    66         21
    68         21
    69         15
    71         22
    73         30
    74        207
    75        377
    76        592
    77        111
    78         51
    79         42
    80         27
    81         15
    84          9
    85          8
    86         17
    87         36
    89        394
    90        271
    91         40
    92         64
    93         19
    94         10
    95         10
    96          6
    97         14
    98         38
    99         18
   101        337
   102        999
   103        101
   104         22
   105         41
   106         84
   107         12
   110         12
   116         31
   117         97
   118        390
   119         59
   120         66
   121         23
   131         16
   132         17
   134         26
   135         11
   136         33
   147        481
   148        159
   149         26
   150         47
   151         15
   161          9
   162         16
   164          7
   177         61
   178         18
   194        368
   195         32