##TITLE=Library Entry 66580
##JCAMP-DX=Revision 4.10 
##DATA TYPE=MASS SPECTRUM
##SAMPLE DESCRIPTION=Chemical Concepts
##NAMES=HP
##CAS NAME=Pentanamide, 4-methyl-N-phenyl-
##MOLFORM=C12H17NO
##CAS REGISTRY NO=882-23-5
##MP= -300
##BP= -300
##MW= 191
##$RETENTION INDEX=0
##$CONDENSED SPECTRUM=NO
##NPOINTS= 142
##XYDATA=(XY..XY) 1 
    25          1
    26          2
    27         42
    28          8
    29         31
    30          1
    31          1
    33          0
    35          1
    36          0
    37          1
    38          7
    39         50
    40          8
    41         63
    42         12
    43        148
    44          6
    45          0
    48          1
    50          7
    51         25
    52          5
    53          9
    54          5
    55         30
    56          7
    57          5
    58          0
    59          1
    61          1
    62          3
    63          6
    64          9
    65         50
    66         37
    67          3
    68          3
    69         10
    70          2
    71         21
    72          1
    73          0
    74          3
    75          3
    76          4
    77         61
    78          6
    79          4
    80          1
    81         49
    82          6
    83          2
    84          1
    86          1
    87          3
    88          2
    89          1
    90          3
    91         13
    92         68
    93        999
    94         92
    95          5
    96          1
    97          2
    98          1
    99          7
   100          1
   102          1
   103          4
   104          7
   105          4
   106          8
   107          3
   108          1
   109          0
   110          0
   111          0
   112          2
   115          2
   117          3
   118          7
   119         16
   120         41
   121          3
   122          2
   124          1
   125          2
   127          1
   129          0
   130          5
   131          2
   132          3
   133          1
   134         21
   135        276
   136         27
   137          1
   138          1
   140          0
   141          2
   142          1
   144          1
   145          1
   146          2
   147          2
   148         10
   149          3
   150          1
   152          1
   156          0
   157          2
   158          1
   159          2
   160          1
   161          2
   164          2
   165          0
   167          1
   168          1
   169          1
   170          2
   171          1
   172          1
   173          2
   174          3
   175          3
   176         17
   177          3
   179          2
   181          2
   182          1
   186          2
   187          2
   189          1
   190          7
   191         93
   192         14
   193          1
   194          1
   195          2