##TITLE=Library Entry 45818
##JCAMP-DX=Revision 4.10 
##DATA TYPE=MASS SPECTRUM
##SAMPLE DESCRIPTION=O A MAMER, MCGILL UNIVERSITY, MONTREAL,
##NAMES=HP
##CAS NAME=2-Pentenoic acid, (E)-, TMS derivative
##MOLFORM=C8H16O2Si
##CAS REGISTRY NO=88239-45-6
##MP= -300
##BP= -300
##MW= 172
##$RETENTION INDEX=0
##$CONDENSED SPECTRUM=NO
##NPOINTS= 114
##XYDATA=(XY..XY) 1 
    13          1
    14         35
    25          2
    26         15
    27        100
    28         32
    29        125
    30          7
    31         10
    32          1
    36          2
    37          3
    38          6
    39         79
    40         13
    41          5
    42         12
    43         64
    44         17
    45        179
    46         11
    47         85
    48          6
    49          6
    50          6
    51         14
    52          8
    53         58
    54         29
    55        136
    56         11
    57         10
    58         36
    59         66
    60         18
    61         57
    62          4
    63          3
    64         11
    65          3
    66          2
    67          7
    68         12
    69          4
    70          5
    71          7
    72         19
    73        266
    74         34
    75        999
    76         76
    77         47
    78          5
    79          4
    80          3
    82         33
    83        212
    84         16
    85         34
    86          6
    87         13
    88          2
    89          5
    93          2
    95          4
    96          2
    97          9
    98          6
    99         76
   100         11
   101         21
   102          2
   103          0
   105          1
   106          2
   109          2
   110          1
   111         27
   112          7
   113        243
   114         29
   115         31
   116          5
   117          2
   118          1
   119          1
   123          1
   127          2
   128          2
   129         11
   130          2
   131          3
   136          9
   137          2
   139         12
   140          2
   141          2
   142          6
   143        218
   144         28
   145          9
   146          2
   147          3
   148          0
   149          0
   150          5
   151          4
   152          3
   157        861
   158        114
   159         42
   160          5
   171          2
   172          3