##TITLE=Library Entry 44937
##JCAMP-DX=Revision 4.10 
##DATA TYPE=MASS SPECTRUM
##SAMPLE DESCRIPTION=T.Rezanka ET AL.J.Chromatogr.,508,275(1990)
##NAMES=HP
##CAS NAME=Hexatriacantanoic acid,methyl ester
##MOLFORM=C37H74O2
##CAS REGISTRY NO=88265-61-6
##MP= -300
##BP= -300
##MW= 550
##$RETENTION INDEX=0
##$CONDENSED SPECTRUM=NO
##NPOINTS= 114
##XYDATA=(XY..XY) 1 
    53          7
    54         20
    55        357
    56        108
    57        671
    58         27
    59         22
    61          5
    68         67
    70        316
    71        344
    72         17
    74        999
    75        724
    76         28
    79         10
    80          8
    81         73
    82         42
    83        232
    84         68
    85        184
    86         15
    87        870
    88         52
    93         13
    94          5
    95         52
    96          7
    97        164
    98         90
    99         38
   101         85
   102         13
   107          5
   109         40
   110         13
   111         80
   113         32
   115         25
   116         25
   121         28
   123         25
   125         47
   126          5
   127         17
   128          5
   129        105
   131          3
   139         25
   140          3
   143        372
   144         28
   152          8
   154         17
   155          3
   156          3
   157         37
   168         13
   169          7
   172         12
   173         12
   184          3
   185         62
   186         22
   199        108
   200         17
   213         13
   214          8
   219          5
   223         10
   224          5
   226         13
   227         12
   236          3
   237          5
   241         22
   242          7
   256          7
   263          3
   269          5
   279          3
   294          7
   297          8
   298          7
   311         10
   312          8
   334          3
   335          5
   339          5
   348          5
   353          8
   354          3
   367         18
   368          5
   381         12
   404          3
   409          5
   423         45
   424         18
   437         18
   465          7
   479         88
   480         40
   507        107
   508         17
   519         30
   520          7
   521          7
   548          3
   549         10
   550        905
   551        556
   552        350