##TITLE=Library Entry 4995
##JCAMP-DX=Revision 4.10 
##DATA TYPE=MASS SPECTRUM
##SAMPLE DESCRIPTION=A.A.Kutin, Moscow, Russia
##NAMES=HP
##CAS NAME=4-(Tetrahydro-1H-pyrrol-1-ylsulfonyl)aniline
##MOLFORM=C10H14N2O2S
##CAS REGISTRY NO=88327-91-7
##MP= -300
##BP= -300
##MW= 226
##$RETENTION INDEX=0
##$CONDENSED SPECTRUM=NO
##NPOINTS= 112
##XYDATA=(XY..XY) 1 
    33          4
    34          9
    35          0
    37         19
    38         90
    39        593
    40        110
    41        645
    42        999
    43        239
    44         35
    46          4
    48         18
    49          5
    50         27
    51         37
    52         95
    53         49
    54         47
    55         53
    56         24
    57          6
    60         27
    61          7
    62         30
    63        108
    64        109
    65        744
    66        106
    68         68
    70        421
    71         23
    72          4
    74          7
    75          8
    76         24
    77         10
    78         11
    79         10
    80         48
    81         20
    83          2
    84          2
    85          4
    86         18
    87          1
    88          1
    89          3
    90         15
    92        726
    93        748
    94         44
    95          3
    96          4
    97          3
    98          0
    99          0
   100          0
   102          0
   103          0
   104          2
   105          4
   106         27
   108        466
   109         27
   110          2
   112          6
   113          1
   115          0
   116          1
   117          2
   118          6
   119         16
   120          7
   121          6
   122          1
   123          8
   124          8
   125          4
   126          0
   130          0
   131          3
   132          4
   133          5
   134          6
   135          0
   140        140
   141         10
   142          6
   143          0
   145          0
   147          0
   153          0
   154          1
   156        449
   157        140
   158         30
   159          7
   161         48
   162         41
   163          4
   183          0
   184          0
   185          0
   201          0
   211          0
   225         45
   226        398
   227         51
   228         22
   229          2
   230          0