##TITLE=Library Entry 37381
##JCAMP-DX=Revision 4.10 
##DATA TYPE=MASS SPECTRUM
##SAMPLE DESCRIPTION=P. Vainiotalo, Dep. Chem., Univ. Joensuu, Joensuu, Finl
and
##NAMES=HP
##CAS NAME=Bicyclo[2.2.1]heptane-2-carboxylic acid, 3-amino-, exo,exo-
##MOLFORM=C8H13NO2
##CAS REGISTRY NO=88330-32-9
##MP= -300
##BP= -300
##MW= 155
##$RETENTION INDEX=0
##$CONDENSED SPECTRUM=NO
##NPOINTS= 80
##XYDATA=(XY..XY) 1 
    15         20
    17         19
    26         10
    27         78
    29         46
    30        388
    31         11
    38          9
    39        113
    41        155
    42         65
    43        288
    44         83
    45         19
    46         18
    50          8
    51         22
    52         17
    53         65
    54         53
    55         45
    56        686
    57         71
    60         13
    62          5
    63          7
    65         47
    66        171
    67        195
    68         74
    69        305
    70        999
    71         85
    72         17
    73         11
    77         39
    78         20
    79         47
    80         69
    81         96
    82        352
    83         56
    84         13
    86          9
    87        156
    88         85
    89        311
    90         25
    91         38
    92         23
    93         92
    94         52
    95         89
    96         81
    97         23
   100         29
   101         31
   106          5
   107          9
   108         43
   109         59
   110        241
   111         23
   112         10
   113          8
   114         18
   120         12
   125         12
   126        198
   127        345
   128         26
   136          9
   137         15
   138         75
   139          8
   140          5
   154         10
   155        309
   156         49
   157          5