##TITLE=Library Entry 6334
##JCAMP-DX=Revision 4.10 
##DATA TYPE=MASS SPECTRUM
##SAMPLE DESCRIPTION=R. GREENHALGH, AGRIC. CAN., PLANT RES. CENT., OTTAWA, C
AN.
##NAMES=HP
##CAS NAME=Trichothec-9-en-8-one, 15-(acetyloxy)-12,13-epoxy-3,7-dihydroxy-,
 (3-.alpha.,7-.alpha.)-
##MOLFORM=C17H22O7
##CAS REGISTRY NO=88337-96-6
##MP= -300
##BP= -300
##MW= 338
##$RETENTION INDEX=0
##$CONDENSED SPECTRUM=NO
##NPOINTS= 38
##XYDATA=(XY..XY) 1 
    41        343
    43        999
    55        164
    57        147
    67        111
    69        138
    77        152
    79        203
    91        146
    98        278
   107        176
   108        150
   109        133
   121        101
   125         94
   135        132
   136        144
   137        185
   149         52
   151        120
   161         51
   163        124
   175         78
   181         73
   189         43
   203         88
   205         31
   217         15
   219         18
   231         87
   232         16
   249        202
   250         48
   260         13
   265         43
   278         37
   279          5
   338          8