##TITLE=Library Entry 31555
##JCAMP-DX=Revision 4.10 
##DATA TYPE=MASS SPECTRUM
##SAMPLE DESCRIPTION=OGDEN BioServices Corp., NCI, Rockville, MD 20852
##NAMES=HP
##CAS NAME=Clomesone
##MOLFORM=C4H9ClO5S2
##CAS REGISTRY NO=88343-72-0
##MP= -300
##BP= -300
##MW= 236
##$RETENTION INDEX=0
##$CONDENSED SPECTRUM=NO
##NPOINTS= 60
##XYDATA=(XY..XY) 1 
    42         58
    43         51
    44         58
    45        130
    46         47
    47         42
    48        170
    49        247
    50         36
    51         74
    52          5
    55          5
    57          9
    58          5
    59          6
    60          2
    62        435
    63        999
    64        215
    65        136
    67          4
    69          3
    71          1
    77         10
    78         79
    79        308
    80        107
    81         15
    82          5
    83          1
    84         11
    86          7
    93         42
    94         84
    96         29
    97          2
   107          2
   108          2
   109          5
   111          4
   113          1
   123          5
   127          8
   129          3
   141          1
   142        104
   144         39
   146          2
   157        387
   159         43
   161          1
   175         17
   177          1
   187        258
   189         36
   191          1
   200          6
   201          4
   236         13
   238          6