##TITLE=Library Entry 67822
##JCAMP-DX=Revision 4.10 
##DATA TYPE=MASS SPECTRUM
##SAMPLE DESCRIPTION=Chemical Concepts
##NAMES=HP
##CAS NAME=8,10-Undecadiene-3,7-dione, 4-(acetyloxy)-6,6,10-trimethyl-, (E)-
##MOLFORM=C16H24O4
##CAS REGISTRY NO=88354-63-6
##MP= -300
##BP= -300
##MW= 280
##$RETENTION INDEX=0
##$CONDENSED SPECTRUM=NO
##NPOINTS= 178
##XYDATA=(XY..XY) 1 
    25          8
    26         98
    28          7
    29        332
    30          9
    31         20
    37          3
    38          6
    39        135
    40         32
    41        383
    42         34
    43        807
    44         23
    45         10
    49          1
    50          7
    51         25
    52         19
    53         45
    54          9
    55        161
    56         21
    57        388
    58         16
    59         53
    60          3
    61          5
    62          1
    63          9
    64          5
    65         66
    66         30
    67        388
    68         45
    69         67
    70         15
    71         34
    72          4
    73          3
    74          1
    75          3
    76          2
    77         29
    78          7
    79         32
    80          8
    81         43
    82          9
    83         34
    84          7
    85         95
    86         15
    87          5
    88          6
    89          3
    91         29
    92          7
    93         96
    94         16
    95        999
    96        150
    97        240
    98         21
    99          6
   100          2
   101          5
   102          1
   103          5
   104          2
   105         17
   106          4
   107         45
   108         19
   109         42
   110         11
   111         17
   112          3
   113         22
   114          2
   115          4
   116          2
   117          4
   118          2
   119         14
   120         20
   121         45
   122         11
   123        121
   124         16
   125        628
   126         74
   127          9
   128          3
   129          4
   130          4
   131          4
   132          2
   133          6
   134          2
   135         46
   136         16
   137         44
   138        129
   139         17
   140          3
   141          4
   142          2
   143          5
   144          2
   145          6
   146          2
   147          6
   148          2
   149          8
   150          2
   151          7
   152          3
   153          5
   154          4
   155          3
   156          2
   157          2
   158          1
   159          2
   161          3
   162          2
   163         12
   164         22
   165          5
   166          2
   167          3
   168          2
   169          1
   170          1
   171          6
   177          5
   178          2
   179         16
   180         11
   181        264
   182         52
   183          7
   184          1
   185         63
   186          9
   187          3
   188          1
   189          2
   190          1
   191          3
   192          4
   193          2
   194         18
   195          4
   196          3
   205          4
   206          2
   209          9
   210          3
   211          1
   219          2
   220         23
   221          8
   222          3
   223        104
   224         94
   225         13
   226          3
   236          2
   237          6
   238          6
   239          1
   252          1
   262          4
   280          9
   281          2
   282          1