##TITLE=Library Entry 63245
##JCAMP-DX=Revision 4.10 
##DATA TYPE=MASS SPECTRUM
##SAMPLE DESCRIPTION=Chemical Concepts
##NAMES=HP
##CAS NAME=Urea, N'-butyl-N-phenyl-N-(phenylmethyl)-
##MOLFORM=C18H22N2O
##CAS REGISTRY NO=88372-70-7
##MP= -300
##BP= -300
##MW= 282
##$RETENTION INDEX=0
##$CONDENSED SPECTRUM=NO
##NPOINTS= 157
##XYDATA=(XY..XY) 1 
    27         42
    28         20
    29        126
    30         38
    31          0
    36          0
    37          1
    38          5
    39         54
    40          5
    41         91
    42          8
    43         14
    44          4
    45          1
    46          0
    49          0
    50         10
    51         51
    52         10
    53          3
    54          2
    55          8
    56         10
    57         47
    58          4
    59          1
    60          0
    61          0
    62          3
    63         17
    64         15
    65        108
    66         10
    67          1
    68          0
    69          0
    70          3
    71          1
    72         14
    73          1
    74          1
    75          2
    76          4
    77        146
    78         23
    79         11
    80          1
    81          0
    82          0
    83          0
    84          1
    85          0
    86          0
    87          0
    88          0
    89         14
    90          8
    91        999
    92         72
    93         46
    94          4
    95          0
    97          0
    98          1
    99          0
   100          1
   101          0
   102          1
   103          2
   104         55
   105         35
   106        116
   107         16
   108          0
   113          0
   115          3
   116          0
   117          2
   118          2
   119         24
   120         15
   121          1
   126          0
   127          1
   128          1
   129          1
   130          0
   131          0
   132          6
   133          1
   134          1
   135          2
   139          0
   140          0
   141          2
   142          0
   143          0
   147          1
   148          1
   149          6
   150          0
   151          5
   152          5
   153          3
   154          3
   155          1
   156          0
   161          0
   162          0
   163          0
   164          0
   165          3
   166          2
   167          7
   168          1
   174          0
   175          0
   176          0
   177          0
   178          0
   179          1
   180         23
   181         23
   182        179
   183        628
   184         82
   185          5
   191          2
   192          3
   193          0
   194          0
   197          8
   198          1
   203          0
   204          0
   205          1
   206          0
   208          0
   209          1
   210          3
   211          0
   225          1
   226          0
   237          0
   239          3
   240          3
   241          0
   253          0
   267          0
   279          0
   280          0
   281          2
   282        216
   283         43
   284          5
   285          0