##TITLE=Library Entry 2469
##JCAMP-DX=Revision 4.10 
##DATA TYPE=MASS SPECTRUM
##SAMPLE DESCRIPTION=NIST Mass Spectrometry Data Center, 1994
##NAMES=HP
##CAS NAME=p-Octyloxybenzonitrile
##MOLFORM=C15H21NO
##CAS REGISTRY NO=88374-55-4
##MP= -300
##BP= -300
##MW= 231
##$RETENTION INDEX=0
##$CONDENSED SPECTRUM=NO
##NPOINTS= 77
##XYDATA=(XY..XY) 1 
    15          1
    17          2
    18          4
    27        372
    28        100
    29        602
    30         13
    37         21
    38         29
    39        257
    40         56
    41        999
    42        196
    43        980
    44         30
    50         28
    51         55
    52         20
    53         56
    54         32
    55        394
    56        225
    57        775
    58         31
    61          4
    62         19
    63         64
    64         82
    65         29
    66          5
    67         30
    68         27
    69        153
    70        283
    71        464
    72         25
    75         57
    76         37
    77         22
    78          4
    79          5
    80          2
    81          4
    82         43
    83        181
    84        112
    85         10
    87          2
    88          5
    89          8
    90         70
    91         58
    92         14
    93          4
    97         18
    98          1
    99          2
   100          2
   102        195
   103         23
   104         40
   105          3
   112         78
   113          7
   116          7
   117          6
   119        559
   120        607
   121         49
   122          3
   132         51
   133          4
   145          3
   146          3
   231        155
   232         28
   233          2