##TITLE=Library Entry 98794
##JCAMP-DX=Revision 4.10 
##DATA TYPE=MASS SPECTRUM
##SAMPLE DESCRIPTION=NIST Mass Spectrometry Data Center
##NAMES=HP
##CAS NAME=Isospathulenol
##MOLFORM=C15H24O
##CAS REGISTRY NO=88395-46-4
##MP= -300
##BP= -300
##MW= 220
##$RETENTION INDEX=1638
##$CONDENSED SPECTRUM=NO
##NPOINTS= 159
##XYDATA=(XY..XY) 1 
    26          1
    27         44
    28          5
    29         41
    30          2
    31          6
    37          1
    38          2
    39        103
    40         19
    41        305
    42         19
    43        657
    44         17
    45         21
    46          1
    50          8
    51         41
    52         22
    53        113
    54         14
    55        166
    56         10
    57         57
    58         75
    59         10
    60          1
    61          1
    62          4
    63         22
    64          9
    65        112
    66         30
    67        156
    68         18
    69        144
    70         12
    71        156
    72         12
    73          3
    74          3
    75          5
    76          6
    77        257
    78         74
    79        323
    80         46
    81        137
    82         42
    83         35
    84         11
    85         75
    86          7
    87          3
    88          2
    89         12
    90          4
    91        641
    92        128
    93        405
    94         61
    95        109
    96         19
    97         34
    98          4
    99         11
   100          1
   101          2
   102         12
   103         72
   104         54
   105        439
   106        188
   107        371
   108         60
   109         74
   110         12
   111         10
   112          2
   113          2
   114          1
   115        112
   116         42
   117        304
   118         90
   119        999
   120        185
   121        197
   122         84
   123         45
   124         12
   125          7
   126          6
   127         16
   128         52
   129         56
   130         26
   131        209
   132         45
   133        162
   134        224
   135        160
   136         38
   137         12
   138          3
   139          5
   141         14
   142         11
   143         23
   144         22
   145        140
   146         84
   147        333
   148         51
   149        147
   150         44
   151         14
   152          6
   153          4
   154          2
   155          3
   156          2
   157         11
   158          8
   159        421
   160        109
   161         32
   162        442
   163         70
   164         13
   165          3
   170          1
   171          2
   172          4
   173         16
   174         19
   175          9
   176          2
   177        159
   178         23
   179          2
   185          1
   186          1
   187        148
   188         22
   189          3
   191          3
   192         18
   193          3
   200          1
   201          2
   202        111
   203         21
   205        122
   206         19
   207          2
   220         76
   221         13
   222          2