##TITLE=Library Entry 62822
##JCAMP-DX=Revision 4.10 
##DATA TYPE=MASS SPECTRUM
##SAMPLE DESCRIPTION=Japan AIST/NIMC Database- Spectrum MS-IW-3756
##NAMES=HP
##CAS NAME=.alpha.-Benzylsuccinic acid
##MOLFORM=C11H12O4
##CAS REGISTRY NO=884-33-3
##MP= -300
##BP= -300
##MW= 208
##$RETENTION INDEX=0
##$CONDENSED SPECTRUM=NO
##NPOINTS= 119
##XYDATA=(XY..XY) 1 
    15          1
    17          2
    18          1
    26          2
    27         20
    28          9
    29          9
    31          2
    37          1
    38          6
    39         69
    40          5
    41         30
    42          6
    43         10
    44          5
    45         26
    46          1
    50         19
    51         63
    52         15
    53          7
    54          1
    55         17
    56          1
    57         18
    58         19
    59          3
    60         29
    61          3
    62          9
    63         39
    64          9
    65        159
    66         10
    67          3
    69          1
    71          2
    72          6
    73          6
    74          7
    75          8
    76          8
    77         72
    78         48
    79         27
    80          2
    81          5
    82          1
    84          1
    85          3
    86          2
    87          3
    88          3
    89         36
    90         15
    91        999
    92         94
    93          5
    94          1
    95          1
    99          9
   100          1
   101          2
   102         17
   103        105
   104         65
   105         28
   106          2
   107         29
   108          3
   113          1
   114          1
   115         98
   116         38
   117        364
   118         56
   119          8
   120         33
   121          9
   122          1
   127          7
   128          1
   129          1
   130          9
   131        493
   132         50
   133          9
   134          1
   135          1
   143          2
   144         28
   145        214
   146         27
   147        207
   148        362
   149        339
   150         50
   151          4
   159          2
   161          5
   162        640
   163         71
   164          7
   166          1
   172          5
   173         15
   175          1
   176          8
   177          9
   178          5
   189          1
   190        126
   191         22
   192          3
   194          1
   208        295
   209         36
   210          4