##TITLE=Library Entry 55416
##JCAMP-DX=Revision 4.10 
##DATA TYPE=MASS SPECTRUM
##SAMPLE DESCRIPTION=A.Pleshkova, Nesmeyanov Inst.Org.Elem.Cpds, Moscow
##NAMES=HP
##CAS NAME=2,3-Dicarbethoxyaziridine
##MOLFORM=C8H13NO4
##CAS REGISTRY NO=88419-27-6
##MP= -300
##BP= -300
##MW= 187
##$RETENTION INDEX=0
##$CONDENSED SPECTRUM=NO
##NPOINTS= 36
##XYDATA=(XY..XY) 1 
    27        273
    28        176
    29        639
    30        102
    31        134
    40        131
    41        152
    42        133
    43         38
    45         41
    47         25
    57        225
    58         97
    59         25
    68        133
    69         33
    70         68
    71          9
    75        124
    76         21
    85        999
    86        568
    87         27
    96         23
   102         16
   113        246
   114        950
   115         60
   116         11
   130         37
   131          7
   141         73
   142        225
   143         16
   188         41
   189         11