##TITLE=Library Entry 31425
##JCAMP-DX=Revision 4.10 
##DATA TYPE=MASS SPECTRUM
##SAMPLE DESCRIPTION=Zaikin V.G., TIPS RAS, Moscow, Russia
##NAMES=HP
##CAS NAME=N-(Heptafluorobutyryl)methionine propyl ester
##MOLFORM=C12H16F7NO3S
##CAS REGISTRY NO=88436-11-7
##MP= -300
##BP= -300
##MW= 387
##$RETENTION INDEX=1550
##$CONDENSED SPECTRUM=NO
##NPOINTS= 120
##XYDATA=(XY..XY) 1 
    27         78
    28          8
    29         20
    31          5
    35         29
    39         26
    40          3
    41        154
    42         11
    43        312
    45         31
    46         16
    47         43
    48         12
    49          9
    54         35
    55         13
    56         55
    57         44
    58          5
    59         18
    60         11
    61        999
    62        133
    63         47
    64          3
    69        102
    70         22
    71          8
    72          2
    73         14
    74         62
    75        288
    76         11
    77         12
    82          4
    83         27
    84         26
    85         10
    86         26
    87         31
    88         13
    89          8
    99          3
   100         25
   101          7
   102          5
   103          6
   104         16
   109          6
   111          2
   114         18
   116          3
   117         11
   119         15
   128          9
   129          6
   130          4
   131         38
   132         10
   133         11
   134          2
   142          2
   150          4
   155         23
   159          3
   169         94
   170          2
   172          2
   173         14
   175          7
   190         10
   196          6
   197          9
   206          2
   214          3
   215          2
   223          5
   225         61
   226         11
   227          2
   238        122
   239         13
   240         32
   250          2
   251         15
   252        267
   253        940
   254         66
   255          4
   266        330
   267         19
   268          3
   270         18
   271        333
   272         19
   278         12
   279        101
   280         21
   284         87
   285          5
   286          3
   297         27
   298         28
   299          2
   300         45
   301          2
   312         12
   313        505
   314         42
   315          2
   326         49
   327         59
   328         18
   329          3
   339          2
   340          7
   387        111
   388         12
   389          4