##TITLE=Library Entry 14597
##JCAMP-DX=Revision 4.10 
##DATA TYPE=MASS SPECTRUM
##SAMPLE DESCRIPTION=A. Brossi, LC, NIDDK, NIH, Bethesda, MD 20892
##NAMES=HP
##CAS NAME=N-Acetoacetyl-deacetylcolchicine
##MOLFORM=C24H27NO7
##CAS REGISTRY NO=88437-23-4
##MP= -300
##BP= -300
##MW= 441
##$RETENTION INDEX=0
##$CONDENSED SPECTRUM=NO
##NPOINTS= 107
##XYDATA=(XY..XY) 1 
    41         63
    42         47
    43        999
    44         48
    45         33
    55         55
    56         29
    57         56
    58         17
    69         34
    82         13
    85        132
   115         40
   126         14
   127         34
   128         16
   139         40
   140         32
   141         41
   152         47
   153         35
   155         15
   156         13
   165         57
   167         15
   168         32
   169         31
   178         13
   181         42
   182         13
   183         42
   184         13
   195         34
   196         30
   197         30
   207         30
   209         28
   210         30
   211         52
   212         32
   221         13
   222         31
   223         33
   224         35
   225         35
   226         27
   227         29
   235         15
   237         34
   238         46
   239         73
   240         32
   241         29
   251         62
   252         40
   253         41
   254        118
   255         47
   256         30
   265         43
   266         76
   267         68
   268         71
   269         80
   270         72
   271         29
   280         29
   281        259
   282        121
   283         50
   284         37
   286         32
   294        105
   295         33
   296         68
   297        272
   298        167
   299         79
   300         96
   301         26
   309         34
   310         29
   311        115
   312        593
   313        141
   314        113
   315         14
   324         33
   325         31
   326         14
   327         14
   328         99
   329         34
   340         69
   355         51
   356        191
   357         65
   364         14
   367         37
   368         14
   398         65
   413        182
   414         43
   424         17
   441        534
   442        147
   443         29