##TITLE=Library Entry 83887
##JCAMP-DX=Revision 4.10 
##DATA TYPE=MASS SPECTRUM
##SAMPLE DESCRIPTION=Chemical Concepts
##NAMES=HP
##CAS NAME=(5-Methyl-2-phenyl-1,3-dioxan-4-yl)methanol
##MOLFORM=C12H16O3
##CAS REGISTRY NO=88481-60-1
##MP= -300
##BP= -300
##MW= 208
##$RETENTION INDEX=0
##$CONDENSED SPECTRUM=NO
##NPOINTS= 80
##XYDATA=(XY..XY) 1 
    26          7
    27        107
    29         99
    30          5
    31        132
    38          8
    39        110
    40         15
    41        231
    42         53
    43        142
    44         71
    45         28
    47          3
    50         35
    51        136
    52         33
    53         26
    54         30
    55         71
    56         35
    57        218
    58         15
    59         22
    61          4
    62          6
    63         23
    64          9
    65         12
    67         60
    68         16
    69         12
    70          4
    71        208
    72         33
    73         17
    74         12
    75         14
    76         18
    77        471
    78        132
    79        617
    80         35
    83          6
    84          8
    85        353
    86         19
    87          3
    89         40
    90         29
    91        488
    92         32
    97          3
   101          6
   103          6
   104          5
   105        825
   106        130
   107        999
   108         76
   109          5
   115          5
   117          4
   119          6
   123         50
   124         13
   130          6
   131         34
   132          3
   134          3
   147          5
   148          9
   149          8
   177        613
   178         57
   179          5
   207        314
   208        273
   209         36
   210          3