##TITLE=Library Entry 40816
##JCAMP-DX=Revision 4.10 
##DATA TYPE=MASS SPECTRUM
##SAMPLE DESCRIPTION=Chemical Concepts
##NAMES=HP
##CAS NAME=Succioic acid, 2-(1-ethoxyethoxy)-3-methyl-, dimethyl ester
##MOLFORM=C11H20O6
##CAS REGISTRY NO=88481-53-2
##MP= -300
##BP= -300
##MW= 248
##$RETENTION INDEX=0
##$CONDENSED SPECTRUM=NO
##NPOINTS= 105
##XYDATA=(XY..XY) 1 
    25         12
    27         81
    28         37
    29        154
    30          7
    31         39
    33         32
    36          2
    38          2
    39         33
    40          8
    41         74
    42         14
    43        164
    44        106
    45        530
    46         16
    47          7
    51          6
    53          5
    54          2
    55         29
    56         36
    57        159
    58         19
    59        229
    60         11
    61         67
    65          3
    67          5
    68         11
    69         94
    70          8
    71         19
    73        999
    74         58
    75         31
    76          4
    77         15
    78          3
    79          4
    80          3
    81          5
    82          3
    83          8
    85        247
    86         15
    87         23
    88         60
    89         15
    90          5
    91          6
    93          3
    95          6
    97          3
    98          3
    99         63
   100         18
   101         21
   102          3
   103          9
   104          5
   105         15
   106         13
   107          3
   109          3
   110          2
   111          4
   113          7
   115         20
   116         16
   117        219
   118         15
   119          4
   120          2
   121          5
   123          3
   127         88
   128         34
   129          6
   130          3
   131         24
   132          3
   134         27
   135          5
   141          6
   143          3
   144          2
   145         13
   159         46
   160         13
   161          6
   165          2
   167          4
   171          5
   173          6
   175          7
   181          3
   185          2
   189         20
   194          2
   203         50
   204          5
   217          4
   233         16