##TITLE=Library Entry 55497
##JCAMP-DX=Revision 4.10 
##DATA TYPE=MASS SPECTRUM
##SAMPLE DESCRIPTION=Chemical Concepts
##NAMES=HP
##CAS NAME=Butanedioic acid, 2-(1-methoxy-1-methylethoxy)-3-methyl-, diethyl
 ester, [S-(R*,S*)]-
##MOLFORM=C13H24O6
##CAS REGISTRY NO=88481-58-7
##MP= -300
##BP= -300
##MW= 276
##$RETENTION INDEX=0
##$CONDENSED SPECTRUM=NO
##NPOINTS= 121
##XYDATA=(XY..XY) 1 
    25          5
    26         42
    27        280
    28         31
    29        643
    30         40
    31        192
    33         14
    37         15
    38         32
    39        204
    40        101
    41        423
    42        519
    43        219
    44         22
    45        116
    46          5
    47         68
    49          5
    51          5
    53         15
    54          7
    55         56
    56        108
    57        405
    58        121
    59        113
    60          6
    61          5
    65          5
    67         18
    68         17
    69         75
    70         13
    71         50
    72        341
    73        768
    74        195
    75        166
    76         18
    77          7
    78          3
    79         14
    80          3
    81         20
    82         11
    83         20
    84         10
    85        999
    86        141
    87         47
    88          8
    89         33
    90          3
    91          5
    95          5
    96          4
    97         18
    98          8
    99         67
   100          9
   101         16
   102        130
   103        212
   104         18
   105          6
   111          6
   112         16
   113         44
   114         30
   115         19
   116          8
   117         57
   118          6
   119          3
   121          3
   123          7
   125          8
   127          8
   128         19
   129         35
   130         57
   131        932
   132         83
   133         11
   137          5
   138          4
   140         20
   141         39
   142          8
   143          6
   144          3
   145         48
   146          1
   149          6
   152          3
   153          5
   155          5
   157          5
   158         22
   159        104
   160          9
   163          4
   171          4
   172          2
   173         10
   174          1
   186          6
   187         17
   188          3
   199          8
   200          2
   203          5
   204          1
   214          5
   215          0
   231          7
   245         13
   261          5
   262          0