##TITLE=Library Entry 31190
##JCAMP-DX=Revision 4.10 
##DATA TYPE=MASS SPECTRUM
##SAMPLE DESCRIPTION=NIST Mass Spectrometry Data Center
##NAMES=HP
##CAS NAME=2,4,5,6,8-Pentathianonane
##MOLFORM=C4H10S5
##CAS REGISTRY NO=88496-84-8
##MP= -300
##BP= -300
##MW= 218
##$RETENTION INDEX=1853
##$CONDENSED SPECTRUM=NO
##NPOINTS= 66
##XYDATA=(XY..XY) 1 
    27          8
    29          2
    31          1
    32          1
    33          1
    34          1
    35         24
    37          1
    44          3
    45        139
    46         76
    47         38
    48         12
    49         10
    50          1
    51          1
    57          1
    58          4
    59          9
    60          5
    61        999
    62         32
    63         72
    64         19
    65          7
    66          2
    74          1
    76          3
    77          9
    78         41
    79         28
    80          6
    81          8
    82          1
    83          1
    91          4
    92         14
    93         96
    94         11
    95         11
    96          1
    97          1
   106          1
   107          3
   108          2
   109          1
   110          1
   111         17
   112          1
   113          3
   119          2
   123          1
   124          2
   125          1
   126          1
   127          1
   134          1
   138          1
   139          2
   141          1
   186          1
   218         61
   219          4
   220         11
   221          1
   222          1