##TITLE=Library Entry 99314
##JCAMP-DX=Revision 4.10 
##DATA TYPE=MASS SPECTRUM
##SAMPLE DESCRIPTION=D.HENNEBERG, MAX-PLANCK INSTITUTE, MULHEIM, WEST GERMAN
Y
##NAMES=HP
##CAS NAME=Benzenemethanol, 4-methyl-.alpha.-(4-methylphenyl)-
##MOLFORM=C15H16O
##CAS REGISTRY NO=885-77-8
##MP= -300
##BP= -300
##MW= 212
##$RETENTION INDEX=0
##$CONDENSED SPECTRUM=NO
##NPOINTS= 26
##XYDATA=(XY..XY) 1 
    39         35
    41          1
    51         13
    63          8
    65        110
    77        113
    78          2
    89         28
    90          7
    91        327
    92        242
    93        173
   119        999
   120         85
   121        162
   178         14
   179         20
   180          4
   181         10
   195         32
   196          1
   197        144
   198          5
   211         27
   212        214
   213         22