##TITLE=Library Entry 45286
##JCAMP-DX=Revision 4.10 
##DATA TYPE=MASS SPECTRUM
##SAMPLE DESCRIPTION=Chemical Concepts
##NAMES=HP
##CAS NAME=Benzenepropanol, .alpha.-(2-trimethylsilylethenyl)-
##MOLFORM=C14H22OSi
##CAS REGISTRY NO=88508-42-3
##MP= -300
##BP= -300
##MW= 234
##$RETENTION INDEX=0
##$CONDENSED SPECTRUM=NO
##NPOINTS= 185
##XYDATA=(XY..XY) 1 
    26          1
    27         21
    28          1
    29         14
    30          2
    31         22
    38          2
    39         44
    40          4
    41         25
    42          6
    43         83
    44         20
    45        127
    46          7
    47         35
    48          1
    49          1
    50          7
    51         33
    52          9
    53         37
    54          6
    55         25
    56          4
    57         15
    58         39
    59        213
    60         21
    61        108
    62          8
    63         19
    64          4
    65         90
    66         26
    67         12
    68          4
    69         18
    70          5
    71         11
    72         14
    73        968
    74         81
    75        999
    76         71
    77         84
    78         45
    79         40
    80          3
    81          5
    82          8
    83         33
    84          5
    85         45
    86          7
    87         17
    88          2
    89         17
    90          6
    91        883
    92        344
    93         30
    94          3
    95         13
    96          3
    97         14
    98         11
    99         24
   100          6
   101        105
   102         15
   103         35
   104         31
   105        117
   106         27
   107          8
   108          1
   109         13
   110          4
   111         86
   112         13
   113         43
   114         10
   115         73
   116         19
   117         24
   118          9
   119          4
   120          1
   121         19
   122          1
   123          7
   124          1
   125         63
   126         11
   127         50
   128         37
   129        294
   130         67
   131         20
   132          3
   133          7
   134         13
   135        113
   136         17
   137          8
   138          2
   139          3
   140          2
   141         35
   142        133
   143        159
   144         81
   145         35
   146          4
   147          6
   148          4
   149          4
   150          1
   151          0
   152          2
   153          3
   154          1
   155         21
   156         13
   157         10
   158          3
   159         20
   160          6
   161          9
   162          1
   163          1
   164          1
   165          0
   167          1
   168          1
   169          2
   170          1
   171          5
   172          3
   173         17
   174          4
   175          4
   176          0
   177          0
   178          0
   181          4
   182          1
   183         38
   184          8
   185          9
   186          4
   187          1
   188          0
   189          1
   190          2
   191          3
   197          3
   198          1
   199         43
   200          9
   201        102
   202         19
   203          6
   204          2
   205        638
   206        111
   207         33
   208          4
   209          0
   210          0
   214          0
   215          0
   216         73
   217         20
   218          8
   219        141
   220         29
   221          7
   222          1
   232          1
   233         16
   234         69
   235         15
   236          3