##TITLE=Library Entry 31026
##JCAMP-DX=Revision 4.10 
##DATA TYPE=MASS SPECTRUM
##SAMPLE DESCRIPTION=W.E. COLEMAN, US ENVIRON. PROT. AGENCY, CINCINNATI, OHI
O, USA
##NAMES=HP
##CAS NAME=2,2,4-Trichloro-1,3-cyclopentenedione
##MOLFORM=C5HCl3O2
##CAS REGISTRY NO=88552-47-0
##MP= -300
##BP= -300
##MW= 198
##$RETENTION INDEX=0
##$CONDENSED SPECTRUM=NO
##NPOINTS= 100
##XYDATA=(XY..XY) 1 
    14          5
    16         14
    17         10
    18         28
    24         73
    25        245
    26          8
    28        161
    29         29
    31          2
    32          7
    35        315
    36        398
    37        659
    38         81
    40        147
    41         56
    42         10
    43          2
    44          8
    45          2
    47        764
    48         86
    49        374
    50         23
    53        651
    54         23
    55          4
    60        999
    62        346
    63         44
    65         32
    66          3
    68         75
    69         20
    71        144
    72        371
    73        103
    74        118
    75        128
    76         51
    77         38
    78         13
    82        316
    84        253
    85         37
    88        889
    90        250
    91          8
    93         15
    94          3
    95          4
    96          3
   100         18
   101         20
   103        244
   105         82
   107        985
   109        764
   110        427
   111        132
   112        277
   114         50
   116         40
   118         19
   119          3
   123         10
   125          7
   127          3
   129          5
   130         12
   131          2
   132          2
   134          6
   135        284
   137        209
   138         28
   139         27
   140          4
   142        557
   144        524
   146        172
   148         22
   161          2
   164        165
   165         72
   166         86
   167         38
   168         13
   169          6
   170        335
   172        340
   174        115
   175          3
   176          9
   198        503
   199          8
   200        464
   202        160
   203         14