##TITLE=Library Entry 90967
##JCAMP-DX=Revision 4.10 
##DATA TYPE=MASS SPECTRUM
##SAMPLE DESCRIPTION=Chemical Concepts
##NAMES=HP
##CAS NAME=1-Buten-1-amine, N,N-dipropyl-
##MOLFORM=C10H21N
##CAS REGISTRY NO=88557-03-3
##MP= -300
##BP= -300
##MW= 155
##$RETENTION INDEX=0
##$CONDENSED SPECTRUM=NO
##NPOINTS= 82
##XYDATA=(XY..XY) 1 
    26          4
    27         73
    28         24
    29         43
    30        109
    31          1
    37          0
    38          2
    39         46
    40          5
    41        116
    42        104
    43        116
    44         46
    45          1
    50          1
    51          2
    52          1
    53         13
    54         12
    55        116
    56         40
    57         12
    58         19
    59          0
    63          0
    65          1
    66          0
    67          5
    68          7
    69         16
    70         42
    71          4
    72        284
    73         12
    74          0
    77          0
    78          0
    79          0
    80          2
    81          1
    82         10
    83          2
    84         72
    85          5
    86        176
    87         12
    88          0
    91          0
    92          0
    93          0
    94          1
    95          1
    96          8
    97          3
    98         28
    99          1
   100          1
   105          0
   106          0
   107          0
   108          0
   109          0
   110          1
   111          2
   112          5
   114        999
   115         73
   116          2
   117          0
   122          0
   123          0
   124          5
   126        171
   127         14
   128          1
   138          0
   140          1
   152          0
   154          3
   155          1
   156          0