##TITLE=Library Entry 29041
##JCAMP-DX=Revision 4.10 
##DATA TYPE=MASS SPECTRUM
##SAMPLE DESCRIPTION=M. LOZYNSKI, POZNAN TECH. UNIV., POZNAN, POLAND
##NAMES=HP
##CAS NAME=Methylcarbamothioic acid, O-propyl ester
##MOLFORM=C5H11NOS
##CAS REGISTRY NO=88568-70-1
##MP= -300
##BP= -300
##MW= 133
##$RETENTION INDEX=0
##$CONDENSED SPECTRUM=NO
##NPOINTS= 30
##XYDATA=(XY..XY) 1 
    27         32
    28        190
    29        140
    30        280
    31         60
    32         72
    38        110
    39         24
    40        240
    41        190
    42        250
    43         32
    44         48
    46         72
    58        999
    59         68
    60         88
    61         40
    72         40
    73         48
    74        340
    75         68
    76         68
    91        210
    92        420
    93         36
    94         36
   133        550
   134         62
   135         40