##TITLE=Library Entry 71453
##JCAMP-DX=Revision 4.10 
##DATA TYPE=MASS SPECTRUM
##SAMPLE DESCRIPTION=Chemical Concepts
##NAMES=HP
##CAS NAME=Anthranilic acid, 2-(1-piperidyl)ethyl ester
##MOLFORM=C14H20N2O2
##CAS REGISTRY NO=88562-51-0
##MP= -300
##BP= -300
##MW= 248
##$RETENTION INDEX=0
##$CONDENSED SPECTRUM=NO
##NPOINTS= 72
##XYDATA=(XY..XY) 1 
    26          1
    27          7
    28         10
    29          9
    30         10
    39         10
    40          1
    41         38
    42         29
    43         10
    44         19
    45          1
    50          0
    51          0
    52          1
    53          2
    54          4
    55         37
    56         15
    57         10
    58          1
    60          1
    63          2
    64          3
    65         23
    66          3
    67          3
    68          3
    69         20
    70         20
    71          5
    73          1
    77          1
    79          0
    80          0
    81          3
    82          6
    83         14
    84          9
    85          3
    86          1
    90          1
    91          3
    92         30
    93          4
    94          1
    95          2
    96         26
    97          6
    98        999
    99         44
   100          2
   108          0
   109          2
   110          9
   111        206
   112         17
   113          1
   119          6
   120         33
   121          3
   123          1
   125          1
   127          1
   128          4
   137          1
   139          0
   141          1
   164          6
   165          0
   248          5
   249          1