##TITLE=Library Entry 6931
##JCAMP-DX=Revision 4.10 
##DATA TYPE=MASS SPECTRUM
##SAMPLE DESCRIPTION=A.A.Kutin, Moscow, Russia
##NAMES=HP
##CAS NAME=Thiazole, 4-(2-ethyl-2-methyloxan-4-yl)-2-phenyl-
##MOLFORM=C17H21NOS
##CAS REGISTRY NO=88572-15-0
##MP= -300
##BP= -300
##MW= 287
##$RETENTION INDEX=0
##$CONDENSED SPECTRUM=NO
##NPOINTS= 183
##XYDATA=(XY..XY) 1 
    33         16
    34          7
    36          1
    37          7
    39        377
    40         86
    41        324
    43        999
    45        420
    47         28
    48          1
    50         60
    51        132
    52         47
    53        136
    54         25
    55        201
    57        203
    58        248
    59         37
    60         15
    61          6
    62         13
    63         36
    64         13
    65         57
    66         18
    67         51
    69        104
    70         28
    71         80
    72         24
    73         44
    74         10
    75         21
    76         88
    77        216
    78         44
    79         40
    80          7
    81         14
    82         25
    83         73
    84        171
    85         74
    86         13
    87         10
    88          6
    89         14
    90         12
    91         30
    92          7
    93         12
    94          7
    95         12
    97        234
    98         22
    99         16
   100          6
   101          5
   102         10
   103         76
   104        155
   105         20
   106          9
   107          7
   108          7
   109         16
   110         13
   111         53
   112         17
   113         10
   114          4
   115         11
   116          7
   117          3
   118          3
   119          5
   121        179
   122         37
   123         13
   124          3
   125          2
   127          8
   128         11
   129         14
   130          4
   131          0
   132          1
   134         11
   135          5
   136          8
   137          3
   138          3
   139          2
   140          3
   141          2
   142          0
   143          3
   144          2
   145          0
   146          0
   148          1
   150          1
   152          1
   153          2
   154          3
   155          2
   156          3
   158          1
   160          2
   161          7
   162          9
   163          1
   164          0
   166          1
   167          1
   168          1
   170          1
   171          2
   172          1
   173          2
   174         19
   175         19
   176          3
   177          1
   178          2
   180          5
   181          2
   182          4
   183          1
   184          3
   186         91
   187        101
   188        404
   189         79
   190         27
   191          3
   197          1
   198          5
   199         12
   200         95
   201         22
   202         14
   203          4
   204          0
   210          4
   211          0
   212         16
   213         10
   214        153
   215         50
   216        149
   217        245
   218         44
   219         14
   220          2
   226          3
   227          1
   228          6
   230         51
   231          7
   232          3
   240          0
   242          8
   243          7
   244         18
   245          2
   254          4
   256         16
   258        407
   259         67
   260         21
   261          3
   270          0
   272         43
   273          7
   274          2
   284          0
   286          3
   287         49
   288          8
   289          2