##TITLE=Library Entry 6022
##JCAMP-DX=Revision 4.10 
##DATA TYPE=MASS SPECTRUM
##SAMPLE DESCRIPTION=Mark Whitten, Florida Museum of Natural History, U. of
 Florida
##NAMES=HP
##CAS NAME=Cedran-diol, 8S,13-
##MOLFORM=C15H26O2
##CAS REGISTRY NO=88588-48-1
##MP= -300
##BP= -300
##MW= 238
##$RETENTION INDEX=0
##$CONDENSED SPECTRUM=NO
##NPOINTS= 140
##XYDATA=(XY..XY) 1 
    41        636
    43        999
    44         34
    45         57
    47          6
    51         37
    52         23
    53        159
    55        463
    56         61
    57        151
    58         42
    59         62
    60          5
    61          5
    63         10
    65         92
    66         27
    67        193
    68         41
    69        160
    70         27
    71        114
    72         23
    74        347
    75         85
    77        208
    78         47
    79        263
    80         44
    81        225
    82         38
    83         78
    84         50
    85         30
    87        207
    88         21
    89         12
    91        293
    92         62
    93        340
    94         89
    95        177
    96         31
    97         73
    98         20
    99         15
   100          8
   101         26
   102          9
   103         27
   105        277
   106         93
   107        278
   108         61
   109         92
   110         23
   111         36
   112          9
   113          6
   115         52
   116         19
   117         43
   118         28
   119        426
   120         90
   121        206
   122         54
   123         48
   124         13
   125         13
   126          4
   127          9
   128         18
   129         46
   130         17
   131         70
   132         59
   133        129
   134        109
   135        154
   136         29
   137         28
   138          8
   139          8
   142          5
   143         71
   144         17
   145         89
   146         39
   147        230
   148         94
   149        422
   150         78
   151         22
   152          8
   153          6
   157         19
   158          8
   159         42
   160         25
   161        333
   162         98
   163         56
   164         19
   165         15
   166         25
   167          8
   171         29
   172          6
   173         18
   174         13
   175         49
   176         13
   177         54
   178         21
   179         22
   185         26
   186          6
   187         54
   188         11
   189         49
   190        328
   191         64
   192         14
   193          8
   199         20
   200         11
   201          6
   202         38
   203         10
   205         35
   206          6
   207         12
   208         27
   209          6
   220         18
   221          6
   223         12
   238          7