##TITLE=Library Entry 31693
##JCAMP-DX=Revision 4.10 
##DATA TYPE=MASS SPECTRUM
##SAMPLE DESCRIPTION=Japan AIST/NIMC Database- Spectrum MS-IW-2544
##NAMES=HP
##CAS NAME=2-Chloroethyl N,N'-(m-phenylene)dicarbamate
##MOLFORM=C12H14Cl2N2O4
##CAS REGISTRY NO=88618-37-5
##MP= -300
##BP= -300
##MW= 320
##$RETENTION INDEX=0
##$CONDENSED SPECTRUM=NO
##NPOINTS= 230
##XYDATA=(XY..XY) 1 
    12          1
    13          3
    14         14
    15         76
    16          3
    17         12
    18          1
    24          1
    25          6
    26         50
    27        750
    28        111
    29         84
    30         16
    31        923
    32         16
    33          3
    35         12
    36         91
    37         26
    38         62
    39         97
    40         23
    41         21
    42         33
    43        100
    44         71
    45         57
    46          1
    47          7
    48         10
    49         57
    50         61
    51        131
    52        110
    53         50
    54         14
    55          3
    56          3
    57          2
    58          1
    59          2
    60          4
    61         19
    62         41
    63        999
    64        112
    65        365
    66         34
    67         18
    68          8
    69          2
    70          1
    71          1
    72          3
    73          1
    74          4
    75         14
    76         47
    77        208
    78        119
    79         78
    80        139
    81         29
    82         15
    83          3
    85          1
    86          1
    87          3
    88          7
    89         29
    90        117
    91         86
    92         32
    93         24
    94         22
    95          5
    96          1
    97          1
    99          1
   101          1
   102          4
   103          9
   104        182
   105        101
   106        191
   107         42
   108         58
   109          7
   110          1
   111          1
   113          1
   114          1
   115          1
   116         13
   117         12
   118         87
   119         47
   120         21
   121         54
   122         12
   123          4
   124          3
   125          3
   126          5
   127          1
   128          2
   131         10
   132         91
   133        206
   134        537
   135         85
   136         17
   137          3
   138          1
   141          1
   142          9
   143          4
   144          5
   145         41
   146         13
   147        565
   148         55
   149         22
   150         20
   151         13
   152         33
   153          5
   154         20
   155          3
   156          7
   157          1
   158          1
   159         14
   160        960
   161        430
   162         48
   163         10
   164          3
   165        126
   166         12
   167          1
   168         16
   169          5
   170         18
   171          3
   172          4
   173          1
   175          1
   176          3
   177         26
   178        219
   179         43
   180          5
   181          3
   183          3
   184          1
   185          2
   186          4
   187         10
   188          2
   189          2
   190          2
   191         22
   192          6
   193          2
   194          1
   195          4
   196          3
   197          4
   198          5
   199          2
   200          2
   203          3
   204        162
   205         35
   206          6
   207          3
   209          1
   211          4
   212          2
   213         18
   214         72
   215         15
   216         24
   217          3
   221          2
   222          5
   223          2
   225          3
   226          1
   227        190
   228         21
   229         61
   230          8
   231          1
   235          1
   236          1
   239          8
   240        969
   241        236
   242        334
   243         77
   244          9
   245          1
   248         14
   249          2
   250          3
   256          1
   257          5
   258         24
   259          4
   260          8
   261          1
   272          7
   273          1
   274          2
   278          1
   284         92
   285         15
   286         35
   287          6
   288          2
   320        964
   321        139
   322        631
   323         88
   324        109
   325         14
   326          1