##TITLE=Library Entry 34206
##JCAMP-DX=Revision 4.10 
##DATA TYPE=MASS SPECTRUM
##SAMPLE DESCRIPTION=P.A. Leclercq, Lab. Instrum. Anal., Eindhoven Univ. Tec
hnol., Netherlands
##NAMES=HP
##CAS NAME=Benzonitrile, 4-(4'-propyl[1,1'-bicyclohexyl]-4-yl)-
##MOLFORM=C22H31N
##CAS REGISTRY NO=88639-41-2
##MP= -300
##BP= -300
##MW= 309
##$RETENTION INDEX=0
##$CONDENSED SPECTRUM=NO
##NPOINTS= 95
##XYDATA=(XY..XY) 1 
    27        124
    28         52
    29        199
    39        129
    41        670
    42         63
    43        165
    51         22
    53        109
    55        650
    56         48
    57        204
    65         47
    67        293
    69        999
    70         67
    71         11
    76         15
    77         74
    78         26
    79        131
    80         59
    81        286
    82        344
    83        613
    84         41
    89         57
    90         16
    91         40
    93         30
    94         25
    95        125
    96         60
    97         35
   101         16
   102         46
   103         57
   104         70
   105         14
   107         14
   108         24
   109        100
   110         32
   111         24
   112         14
   116        528
   117        111
   118         13
   121         19
   122         51
   123        114
   124        114
   125        194
   126         25
   127         36
   129        486
   130        259
   131         46
   137         22
   138         23
   140         69
   142        203
   143         63
   144         38
   153         30
   154         69
   155         40
   156         48
   157         43
   158         15
   163         63
   164         21
   166         17
   167         37
   168        101
   169         17
   170         39
   171         16
   177         16
   180         17
   182         54
   183         93
   184        218
   185        207
   186        168
   187         25
   198         34
   203        159
   204        335
   205         58
   206        114
   207         40
   266         28
   309        367
   310         87