##TITLE=Library Entry 23792
##JCAMP-DX=Revision 4.10 
##DATA TYPE=MASS SPECTRUM
##SAMPLE DESCRIPTION=Chemical Concepts
##NAMES=HP
##CAS NAME=Pivalic acid, (9-borabicyclo[3.3.1]non-9-yl) ester
##MOLFORM=C13H23BO2
##CAS REGISTRY NO=88644-66-0
##MP= -300
##BP= -300
##MW= 222
##$RETENTION INDEX=0
##$CONDENSED SPECTRUM=NO
##NPOINTS= 96
##XYDATA=(XY..XY) 1 
    27         49
    28          5
    29        143
    30          3
    31          1
    36          0
    37          2
    38          4
    39         73
    40         13
    41        222
    42         40
    43         27
    44          0
    45          1
    49          0
    50          0
    51          5
    52          4
    53         20
    54         19
    55         59
    56         41
    57        999
    58         41
    59          1
    61          0
    62          0
    63          1
    64          2
    65          9
    66          8
    67         54
    68         25
    69         37
    70         15
    71         14
    72          0
    73          0
    75          0
    76          0
    77          4
    78          1
    79          9
    80          8
    81         30
    82         30
    83         12
    84          3
    85        151
    86          9
    87          1
    88          0
    89          0
    90          0
    91          2
    92          0
    93          4
    94          4
    95         28
    96         39
    97         44
    98          3
    99          0
   108          9
   109         18
   110         76
   111          6
   112          1
   122          0
   123          1
   124          0
   126          0
   127          0
   136          1
   137         47
   138        191
   139         19
   140          2
   152          0
   164          1
   165          5
   166          0
   167          0
   169          0
   170          0
   178          0
   179          0
   181          0
   193          1
   194          5
   195          0
   221         16
   222         65
   223         10
   224          1