##TITLE=Library Entry 53125
##JCAMP-DX=Revision 4.10 
##DATA TYPE=MASS SPECTRUM
##SAMPLE DESCRIPTION=P. Vainiotalo, Dep. Chem., Joensuu Univ., Joensuu, Finl
and
##NAMES=HP
##CAS NAME=Bicyclo[2.2.1]heptane-1-carbonitrile, 4,7,7-trimethyl-3-oxo-
##MOLFORM=C11H15NO
##CAS REGISTRY NO=88653-54-7
##MP= -300
##BP= -300
##MW= 177
##$RETENTION INDEX=0
##$CONDENSED SPECTRUM=NO
##NPOINTS= 72
##XYDATA=(XY..XY) 1 
    14         21
    15         12
    26         12
    27        124
    29         77
    38         11
    39        192
    40         42
    41        328
    42         38
    43         86
    50         12
    51         47
    52         33
    53         96
    54         27
    55        380
    56        106
    57         55
    63         14
    64         13
    65         56
    66         42
    67         85
    68         18
    69        107
    70         28
    77         76
    78         22
    79         67
    80         22
    81         29
    82         28
    83        999
    84        110
    91         62
    92         38
    93        142
    94         91
    95         26
    96         11
    97         35
   103         11
   104         21
   105         23
   106         36
   107         92
   108         33
   109         24
   111         43
   116         13
   117         16
   118         93
   119         36
   120        857
   121        120
   122         25
   123         15
   132         35
   133        697
   134        243
   135        178
   136         30
   146         18
   148         60
   149         56
   150         10
   161         13
   162         42
   163         22
   177        322
   178         46