##TITLE=Library Entry 83705
##JCAMP-DX=Revision 4.10 
##DATA TYPE=MASS SPECTRUM
##SAMPLE DESCRIPTION=P. Vainiotalo, Dep. Chem., Joensuu Univ., Joensuu, Finl
and
##NAMES=HP
##CAS NAME=Bicyclo[2.2.1]heptan-2-one, 4-methoxy-1,7,7-trimethyl-
##MOLFORM=C11H18O2
##CAS REGISTRY NO=88653-52-5
##MP= -300
##BP= -300
##MW= 182
##$RETENTION INDEX=0
##$CONDENSED SPECTRUM=NO
##NPOINTS= 77
##XYDATA=(XY..XY) 1 
    14         11
    15         35
    26         10
    27        151
    29        135
    31         23
    39        216
    40         64
    41        540
    42        101
    43        245
    44         22
    45         55
    51         36
    52         23
    53        142
    54         53
    55        618
    56         37
    57         30
    59         54
    63         15
    65         53
    66         20
    67        245
    68         84
    69        135
    70         23
    71         35
    72        669
    73         66
    74         15
    77         88
    78         18
    79        116
    80         24
    81        107
    82        116
    83        852
    84        136
    85         53
    91         91
    92         16
    93         97
    94         26
    95         57
    96         22
    97         95
    98        431
    99         70
   100         13
   105         20
   107        999
   108        119
   109         77
   110         31
   111        197
   112         23
   121         17
   122        753
   123        141
   124         27
   125        252
   126         35
   135         22
   139        454
   140        357
   141         32
   150         72
   151         17
   153         19
   154        112
   155         11
   167         37
   168          4
   182        559
   183         71