##TITLE=Library Entry 17824
##JCAMP-DX=Revision 4.10 
##DATA TYPE=MASS SPECTRUM
##SAMPLE DESCRIPTION=J. SHAW, BORRISTON RESEARCH, ROCKVILLE, MD, USA
##NAMES=HP
##CAS NAME=Monomethyl 2,3,5,6-tetrachloroterephthalate
##MOLFORM=C9H4Cl4O4
##CAS REGISTRY NO=887-54-7
##MP= -300
##BP= -300
##MW= 316
##$RETENTION INDEX=0
##$CONDENSED SPECTRUM=NO
##NPOINTS= 175
##XYDATA=(XY..XY) 1 
    35        160
    36        330
    37        173
    38         71
    39         44
    41         98
    42         35
    43        191
    44        446
    45        999
    47        200
    48         35
    49        102
    50         26
    51         26
    52          9
    53         22
    55         53
    56         13
    57         53
    59        660
    60        147
    61        120
    62         35
    63         57
    65         22
    67         31
    69         31
    71        294
    72        245
    73        325
    74         49
    75         22
    76         13
    77         31
    78          4
    79          9
    81          9
    83        111
    84         89
    85         57
    87        191
    89        124
    91         17
    95        187
    96        115
    97         84
    98         26
    99         13
   100          4
   101          4
   103          4
   106        106
   107        696
   108        455
   109        245
   110        129
   111         49
   112          4
   113         17
   117         22
   118        169
   119         35
   120        115
   121         57
   122         40
   123         40
   124         49
   125         13
   126          9
   130         93
   131        133
   132         62
   133         93
   134         49
   135        120
   136         26
   137         17
   142        839
   143        249
   144        482
   145        151
   146         84
   147         40
   148          4
   149         22
   150         22
   151         17
   153          9
   157          9
   158         13
   159         62
   160         13
   161         35
   162          4
   165        102
   166         22
   167         98
   168         22
   169         31
   170          4
   171          9
   173          4
   177        209
   178        120
   179        205
   180        106
   181         66
   182         31
   183          4
   187         26
   189         13
   193         49
   194         49
   195         53
   196         49
   197         13
   198         22
   201        111
   203        156
   204          9
   205        142
   206         13
   207         84
   208          9
   209         22
   212         44
   213        151
   214         57
   215        196
   216         31
   217         84
   218          4
   219         13
   221         93
   222         17
   223         84
   224         13
   225         26
   231          4
   233          4
   240         22
   241        191
   242         40
   243        240
   244         26
   245        111
   246          4
   247         17
   257         26
   259         35
   261         13
   266          4
   272         31
   273          4
   274         35
   276         13
   281          4
   283          4
   285        767
   286         80
   287        955
   288         84
   289        451
   290         31
   291         89
   299          4
   301          9
   316        196
   317         17
   318        254
   319         17
   320        115
   321          4
   322         17