##TITLE=Library Entry 26241
##JCAMP-DX=Revision 4.10 
##DATA TYPE=MASS SPECTRUM
##SAMPLE DESCRIPTION=Chemical Concepts
##NAMES=HP
##CAS NAME=3,7-Undecanedione, 6,6,10-trimethyl-
##MOLFORM=C14H26O2
##CAS REGISTRY NO=88725-83-1
##MP= -300
##BP= -300
##MW= 226
##$RETENTION INDEX=0
##$CONDENSED SPECTRUM=NO
##NPOINTS= 131
##XYDATA=(XY..XY) 1 
    26          6
    27         89
    28         21
    29        297
    30          7
    31          6
    35          2
    36         14
    38          4
    39         48
    40         11
    41        186
    42         41
    43        383
    44         15
    45          4
    48          2
    49          2
    50          2
    51          5
    52          3
    53         29
    54          7
    55        144
    56         45
    57        999
    58         40
    59          7
    65          5
    66          4
    67         36
    68          6
    69        100
    70         44
    71        219
    72         79
    73         12
    77          8
    78          2
    79          8
    80          3
    81        349
    82         28
    83         31
    84         14
    85         74
    86        198
    87         14
    88          2
    91          6
    92          2
    93          5
    95         18
    96          4
    97         24
    98         83
    99        843
   100         67
   101          5
   105          3
   107          4
   109        167
   110         19
   111         12
   112          3
   113          8
   114          3
   115          3
   119          2
   121          8
   122          1
   123         11
   124          3
   125          4
   126         29
   127        469
   129         14
   130          1
   133          2
   135          4
   136          1
   137         16
   138          3
   139          6
   140          4
   141         23
   142         32
   143          4
   149          3
   151          2
   152          8
   153          2
   154          2
   155         29
   156          4
   157          1
   161          4
   165          3
   166          0
   167          1
   168          1
   169         17
   170        269
   171         31
   172          3
   175          1
   179          7
   180          1
   181          2
   183          7
   184          1
   186          1
   189          1
   191          1
   193          5
   194          1
   195          1
   196          1
   197          4
   198          0
   205          1
   206          1
   207          1
   208          2
   209          1
   210          1
   211          7
   212          1
   225          2
   226          2
   227          2