##TITLE=Library Entry 11766
##JCAMP-DX=Revision 4.10 
##DATA TYPE=MASS SPECTRUM
##SAMPLE DESCRIPTION=Chemical Concepts
##NAMES=HP
##CAS NAME=Cyclopentanemethanol, 1-hydroxy-.alpha.,3,3-trimethyl-2-(3-methyl
-1,3-butadienyl)-
##MOLFORM=C14H24O2
##CAS REGISTRY NO=88725-85-3
##MP= -300
##BP= -300
##MW= 224
##$RETENTION INDEX=0
##$CONDENSED SPECTRUM=NO
##NPOINTS= 172
##XYDATA=(XY..XY) 1 
    26          8
    27        105
    28         27
    29        132
    30          6
    31         24
    38          5
    39        124
    40         25
    41        427
    42         33
    43        999
    44         41
    45        279
    46         10
    47          3
    50          8
    51         36
    52         18
    53        127
    54         19
    55        436
    56         76
    57        113
    58         15
    59         64
    60          6
    61          7
    63         14
    64          7
    65         89
    66         27
    67        215
    68         36
    69        846
    70         74
    71        163
    72         16
    73         25
    74         21
    75         11
    76          4
    77        230
    78         46
    79        248
    80        119
    81        697
    82        235
    83        310
    84         42
    85         51
    86         12
    87        100
    88          9
    89         10
    90          7
    91        251
    92         53
    93        377
    94         61
    95        387
    96         65
    97        183
    98         31
    99         99
   100         21
   101         37
   102          9
   103         26
   104         12
   105        218
   106         54
   107        556
   108        122
   109        360
   110         56
   111        126
   112         27
   113         17
   115         19
   116          8
   117         21
   118          7
   119        122
   120         28
   121        285
   122         83
   123        795
   124        112
   125        936
   126         99
   127         33
   128         12
   129         25
   130          7
   131         23
   132          8
   133         48
   134         15
   135        111
   136        268
   137        154
   138         36
   139         36
   140         10
   141         14
   142         13
   143        126
   144         14
   145         29
   146         10
   147         45
   148         17
   149         61
   150         33
   151         60
   152         12
   153         15
   154          6
   155         22
   156          9
   157          6
   159         11
   160          7
   161        238
   162         44
   163        114
   164         23
   165         75
   166         15
   167         26
   168         10
   169          6
   170          2
   171          4
   173         15
   174          4
   175          8
   176          3
   177         22
   178         17
   179        352
   180         55
   181        529
   182         76
   183         16
   184          2
   185          3
   186         12
   187          4
   188          3
   189          7
   191         37
   192          9
   193          9
   194          3
   195         27
   196          7
   197          7
   204          5
   205         20
   206         22
   207         10
   208          4
   209         14
   210          6
   211          3
   222          4
   223          7
   224        121
   225         21
   226          4