##TITLE=Library Entry 12850
##JCAMP-DX=Revision 4.10 
##DATA TYPE=MASS SPECTRUM
##SAMPLE DESCRIPTION=Chemical Concepts
##NAMES=HP
##CAS NAME=Ethanone, 1-[1-hydroxy-3,3-dimethyl-2-(3-methyl-1,3-butadienyl)cy
clopentyl]-, [1.alpha.,2.alpha.(E)]-
##MOLFORM=C14H22O2
##CAS REGISTRY NO=88725-75-1
##MP= -300
##BP= -300
##MW= 222
##$RETENTION INDEX=0
##$CONDENSED SPECTRUM=NO
##NPOINTS= 176
##XYDATA=(XY..XY) 1 
    26          3
    27         71
    28         20
    29        109
    30         12
    31         10
    36          0
    37          1
    38          4
    39        127
    40         26
    41        330
    42         27
    43        999
    44         41
    45         24
    50          8
    51         38
    52         23
    53        131
    54         20
    55        298
    56         63
    57        116
    58         20
    59         28
    60          4
    61          4
    62          2
    63         16
    64          7
    65         79
    66         28
    67        175
    68         35
    69        354
    70         41
    71        137
    72         13
    73          8
    74          5
    75          5
    76          3
    77        240
    78         45
    79        275
    80        146
    81        404
    82        103
    83        171
    84         25
    85         50
    86          9
    87         72
    88          7
    89          8
    90          5
    91        248
    92         46
    93        369
    94         65
    95        566
    96         92
    97        144
    98         23
    99         34
   100         12
   101          5
   102          4
   103         28
   104         13
   105        557
   106         78
   107        401
   108        110
   109        369
   110         57
   111        214
   112         31
   113        295
   114         24
   115         20
   116          7
   117         19
   118          6
   119        228
   120         53
   121        509
   122         86
   123        536
   124         76
   125        149
   126         62
   127        137
   128         23
   129         12
   130          8
   131         29
   132          8
   133         94
   134         21
   135        181
   136        107
   137        130
   138         74
   139         54
   140          8
   141         37
   142         15
   143          7
   144          3
   145         47
   146         18
   147         66
   148        111
   149         76
   150         18
   151         61
   152         15
   153        114
   154         18
   155         12
   156          7
   157          3
   158          2
   159         13
   160          6
   161        405
   162         63
   163        622
   164         92
   165         52
   166         34
   167         15
   168          5
   169          2
   170          0
   171         10
   172          2
   173          4
   174          3
   175          9
   176          7
   177         20
   178         14
   179        472
   180         72
   181         97
   182         12
   183          5
   184          1
   185          0
   186          2
   187          4
   188          2
   189        127
   190         18
   191         13
   192          4
   193         10
   194         23
   195         20
   196         19
   197          3
   198          0
   202          1
   203         25
   204        348
   205         61
   206         12
   207         35
   208          7
   221          5
   222        155
   223         29
   224          8