##TITLE=Library Entry 85626
##JCAMP-DX=Revision 4.10 
##DATA TYPE=MASS SPECTRUM
##SAMPLE DESCRIPTION=NIST Mass Spectrometry Data Center, 2010
##NAMES=HP
##CAS NAME=(1aR,4S,4aR,7R,7aS,7bS)-1,1,4,7-Tetramethyldecahydro-1H-cycloprop
a[e]azulen-4-ol
##MOLFORM=C15H26O
##CAS REGISTRY NO=88728-58-9
##MP= -300
##BP= -300
##MW= 222
##$RETENTION INDEX=1585
##$CONDENSED SPECTRUM=NO
##NPOINTS= 102
##XYDATA=(XY..XY) 1 
    27         45
    29         80
    31         10
    39        150
    40         29
    41        563
    42         54
    43        942
    44         23
    45         36
    51         40
    52         19
    53        187
    54         34
    55        466
    56         50
    57        100
    58         55
    59         56
    65        120
    66         44
    67        561
    68         66
    69        801
    70         64
    71        322
    72         25
    73         15
    77        274
    78         56
    79        455
    80        111
    81        550
    82        893
    83        227
    84         41
    85         26
    91        380
    92         82
    93        581
    94        152
    95        464
    96        156
    97         75
    98         37
   102          6
   103         27
   104         16
   105        653
   106        149
   107        500
   108        472
   109        999
   110        108
   111        136
   112         19
   113         10
   116         11
   117         40
   118         17
   119        522
   120        139
   121        513
   122        284
   123        167
   124         31
   125        139
   126         57
   127         94
   131         40
   133        252
   134         90
   135        183
   136        106
   137         68
   138         63
   139         61
   140         18
   147        199
   148        159
   149        163
   150         37
   151         69
   152         20
   160         17
   161        616
   162        158
   163         49
   164        110
   165         28
   175         63
   176         23
   179         38
   180          6
   189        245
   190         37
   204        269
   205         41
   207         27
   208          5
   222         67
   223         12