##TITLE=Library Entry 8990
##JCAMP-DX=Revision 4.10 
##DATA TYPE=MASS SPECTRUM
##SAMPLE DESCRIPTION=V.Zaikin,Inst.Petrochem.Synth.,RAS,Moscow
##NAMES=HP
##CAS NAME=Propanoic acid, 2-chloro-, 1-methylbutyl ester
##MOLFORM=C8H15ClO2
##CAS REGISTRY NO=88736-64-5
##MP= -300
##BP= -300
##MW= 178
##$RETENTION INDEX=1059
##$CONDENSED SPECTRUM=NO
##NPOINTS= 73
##XYDATA=(XY..XY) 1 
    25          8
    26         66
    27        299
    28         33
    29        193
    30          7
    39        115
    40         71
    41        290
    42        125
    43        999
    44          8
    50         33
    51          2
    52         10
    53          3
    54         10
    55        287
    56         83
    57         29
    58          7
    59          6
    60          3
    61          9
    62         11
    63        429
    64         39
    65        172
    66         11
    67          2
    68          4
    69         32
    70        187
    71        966
    72         96
    73         42
    74          6
    75          6
    76          6
    77          7
    81          8
    82          2
    83          4
    85          2
    86          4
    87         23
    88          5
    90          9
    91        526
    92         16
    93        175
    94          5
    95          4
    96          5
    97          6
   100          5
   103          3
   105          6
   106          2
   107         28
   108          3
   109         43
   110          3
   113          3
   114          2
   135        243
   136          9
   137         87
   138          3
   163         26
   165          8
   178          9
   180          3