##TITLE=Library Entry 60030
##JCAMP-DX=Revision 4.10 
##DATA TYPE=MASS SPECTRUM
##SAMPLE DESCRIPTION=V.Zaikin,Topchiev Inst.Petrochem.Synth.,Moscow
##NAMES=HP
##CAS NAME=3-Chloropropanoic acid, 2-pentyl ester
##MOLFORM=C8H15ClO2
##CAS REGISTRY NO=88736-67-8
##MP= -300
##BP= -300
##MW= 178
##$RETENTION INDEX=1128
##$CONDENSED SPECTRUM=NO
##NPOINTS= 86
##XYDATA=(XY..XY) 1 
    25          3
    26         30
    27        147
    28         18
    29         63
    30          4
    31          4
    35          8
    36         45
    37          4
    38         14
    39         86
    40         19
    41        127
    42        129
    43        168
    44          4
    45         29
    49          5
    52         28
    53         28
    54         13
    55        300
    56         21
    57          8
    58          5
    59          1
    60          1
    61          6
    62         12
    63        254
    64         10
    65         83
    66          4
    67         25
    68         16
    69         22
    70        438
    71        168
    72         12
    73         31
    74          3
    75          2
    77         12
    81          8
    82          4
    83          3
    84          2
    85          2
    86          5
    87         19
    89          4
    90          2
    91        999
    92         40
    93        333
    94         13
    95          3
    96          4
    97          2
    99         54
   100          4
   105          1
   106          6
   107          2
   108         33
   109         47
   110         11
   111         15
   113          3
   115          5
   119          1
   121          1
   124          1
   127         41
   128          4
   133          2
   134          6
   135        220
   136         17
   137         69
   138          4
   150          1
   163         14
   164          1
   165          5