##TITLE=Library Entry 17469
##JCAMP-DX=Revision 4.10 
##DATA TYPE=MASS SPECTRUM
##SAMPLE DESCRIPTION=Chemical Concepts
##NAMES=HP
##CAS NAME=1-Octene, 3-(methoxymethoxy)-
##MOLFORM=C10H20O2
##CAS REGISTRY NO=88738-34-5
##MP= -300
##BP= -300
##MW= 172
##$RETENTION INDEX=0
##$CONDENSED SPECTRUM=NO
##NPOINTS= 91
##XYDATA=(XY..XY) 1 
    25          1
    26          7
    27         52
    28          8
    29         49
    30          4
    31         11
    33          4
    37          1
    38          2
    39         47
    40          9
    41         97
    42         24
    43         47
    44          7
    45        999
    46         27
    47          4
    50          2
    51          4
    52          3
    53         18
    54         48
    55         84
    56         31
    57         34
    58         14
    59         19
    60          7
    61          6
    63          1
    65          4
    66          3
    67         24
    68         13
    69         95
    70         19
    71         51
    72         10
    73          4
    74          1
    75          1
    78          1
    79          4
    80          2
    81         12
    82          8
    83         21
    84         15
    85         12
    86          3
    87          2
    88          1
    91          1
    92          0
    93          1
    95          4
    96          8
    97          7
    98          3
    99         11
   100          2
   101        394
   102         25
   103          3
   104          0
   105          0
   107          0
   108          1
   109          2
   110          9
   111         24
   112          5
   113          2
   114          1
   115         15
   116          2
   117          0
   122          1
   125          1
   126          1
   127          2
   128          8
   129          2
   140          1
   141          1
   142          2
   143          0
   145          2
   172          0