##TITLE=Library Entry 59330
##JCAMP-DX=Revision 4.10 
##DATA TYPE=MASS SPECTRUM
##SAMPLE DESCRIPTION=V.Zaikin,Topchiev Inst.Petrochem.Synth.,Moscow
##NAMES=HP
##CAS NAME=3-Chloropropanoic acid, 2-butyl ester
##MOLFORM=C7H13ClO2
##CAS REGISTRY NO=88736-65-6
##MP= -300
##BP= -300
##MW= 164
##$RETENTION INDEX=1042
##$CONDENSED SPECTRUM=NO
##NPOINTS= 76
##XYDATA=(XY..XY) 1 
    24          1
    25          6
    26         64
    27        302
    28         42
    29        197
    30          5
    31         10
    35         10
    36         59
    37          5
    38         20
    39         98
    40         17
    41        308
    42         36
    43         80
    44         15
    45         33
    46          1
    48          1
    49         14
    53         23
    54         12
    55        138
    56        552
    57        272
    58         10
    59          5
    60          1
    61          8
    62         14
    63        376
    64         13
    65        121
    66          3
    67          3
    68          2
    69          2
    71          2
    72         18
    73         66
    74          4
    75          2
    76          1
    77          8
    81          3
    82          1
    85          5
    89          4
    90          2
    91        999
    92         29
    93        327
    94         10
    95          2
    96          2
    99         31
   101          8
   108         40
   109         61
   110         14
   111         18
   113         24
   114          1
   120          3
   121          4
   122          1
   123          1
   133          2
   135         99
   136          4
   137         31
   138          1
   149         14
   151          4