##TITLE=Library Entry 90865
##JCAMP-DX=Revision 4.10 
##DATA TYPE=MASS SPECTRUM
##SAMPLE DESCRIPTION=A.A.Kutin, Moscow, Russia
##NAMES=HP
##CAS NAME=1,3,4-Thiadiazol-2-amine, 5-(4-flluorophenoxymethyl)-
##MOLFORM=C9H8FN3OS
##CAS REGISTRY NO=88743-02-6
##MP= -300
##BP= -300
##MW= 225
##$RETENTION INDEX=0
##$CONDENSED SPECTRUM=NO
##NPOINTS= 101
##XYDATA=(XY..XY) 1 
    33         24
    34          2
    35          0
    36          1
    37         11
    38         27
    39         41
    40         25
    41         27
    42         74
    43         17
    44         16
    45         60
    46         23
    47         25
    48          4
    49          6
    50         31
    51         20
    52          8
    53         10
    54          8
    55         15
    57        306
    58        243
    59        473
    60        418
    61         40
    62         47
    63         54
    64         20
    65          3
    66          1
    68         13
    69         26
    70          9
    71          5
    72         17
    73         12
    74         41
    75         73
    76          7
    77          4
    78          0
    79          1
    81         44
    83        312
    84         46
    85          2
    86          2
    87          1
    88          0
    89          0
    90          0
    91          0
    92          2
    93          4
    94         15
    95         84
    96          9
    97         13
    98          1
    99          0
   100          1
   102          0
   105          0
   107          2
   108          2
   109          3
   111        108
   112        102
   114        999
   115         52
   116         36
   117          1
   121          1
   122          0
   123          0
   125         13
   126          1
   127          1
   133          0
   136          2
   137          0
   138          0
   139          2
   141          4
   142          0
   143          0
   147          0
   149          0
   151          3
   152          0
   153          1
   155          0
   161          0
   169          0
   182          0
   225         38
   226          4
   227          1