##TITLE=Library Entry 67900
##JCAMP-DX=Revision 4.10 
##DATA TYPE=MASS SPECTRUM
##SAMPLE DESCRIPTION=Chemical Concepts
##NAMES=HP
##CAS NAME=Cyclohexanone, 3-hydroxy-2,4,4-trimethyl-3-(3-methyl-1,3-butadien
yl)-
##MOLFORM=C14H22O2
##CAS REGISTRY NO=88764-84-5
##MP= -300
##BP= -300
##MW= 222
##$RETENTION INDEX=0
##$CONDENSED SPECTRUM=NO
##NPOINTS= 134
##XYDATA=(XY..XY) 1 
    27        103
    28         55
    29        214
    38          7
    39        188
    40         35
    41        401
    42         51
    43        192
    44          8
    45          7
    50         13
    51         59
    52         28
    53        124
    54         16
    55        301
    56         88
    57        823
    58         42
    59         15
    63         35
    64         18
    65        143
    66         36
    67        319
    68         32
    69        159
    70         66
    71         37
    72         11
    74         15
    75         16
    76          8
    77        164
    78         52
    79        137
    80         27
    81         99
    82         25
    83         61
    84         12
    85         17
    89         15
    91        321
    92         49
    93        118
    94         36
    95        999
    97         75
    98         11
    99         16
   102         10
   103         45
   104         20
   105        413
   106        156
   107        179
   108         42
   109        333
   110         64
   111         37
   113         11
   115         64
   116         28
   117         70
   118         23
   119        496
   120        121
   121        103
   122         29
   123        289
   124         87
   125         36
   126        234
   127        554
   128         71
   129         40
   130         23
   131         83
   132         28
   133        721
   134        120
   135         76
   136         19
   137         22
   138        211
   139         32
   141         17
   142         11
   143         30
   144         11
   145         57
   146         27
   147        296
   148        433
   149         89
   150         13
   151         23
   152          7
   153         20
   155          9
   156         51
   157         15
   159         26
   160         13
   161        219
   162         43
   163        182
   164         23
   165         44
   166         80
   167         12
   171        139
   172         25
   173         13
   174         19
   175         31
   176         21
   179         12
   181         13
   187         21
   189        401
   190         64
   191          8
   193         13
   194         12
   203         25
   204        666
   205        120
   206         14
   207         15
   222        102
   223         20