##TITLE=Library Entry 76028
##JCAMP-DX=Revision 4.10 
##DATA TYPE=MASS SPECTRUM
##SAMPLE DESCRIPTION=Asinex Ltd, Moscow, Russia
##NAMES=HP
##CAS NAME=5-Phenyl-2-(4-phenyl-thiazol-2-yl)-2,4-dihydro-pyrazol-3-one
##MOLFORM=C18H13N3OS
##CAS REGISTRY NO=88783-67-9
##MP= -300
##BP= -300
##MW= 319
##$RETENTION INDEX=0
##$CONDENSED SPECTRUM=NO
##NPOINTS= 137
##XYDATA=(XY..XY) 1 
    33         79
    34         18
    36          2
    37         11
    38         41
    39        185
    40        242
    41         28
    42         41
    43         53
    44        147
    45        143
    46          9
    47          5
    48          8
    50        190
    51        432
    52        120
    53         23
    54          7
    55         14
    56          5
    57         19
    58         24
    59         15
    60          6
    61         11
    62         49
    63        175
    64         42
    65         35
    66          6
    67         11
    68         52
    69         59
    70         15
    71         12
    72          1
    73         10
    74         67
    75         99
    76        276
    77        463
    78         53
    79          9
    80          1
    81          7
    82         14
    83          6
    84          8
    85         11
    86          8
    87         16
    88         20
    89        240
    90         98
    91         78
    92         10
    93         16
    94          1
    95          4
    96          3
    98          5
    99          3
   100         16
   102        999
   103        231
   104        356
   105         49
   106          6
   108         22
   109          6
   110          1
   114         10
   115         24
   116        102
   117         88
   118         12
   119          3
   120         10
   121         30
   122          4
   123          3
   127          2
   129        111
   130         15
   131         27
   132         18
   134        268
   135         48
   136         13
   137          2
   142          1
   143         10
   144         46
   145         69
   146         40
   147         16
   148         23
   149          6
   150          4
   156          1
   157          4
   158          5
   160         82
   161         74
   162         58
   163          6
   171          6
   172          6
   173          7
   174         48
   175         18
   176         12
   185          1
   186          4
   187          9
   188         17
   189          2
   190          1
   202          2
   203          9
   216         17
   217          2
   262         30
   263          5
   274         11
   275          2
   286          6
   290          2
   315         18
   316         32
   317         30
   318        101
   319        384
   320         73
   321         20