##TITLE=Library Entry 82520
##JCAMP-DX=Revision 4.10 
##DATA TYPE=MASS SPECTRUM
##SAMPLE DESCRIPTION=A.A.Kutin, Moscow, Russia
##NAMES=HP
##CAS NAME=Pyridine-3-carboxylic acid, [4-(3-pyridylcarbonylamino)phenyl] es
ter
##MOLFORM=C18H13N3O3
##CAS REGISTRY NO=88783-76-0
##MP= -300
##BP= -300
##MW= 319
##$RETENTION INDEX=0
##$CONDENSED SPECTRUM=NO
##NPOINTS= 76
##XYDATA=(XY..XY) 1 
    36          8
    37         14
    38         41
    39        131
    40         19
    41         18
    42         45
    43        106
    44         91
    45          1
    50        158
    51        456
    52        189
    53        199
    54         32
    55          4
    63         31
    64         16
    65         28
    66         10
    67         12
    68         16
    69         30
    70         30
    71         32
    72          6
    77         25
    78        805
    79         90
    80         34
    81        136
    82         12
    83          4
    90          4
    91         14
    92          6
    93          6
    96          2
    97          9
    98          5
   106        999
   107         74
   108         86
   109         15
   110         33
   111          4
   112         14
   113          8
   114          1
   117          2
   118          1
   119          4
   120          2
   121          2
   122          1
   123          2
   124          1
   125          4
   126          1
   129          4
   130          2
   184          1
   185          2
   186          0
   213         18
   214        349
   215         43
   216          4
   217          0
   241          0
   283          3
   284          0
   301          1
   318          0
   319         15
   320          2