##TITLE=Library Entry 69358
##JCAMP-DX=Revision 4.10 
##DATA TYPE=MASS SPECTRUM
##SAMPLE DESCRIPTION=Chemical Concepts
##NAMES=HP
##CAS NAME=3-(6-Bromohexyl)-2,4,10-trioxaadamantane
##MOLFORM=C13H21BrO3
##CAS REGISTRY NO=88784-99-0
##MP= -300
##BP= -300
##MW= 304
##$RETENTION INDEX=0
##$CONDENSED SPECTRUM=NO
##NPOINTS= 132
##XYDATA=(XY..XY) 1 
    26          6
    27        127
    28         35
    29        113
    30          2
    31         32
    36          6
    38          2
    39         90
    40         28
    41        439
    42         76
    43        251
    44         17
    45         31
    50          2
    51          6
    52          5
    53         52
    54         35
    55        496
    56         62
    57        100
    58          5
    59         18
    60         17
    61          4
    63          2
    65         14
    66         18
    67        309
    68        464
    69        168
    70         34
    71         25
    72          1
    73         16
    74         30
    75          3
    77         20
    78          9
    79        143
    80         17
    81         97
    82         16
    83        862
    84         79
    85         20
    86          3
    87         14
    88          2
    91          4
    92          1
    93         11
    94          6
    95         65
    96        999
    97        153
    98         13
    99          5
   100          2
   101          3
   105          1
   107         17
   109         17
   110          7
   111         50
   112          7
   113         15
   114          9
   115          3
   119          2
   121         40
   122          2
   123         37
   124          2
   125          5
   126          1
   127          4
   128          2
   129          5
   135          3
   137          4
   138          5
   139          3
   141          4
   147         47
   148          4
   155          2
   156        166
   157         16
   158          2
   163          2
   165          4
   169         19
   170          4
   171          1
   179          2
   183         11
   191        822
   192         71
   193        797
   194         70
   195          4
   197          5
   209         36
   210          2
   211         35
   212          3
   223          2
   225        260
   226         37
   227          4
   235         11
   237         11
   247          1
   249          1
   260         21
   261          3
   262         19
   263          9
   265          6
   275          2
   276          5
   277          3
   278          5
   300          2
   303          2
   304         53
   305         10
   306         53
   307          8