##TITLE=Library Entry 9898
##JCAMP-DX=Revision 4.10 
##DATA TYPE=MASS SPECTRUM
##SAMPLE DESCRIPTION=Chemical Concepts
##NAMES=HP
##CAS NAME=1,3-Dioxolan-4-one, 2-t-butyl-5-methyl-5-(4,4-dimethoxypentyl)-
##MOLFORM=C15H28O5
##CAS REGISTRY NO=88794-76-7
##MP= -300
##BP= -300
##MW= 288
##$RETENTION INDEX=0
##$CONDENSED SPECTRUM=NO
##NPOINTS= 127
##XYDATA=(XY..XY) 1 
    26         10
    27        129
    29        207
    30         16
    31         99
    33          7
    38          7
    39        140
    40         37
    41        409
    42        155
    43        999
    44         36
    45         97
    46          2
    47         29
    48          3
    49         42
    50          3
    51         13
    52          5
    53         62
    54         34
    55        260
    56         36
    57        431
    58        106
    59        141
    60          6
    61          3
    63          2
    65         13
    66          6
    67         63
    68         20
    69        116
    70        114
    71        853
    72        262
    73         69
    74          9
    75         13
    77         18
    78          3
    79         17
    80          4
    81         18
    82         23
    83         80
    84        149
    85        880
    86         77
    87        125
    88         10
    89         32
    90          9
    91         13
    92          3
    93         39
    94         10
    95         70
    96         25
    97         42
    98         40
    99        113
   100         13
   101         14
   102         11
   103          5
   104          3
   105         11
   107          4
   108          2
   109         23
   110         32
   111        709
   112        193
   113         52
   114         11
   115          9
   117         46
   119         45
   121         22
   122          5
   123         10
   124          8
   125        460
   126        326
   127         41
   128          8
   129        505
   130         44
   131         15
   132          2
   135          3
   137          7
   138         43
   139         34
   140          7
   141         15
   142          9
   143        135
   144         14
   145          3
   149          4
   152          7
   153        176
   154         41
   155         24
   156         21
   157         23
   158         56
   159         10
   167          5
   169          2
   170         35
   171         14
   185        169
   186         18
   187          7
   199         17
   200          2
   226          8
   227          8
   228          9
   256          4
   257          2