##TITLE=Library Entry 70875
##JCAMP-DX=Revision 4.10 
##DATA TYPE=MASS SPECTRUM
##SAMPLE DESCRIPTION=A.A.Kutin, Moscow, Russia
##NAMES=HP
##CAS NAME=1-(2,2-Dimethyl-tetrahydro-pyran-4-yl)-butan-1-one
##MOLFORM=C11H20O2
##CAS REGISTRY NO=88795-86-2
##MP= -300
##BP= -300
##MW= 184
##$RETENTION INDEX=0
##$CONDENSED SPECTRUM=NO
##NPOINTS= 71
##XYDATA=(XY..XY) 1 
    39        234
    41        470
    43        724
    44         11
    45          2
    51         12
    53         91
    55        610
    57         81
    58         27
    59        102
    65         18
    67         67
    68         23
    69         86
    71        485
    72         13
    73          8
    77         36
    78          2
    79         41
    81         55
    83        397
    84         29
    85         35
    91         35
    93         26
    95         60
    96         55
    98        999
    99        139
   100         34
   105         10
   107         10
   108          2
   109         37
   111        268
   112         35
   113         50
   115         14
   116          5
   117          8
   119          5
   123         20
   124          2
   125         74
   126        108
   128        368
   129         24
   131          4
   137          3
   139          4
   140         53
   141         80
   142          4
   143          3
   151         16
   153         47
   154          7
   155          2
   157          2
   159          1
   163          4
   165         18
   167         21
   169        580
   170         64
   171         18
   183         27
   184         65
   185          4