##TITLE=Library Entry 50898
##JCAMP-DX=Revision 4.10 
##DATA TYPE=MASS SPECTRUM
##SAMPLE DESCRIPTION=ASES Database, Dalian Institute, P.R. China
##NAMES=HP
##CAS NAME=3,7-Diisopropyl-5-methyl-1,2(4H)-diazepine
##MOLFORM=C12H20N2
##CAS REGISTRY NO=88829-71-4
##MP= -300
##BP= -300
##MW= 192
##$RETENTION INDEX=0
##$CONDENSED SPECTRUM=NO
##NPOINTS= 50
##XYDATA=(XY..XY) 1 
    53        147
    54         88
    66         90
    70         99
    80        211
    81        999
    91        168
    94        171
    95        101
    96         29
   103         19
   104          9
   105         79
   106         90
   107        178
   108        881
   109        119
   117         69
   118         59
   119         50
   120         29
   121         69
   122        109
   123        170
   124         60
   125         29
   132         10
   133         10
   134         19
   135        210
   136         59
   137         20
   146         10
   147         20
   148         10
   149        159
   150         30
   151          9
   161         29
   162        109
   163         58
   164        707
   165        100
   175         20
   176         80
   177        948
   178        150
   191         90
   192        397
   193         89