##TITLE=Library Entry 8193
##JCAMP-DX=Revision 4.10 
##DATA TYPE=MASS SPECTRUM
##SAMPLE DESCRIPTION=V.G.Zaikin, TIPS, Russian Acad. Sci.
##NAMES=HP
##CAS NAME=1,1,2-Trimethyl-1-sila-3-thiacyclohexane
##MOLFORM=C7H16SSi
##CAS REGISTRY NO=88820-74-0
##MP= -300
##BP= -300
##MW= 160
##$RETENTION INDEX=0
##$CONDENSED SPECTRUM=NO
##NPOINTS= 78
##XYDATA=(XY..XY) 1 
    26         40
    27        240
    28        120
    29        250
    30         20
    31        350
    32         20
    39        160
    40         40
    41        360
    42        140
    43        999
    44        350
    45        490
    46         80
    47         40
    53         60
    55        200
    56         40
    57        110
    58        400
    59        890
    60        260
    61        170
    62         30
    63         40
    67         50
    68         20
    69         70
    70         50
    71        100
    72        780
    73        320
    74         80
    75        630
    76        100
    77        260
    78         20
    79         30
    83         50
    84         20
    85        160
    86         70
    87         50
    88         20
    89        100
    90        360
    91        440
    92         80
    93         50
    95         20
    97         30
    98         10
    99         40
   101         40
   103        110
   104         20
   105         40
   111        220
   112         30
   115         60
   117        730
   118        110
   119        170
   120         20
   121         20
   126         30
   131         30
   132         60
   144         30
   145        520
   146        100
   147         60
   159         20
   160        210
   161         30
   162         18
   163          2