##TITLE=Library Entry 60728
##JCAMP-DX=Revision 4.10 
##DATA TYPE=MASS SPECTRUM
##SAMPLE DESCRIPTION=NIST Mass Spectrometry Data Center
##NAMES=HP
##CAS NAME=4,11,11-trimethyl-8-methylenebicyclo[7.2.0]undec-3-ene
##MOLFORM=C15H24
##CAS REGISTRY NO=889360-49-0
##MP= -300
##BP= -300
##MW= 204
##$RETENTION INDEX=1460
##$CONDENSED SPECTRUM=NO
##NPOINTS= 98
##XYDATA=(XY..XY) 1 
    26          5
    27         95
    29         90
    38          8
    39        274
    40         60
    41        604
    42         45
    43        153
    50         28
    51        116
    52         49
    53        271
    54         37
    55        389
    56         70
    57         47
    60          6
    63         42
    64         14
    65        230
    66        109
    67        436
    68         99
    69        210
    70         23
    72          7
    73          9
    75         13
    76          8
    77        500
    78        143
    79        861
    80        474
    81        600
    82        171
    83         17
    84         12
    89         27
    91        999
    92        673
    93        935
    94        284
    95        204
    96         43
   102          9
   103         69
   104         52
   105        930
   106        329
   107        684
   108        197
   109        247
   110         14
   115         66
   116         27
   117        100
   118         15
   119        672
   120        225
   121        483
   122        266
   123        125
   124         19
   126         12
   127          6
   128         27
   129         19
   130         15
   131         51
   132         30
   133        923
   134        311
   135        458
   136         79
   138         14
   145         30
   147        142
   148        196
   149        103
   151         23
   152         26
   156          8
   160         10
   161        440
   162        139
   163         48
   164         76
   165         19
   175         79
   176         32
   177          9
   189        400
   190         64
   191          6
   192          6
   204        125
   205         15