##TITLE=Library Entry 68023
##JCAMP-DX=Revision 4.10 
##DATA TYPE=MASS SPECTRUM
##SAMPLE DESCRIPTION=Japan AIST/NIMC Database- Spectrum MS-NW-5415
##NAMES=HP
##CAS NAME=Propyl 2,4-hexadienecarboxylate
##MOLFORM=C9H14O2
##CAS REGISTRY NO=88973-62-0
##MP= -300
##BP= -300
##MW= 154
##$RETENTION INDEX=1366
##$CONDENSED SPECTRUM=NO
##NPOINTS= 110
##XYDATA=(XY..XY) 1 
    14          2
    15         12
    16          1
    18          1
    25          1
    26         16
    27        145
    28         19
    29         28
    30          2
    31         17
    32          4
    33          1
    37          6
    38         23
    39        237
    40         56
    41        439
    42         33
    43        137
    44          7
    45          5
    47          2
    49          1
    50          9
    51         26
    52         16
    53         17
    54          4
    55         33
    56         10
    57          8
    58          7
    59         12
    60          2
    61          3
    62          7
    63         17
    64          6
    65         99
    66        119
    67        785
    68         77
    69         27
    70          9
    71          9
    72          1
    73          3
    74          1
    77          6
    78          2
    79          7
    80          1
    81         20
    82          7
    83         18
    84         37
    85          4
    86          1
    87          1
    89          1
    90          1
    91          6
    92          3
    93         16
    94         26
    95        999
    96         72
    97        776
    98         47
    99          6
   100         15
   101          6
   102          1
   104          2
   105          5
   106          1
   107          3
   108          1
   109          8
   110          2
   111         47
   112        524
   113         61
   114          5
   115          2
   117          1
   119          3
   120          1
   121          3
   122          1
   123          1
   125          8
   126          3
   127          1
   129          1
   131          1
   132          2
   133         11
   134          2
   135          2
   136          1
   137          4
   138          1
   139         23
   140          2
   153          1
   154        151
   155         17
   156          2