##TITLE=Library Entry 24833
##JCAMP-DX=Revision 4.10 
##DATA TYPE=MASS SPECTRUM
##SAMPLE DESCRIPTION=Chemical Concepts
##NAMES=HP
##CAS NAME=5-Bromopentanoic acid, t-butyl ester
##MOLFORM=C9H17BrO2
##CAS REGISTRY NO=88987-42-2
##MP= -300
##BP= -300
##MW= 236
##$RETENTION INDEX=0
##$CONDENSED SPECTRUM=NO
##NPOINTS= 74
##XYDATA=(XY..XY) 1 
    26         11
    27        104
    28         50
    29        185
    30          5
    31         12
    38          5
    39         80
    40         15
    41        281
    42         24
    43         61
    44          3
    45          5
    50          5
    51          9
    52          3
    53         20
    54          9
    55        263
    56        308
    57        999
    58         56
    59         35
    60          2
    65          2
    69          4
    70          3
    71          5
    73         11
    74          2
    77          7
    80          4
    81          3
    82          5
    83         25
    84          3
    85          3
    87          8
    91          4
    93          5
    95          6
    97          3
   100          5
   101        115
   102          7
   105          2
   106          3
   107         10
   108          3
   109          8
   115          9
   129          3
   135        107
   136          6
   137        103
   138          6
   141          6
   157          3
   163        178
   164         11
   165        173
   166         11
   167          3
   168          2
   180          5
   181         59
   182          8
   183         57
   184          4
   186          3
   195          2
   221          7
   223          7