##TITLE=Library Entry 49410
##JCAMP-DX=Revision 4.10 
##DATA TYPE=MASS SPECTRUM
##SAMPLE DESCRIPTION=Japan AIST/NIMC Database- Spectrum MS-NW-1186
##NAMES=HP
##CAS NAME=2,3-Pyrazinedicarboxylic acid
##MOLFORM=C6H4N2O4
##CAS REGISTRY NO=89-01-0
##MP= -300
##BP= -300
##MW= 168
##$RETENTION INDEX=0
##$CONDENSED SPECTRUM=NO
##NPOINTS= 77
##XYDATA=(XY..XY) 1 
    12         10
    13          3
    14          4
    16          9
    17          4
    18         12
    24          9
    25         29
    26        394
    27         33
    28        214
    29         16
    30          1
    36          3
    37          8
    38         33
    39         36
    40         30
    41         30
    42         26
    43          6
    44        489
    45        124
    46          8
    50         24
    51        169
    52        516
    53        470
    54         24
    55          6
    56          2
    57          7
    58          1
    63          1
    64          2
    65          2
    66          2
    67         12
    68         23
    69         12
    70         58
    71          4
    72          1
    73          1
    76          7
    77         24
    78        150
    79        151
    80        999
    81         50
    82          3
    83          3
    84          2
    85          3
    86          2
    93          1
    94          2
    95          7
    96          7
    97         14
    98          1
   104          3
   105          4
   106        127
   107         18
   108          2
   109          1
   111          1
   112          2
   123          5
   124        201
   125         12
   126          2
   129          1
   131          2
   150          5
   151          5