##TITLE=Library Entry 1427
##JCAMP-DX=Revision 4.10 
##DATA TYPE=MASS SPECTRUM
##SAMPLE DESCRIPTION=Japan AIST/NIMC Database- Spectrum MS-IW-3879
##NAMES=HP
##CAS NAME=Benzenesulfonic acid, 2,4-dinitro-
##MOLFORM=C6H4N2O7S
##CAS REGISTRY NO=89-02-1
##MP= -300
##BP= -300
##MW= 248
##$RETENTION INDEX=0
##$CONDENSED SPECTRUM=NO
##NPOINTS= 127
##XYDATA=(XY..XY) 1 
    16          3
    18          2
    26          9
    27          8
    28         69
    29         10
    30        999
    31          8
    32          9
    36          2
    37         49
    38        101
    39         97
    40          9
    41          4
    42          5
    43          3
    44         32
    45         34
    46        148
    47          2
    48         43
    49         16
    50         89
    51        129
    52         99
    53        368
    54         23
    55         29
    56          3
    57          5
    58          3
    60          4
    61         61
    62        259
    63        636
    64        252
    65        320
    66         25
    67         19
    68         19
    69         52
    70          8
    71          5
    72          3
    73         65
    74        533
    75        512
    76         74
    77         25
    78         15
    79        214
    80         93
    81         15
    82         12
    83          6
    84          2
    85          2
    86          3
    87          9
    88         12
    89          4
    90         47
    91        448
    92        289
    93         70
    94          9
    95         19
    96          9
    97          2
    98          2
    99          1
   104          3
   105          6
   106          6
   107         82
   108         74
   109          9
   110          3
   111          9
   112          1
   120          9
   121         79
   122         97
   123          8
   124          3
   127          1
   135         17
   136          2
   137          9
   138         52
   139          8
   140          1
   149          1
   150          1
   151         15
   152          2
   154        103
   155         13
   156          2
   157          3
   167        204
   168        400
   169         29
   170          5
   172          2
   183          1
   184        371
   185         29
   186          9
   187          1
   200          3
   201          3
   202         11
   203          7
   204          1
   218          9
   219          2
   230          3
   231         12
   232         31
   233          3
   234          2
   248        718
   249         61
   250         45
   251          3