##TITLE=Library Entry 31649
##JCAMP-DX=Revision 4.10 
##DATA TYPE=MASS SPECTRUM
##SAMPLE DESCRIPTION=Japan AIST/NIMC Database- Spectrum MS-NW- 674
##NAMES=HP
##CAS NAME=4-Chloro-2-nitroanisole
##MOLFORM=C7H6ClNO3
##CAS REGISTRY NO=89-21-4
##MP= -300
##BP= -300
##MW= 187
##$RETENTION INDEX=0
##$CONDENSED SPECTRUM=NO
##NPOINTS= 125
##XYDATA=(XY..XY) 1 
    12          2
    13          5
    14         22
    15        179
    16          6
    25          4
    26         25
    27         18
    28          8
    29         88
    30        392
    31         49
    35          9
    36          8
    37        100
    38         95
    39         46
    40          3
    41          6
    42          4
    43          6
    46         96
    47         13
    48          4
    49         41
    50        271
    51        218
    52         26
    53         80
    54          8
    55          6
    59          4
    60         24
    61        143
    62        316
    63        999
    64         64
    65        139
    66         13
    67          2
    69          2
    70          2
    71         13
    72         68
    73         92
    74        232
    75        571
    76        217
    77        180
    78         85
    79        131
    80          9
    81          2
    84         32
    85         56
    86         57
    87         23
    88         16
    89          6
    90          9
    91         12
    92          7
    93         60
    94         43
    95          4
    96          9
    97         54
    98        253
    99        154
   100         86
   101         48
   102          5
   103          2
   104          2
   105          4
   106          8
   107          8
   108          7
   109          8
   110         40
   111        579
   112        157
   113        261
   114         93
   115         29
   116         15
   117          1
   120          3
   121          2
   122          4
   125          4
   126        594
   127        224
   128        226
   129        247
   130         22
   131         58
   132          4
   133          2
   135          1
   139          7
   140        530
   141         40
   142        180
   143         14
   144          3
   145          2
   152          1
   154          5
   155          2
   156         11
   157        174
   158         21
   159         57
   160          6
   170          5
   171          9
   172          8
   173          4
   174          2
   187        461
   188         44
   189        151
   190         14
   191          3