##TITLE=Library Entry 76504
##JCAMP-DX=Revision 4.10 
##DATA TYPE=MASS SPECTRUM
##SAMPLE DESCRIPTION=Japan AIST/NIMC Database- Spectrum MS-NW-3571
##NAMES=HP
##CAS NAME=1H-Isoindole-1,3(2H)-dione, 5-nitro-
##MOLFORM=C8H4N2O4
##CAS REGISTRY NO=89-40-7
##MP= -300
##BP= -300
##MW= 192
##$RETENTION INDEX=0
##$CONDENSED SPECTRUM=NO
##NPOINTS= 93
##XYDATA=(XY..XY) 1 
    12          1
    14          1
    16          3
    25          3
    26          5
    27          7
    28         51
    29          4
    30        161
    31          2
    32          3
    36          6
    37         48
    38         38
    39          9
    40          1
    41          3
    42          2
    43          9
    44          9
    45          3
    46          9
    48          3
    49         16
    50         27
    51         16
    52         10
    53         21
    54          1
    55          1
    59          1
    60          6
    61         29
    62         52
    63         71
    64         10
    65          4
    66          5
    67          1
    70         13
    71          1
    72          4
    73         49
    74        280
    75        833
    76         62
    77         10
    78         12
    79          3
    80          1
    84          1
    85          1
    86          4
    87          6
    88         10
    89         16
    90         12
    91         19
    92          3
    93          1
    99          3
   100          5
   101         10
   102         89
   103        999
   104         79
   105          6
   106         36
   107          4
   116          1
   117          9
   118          5
   119         37
   120          5
   121          1
   128          1
   133          1
   134          4
   145          7
   146        122
   147         12
   148        114
   149        193
   150         17
   151          2
   162         59
   163          6
   164          1
   176         18
   177          2
   192        710
   193         70
   194          9