##TITLE=Library Entry 12150
##JCAMP-DX=Revision 4.10 
##DATA TYPE=MASS SPECTRUM
##SAMPLE DESCRIPTION=Japan AIST/NIMC Database- Spectrum MS-NW-8961
##NAMES=HP
##CAS NAME=p-Menth-8-en-3-ol, acetate
##MOLFORM=C12H20O2
##CAS REGISTRY NO=89-49-6
##MP= -300
##BP= -300
##MW= 196
##$RETENTION INDEX=1259
##$CONDENSED SPECTRUM=NO
##NPOINTS= 108
##XYDATA=(XY..XY) 1 
    15          7
    27         31
    28         11
    29         49
    30          1
    31          3
    39         60
    40         15
    41        195
    42         20
    43        999
    44         25
    45          5
    50          1
    51          8
    52          7
    53         69
    54         15
    55        154
    56         34
    57         25
    58          7
    59          7
    60          2
    61          4
    63          2
    64          1
    65         20
    66         12
    67        138
    68        120
    69        187
    70         25
    71         68
    72          8
    73          2
    77         49
    78         11
    79        180
    80        129
    81        393
    82         54
    83         57
    84         53
    85         35
    86          5
    87          1
    91         46
    92         78
    93        416
    94        225
    95        139
    96         27
    97         74
    98         30
    99          9
   100          1
   101          8
   103          2
   104          1
   105         20
   106          8
   107        365
   108        141
   109        164
   110         38
   111         54
   112         31
   113          9
   114          2
   115          2
   117          2
   119          9
   120         20
   121        461
   122         49
   123         25
   124          4
   125          9
   126          3
   127          2
   133          1
   134         10
   135         52
   136        641
   137         84
   138         21
   139         46
   140          5
   141          2
   145         11
   146          1
   149          4
   150          2
   151          2
   152          8
   153         13
   154         18
   155          2
   160          1
   163         12
   164          2
   165          1
   177          1
   178          2
   181          1
   196          7
   197          1