##TITLE=Library Entry 23710
##JCAMP-DX=Revision 4.10 
##DATA TYPE=MASS SPECTRUM
##SAMPLE DESCRIPTION=NIST Mass Spectrometry Data Center, 1994
##NAMES=HP
##CAS NAME=Butanoic acid, 3-methyl-, 5-methyl-2-(1-methylethyl)cyclohexyl es
ter, (1.alpha.,2.beta.,5.alpha.)-
##MOLFORM=C15H28O2
##CAS REGISTRY NO=89-47-4
##MP= -300
##BP= -300
##MW= 240
##$RETENTION INDEX=0
##$CONDENSED SPECTRUM=NO
##NPOINTS= 76
##XYDATA=(XY..XY) 1 
    14          4
    15         40
    16          2
    27        282
    28         18
    29        377
    30          9
    31         12
    37          3
    39        263
    41        972
    42        180
    43        642
    44         30
    45         19
    50          2
    51         14
    53         90
    54        101
    55        482
    56          2
    57        999
    58         53
    59         27
    60         24
    61          6
    65         25
    67        194
    68         85
    69        226
    70         32
    71         51
    72          4
    73          2
    77         35
    79         68
    81        610
    82        245
    83        355
    84          2
    85        653
    86         41
    87          8
    91         17
    92          5
    93         28
    94        157
    95        863
    96        226
    97         71
    98          7
    99          4
   100          5
   101          3
   102          3
   103         33
   107          5
   109         73
   110         44
   111         10
   112          7
   113          3
   121          6
   123        293
   124         29
   125          2
   127         13
   128          4
   138        566
   139        119
   140         11
   141          5
   142         10
   155          5
   156          3
   197          4