##TITLE=Library Entry 46820
##JCAMP-DX=Revision 4.10 
##DATA TYPE=MASS SPECTRUM
##SAMPLE DESCRIPTION=RADIAN CORP
##NAMES=HP
##CAS NAME=Benzene, 1,4-dimethyl-2-nitro-
##MOLFORM=C8H9NO2
##CAS REGISTRY NO=89-58-7
##MP= -300
##BP= -300
##MW= 151
##$RETENTION INDEX=0
##$CONDENSED SPECTRUM=NO
##NPOINTS= 65
##XYDATA=(XY..XY) 1 
    26          6
    27         60
    29         13
    30        148
    37          8
    38         21
    39        185
    40         17
    41         25
    42          2
    43          1
    46         76
    50        117
    51        265
    52         97
    53        119
    54         10
    55          2
    61         15
    62         73
    63        203
    64         46
    65        106
    66         33
    67         11
    68          2
    73          6
    74         58
    75         49
    76         55
    77        999
    78        375
    79        748
    80         56
    81          4
    85          3
    86         11
    87         16
    88          2
    89         65
    90         19
    91        140
    92         36
    93         18
    94          5
    98          6
    99          2
   101          7
   102         64
   103        346
   104        114
   105        117
   106        335
   107         40
   108          3
   116          2
   118          5
   119          2
   121          6
   122          1
   134        393
   135         38
   136          2
   151         67
   152          6