##TITLE=Library Entry 97950
##JCAMP-DX=Revision 4.10 
##DATA TYPE=MASS SPECTRUM
##SAMPLE DESCRIPTION=Japan AIST/NIMC Database- Spectrum MS-NW-3349
##NAMES=HP
##CAS NAME=Benzeneacetic acid, 2-carboxy-
##MOLFORM=C9H8O4
##CAS REGISTRY NO=89-51-0
##MP= -300
##BP= -300
##MW= 180
##$RETENTION INDEX=0
##$CONDENSED SPECTRUM=NO
##NPOINTS= 101
##XYDATA=(XY..XY) 1 
    15          2
    17         27
    18        133
    19          1
    25          2
    26         13
    27         44
    28         32
    29         21
    31          7
    36          2
    37         33
    38         62
    39        185
    40         27
    41         10
    42          7
    43         30
    44         21
    45         88
    46          1
    47          1
    48          2
    49         16
    50         85
    51        163
    52         34
    53         51
    54          3
    55         10
    57          1
    58          4
    59         19
    60          6
    61         38
    62         98
    63        254
    64         89
    65         77
    66          8
    67          8
    68          2
    69          1
    71          1
    72          4
    73          9
    74         25
    75         21
    76         12
    77        369
    78         81
    79        206
    80         13
    81          5
    82          2
    84          4
    85         12
    86         20
    87         18
    88         29
    89        366
    90        777
    91        378
    92         48
    93          4
    94          1
    95          1
    98          1
   102          1
   103          1
   104          2
   105        287
   106         24
   107         36
   108          4
   111          1
   116          2
   117          3
   118        999
   119        144
   120         12
   121          3
   131          1
   133         27
   134        653
   135        230
   136        313
   137         30
   138          2
   144          5
   145          1
   149          1
   150          1
   151          1
   161          1
   162        297
   163         39
   164          4
   178          2
   180         15
   181          2