##TITLE=Library Entry 41154
##JCAMP-DX=Revision 4.10 
##DATA TYPE=MASS SPECTRUM
##SAMPLE DESCRIPTION=Japan AIST/NIMC Database- Spectrum MS-NW-8126
##NAMES=HP
##CAS NAME=D-glycero-D-gulo-Heptonic acid, .gamma.-lactone
##MOLFORM=C7H12O7
##CAS REGISTRY NO=89-67-8
##MP= -300
##BP= -300
##MW= 208
##$RETENTION INDEX=0
##$CONDENSED SPECTRUM=NO
##NPOINTS= 115
##XYDATA=(XY..XY) 1 
    14          3
    15         37
    16          1
    17          6
    18         33
    19          5
    26          5
    27         33
    28         32
    29         82
    30         19
    31        106
    32          6
    38          1
    39         17
    40          4
    41         34
    42         43
    43        183
    44         99
    45         89
    46          3
    47          8
    49          2
    51          1
    52          1
    53          6
    54         11
    55         40
    56         41
    57         88
    58         35
    59         16
    60        132
    61        277
    62          9
    63          2
    67          1
    68          4
    69         38
    70          9
    71        160
    72         59
    73        999
    74         77
    75          9
    76         74
    77          5
    78          1
    81          5
    82          5
    83         18
    84         10
    85         87
    86         27
    87         11
    88          5
    89         21
    90          3
    91         76
    92          3
    93          1
    95          1
    96          2
    97         32
    98          9
    99         11
   100         54
   101         19
   102         12
   103         33
   104          3
   105          2
   109          1
   110          1
   111          2
   112          4
   113          9
   114         18
   115         34
   116          4
   117          1
   118          3
   119         27
   120          2
   121          1
   126          1
   127          1
   128          1
   129          2
   130          5
   131         42
   132          4
   133         17
   134          1
   141          4
   142         23
   143          3
   144          5
   145          3
   147         24
   148         23
   149          2
   159         64
   160         12
   161          2
   162          1
   163          1
   172          1
   173          1
   177          3
   190         15
   191          1
   208          1
   209          2