##TITLE=Library Entry 58677
##JCAMP-DX=Revision 4.10 
##DATA TYPE=MASS SPECTRUM
##SAMPLE DESCRIPTION=Japan AIST/NIMC Database- Spectrum MS-NW- 964
##NAMES=HP
##CAS NAME=Benzene, 1-chloro-4-methyl-2-nitro-
##MOLFORM=C7H6ClNO2
##CAS REGISTRY NO=89-60-1
##MP= -300
##BP= -300
##MW= 171
##$RETENTION INDEX=1357
##$CONDENSED SPECTRUM=NO
##NPOINTS= 105
##XYDATA=(XY..XY) 1 
    15          5
    16          2
    17          2
    18          7
    25          2
    26         15
    27         55
    28         49
    29          1
    30        278
    31          1
    35          7
    36         26
    37         48
    38         70
    39        356
    40         28
    41         22
    42          1
    43         23
    44          9
    45          1
    46         16
    47          7
    48          3
    49         27
    50        130
    51        191
    52         38
    53         24
    54          2
    55          4
    59          6
    60          8
    61         57
    62        158
    63        555
    64         81
    65         86
    66          5
    71          1
    72         16
    73        148
    74         52
    75        104
    76         16
    77        733
    78        117
    79          7
    80          4
    84         15
    85         32
    86         41
    87         47
    88         16
    89        999
    90        290
    91         21
    92          2
    96          5
    97         25
    98          4
    99        374
   100         19
   101        112
   102          8
   103          2
   104          6
   105          7
   106         16
   107          4
   108          5
   109          2
   110          3
   111          5
   112          8
   113        468
   114         34
   115        156
   116         10
   123         20
   124         43
   125        782
   126         79
   127        247
   128         20
   129          4
   136         14
   137          2
   140          4
   141        162
   142         14
   143         53
   144          5
   154          5
   155         22
   156          4
   157          8
   169          3
   170          6
   171        946
   172         78
   173        310
   174         26
   175          2