##TITLE=Library Entry 85539
##JCAMP-DX=Revision 4.10 
##DATA TYPE=MASS SPECTRUM
##SAMPLE DESCRIPTION=Japan AIST/NIMC Database- Spectrum MS-NW-1853
##NAMES=HP
##CAS NAME=Benzene, 1,4-dichloro-2-nitro-
##MOLFORM=C6H3Cl2NO2
##CAS REGISTRY NO=89-61-2
##MP= -300
##BP= -300
##MW= 191
##$RETENTION INDEX=1362
##$CONDENSED SPECTRUM=NO
##NPOINTS= 114
##XYDATA=(XY..XY) 1 
    12          4
    16          4
    24          2
    25          8
    26         11
    27          6
    28         63
    29          3
    30        947
    31          4
    32          1
    35         15
    36         28
    37        140
    38         84
    39         15
    44          8
    45          1
    46         21
    47         26
    48         14
    49         76
    50        262
    51         41
    52          5
    53          4
    54         11
    55          8
    56          2
    59          2
    60         37
    61         86
    62         69
    63        110
    64         13
    65          1
    66          2
    71          9
    72         42
    73        234
    74        742
    75        562
    76         42
    77          2
    82          1
    83         35
    84        188
    85        129
    86         71
    87         48
    88         15
    89          2
    90          2
    91          2
    94          2
    95          8
    96          6
    97         31
    98         21
    99          9
   100          7
   106          1
   107         21
   108         44
   109        999
   110        231
   111        327
   112         73
   113          4
   118          9
   119         24
   120          7
   121         15
   122          2
   123          3
   124         13
   125          2
   126         17
   127          2
   128          9
   130          2
   132          1
   133        909
   134         51
   135        586
   136         31
   137         96
   138          5
   143          1
   144         14
   145        850
   146         66
   147        537
   148         37
   149         85
   150          6
   156          8
   158          3
   161         93
   162          7
   163         62
   164          4
   165          9
   175         24
   176          2
   177         15
   178          1
   179          2
   191        651
   192         45
   193        421
   194         29
   195         68
   196          6