##TITLE=Library Entry 99368
##JCAMP-DX=Revision 4.10 
##DATA TYPE=MASS SPECTRUM
##SAMPLE DESCRIPTION=Japan AIST/NIMC Database- Spectrum MS-NW-1579
##NAMES=HP
##CAS NAME=Benzoic acid, 2-methyl-, methyl ester
##MOLFORM=C9H10O2
##CAS REGISTRY NO=89-71-4
##MP= -300
##BP= -300
##MW= 150
##$RETENTION INDEX=1154
##$CONDENSED SPECTRUM=NO
##NPOINTS= 75
##XYDATA=(XY..XY) 1 
    14          2
    15         33
    17          1
    18          3
    26          3
    27         12
    28          9
    29         11
    30          3
    31          2
    32          1
    37          7
    38         21
    39        131
    40         10
    41         28
    42          1
    43          7
    44          4
    45         10
    49          3
    50         34
    51         63
    52         14
    53          9
    55          1
    59         16
    60          1
    61          9
    62         32
    63         96
    64         31
    65        236
    66         13
    67          1
    70          1
    73          1
    74          9
    75          9
    76          7
    77         73
    78         11
    79         41
    80          3
    85          3
    86          7
    87          6
    88          3
    89         94
    90        199
    91        716
    92         59
    93          3
   103          2
   104          2
   105         37
   106          8
   107          8
   117          1
   118        636
   119        999
   120         89
   121          6
   127          1
   132          2
   133          8
   134          2
   135         65
   136         13
   137          1
   149         20
   150        551
   151         55
   152          5
   153          2