##TITLE=Library Entry 38986
##JCAMP-DX=Revision 4.10 
##DATA TYPE=MASS SPECTRUM
##SAMPLE DESCRIPTION=Japan AIST/NIMC Database- Spectrum MS-NW-5877
##NAMES=HP
##CAS NAME=dl-Menthol
##MOLFORM=C10H20O
##CAS REGISTRY NO=89-78-1
##MP= -300
##BP= -300
##MW= 156
##$RETENTION INDEX=1174
##$CONDENSED SPECTRUM=NO
##NPOINTS= 96
##XYDATA=(XY..XY) 1 
    15         11
    17          3
    18         10
    19          1
    26          4
    27        154
    28         13
    29        141
    30          3
    31         37
    32          1
    36          1
    37          2
    38          5
    39        118
    40         21
    41        383
    42         62
    43        243
    44         32
    45         24
    46          2
    47          1
    48          1
    50          4
    51         12
    52          8
    53         69
    54         44
    55        405
    56        201
    57        170
    58         26
    59         18
    60          1
    61          1
    62          1
    63          4
    64          1
    65         13
    66          8
    67        254
    68        136
    69        302
    70         98
    71        999
    72         56
    73         14
    74          1
    75          1
    77         18
    78          5
    79         27
    80         89
    81        712
    82        357
    83        131
    84         26
    85         83
    86         43
    87          6
    91         10
    92          2
    93         22
    94         45
    95        689
    96        261
    97         44
    98          5
    99         39
   100          9
   101          1
   105          2
   107          3
   108          3
   109        107
   110         63
   111         14
   112         18
   113         14
   114          2
   119          1
   121          3
   122          1
   123        276
   124         27
   125          3
   136          1
   137          8
   138        192
   139         25
   140          2
   141          9
   142          1
   155          3
   156          1