##TITLE=Library Entry 3550
##JCAMP-DX=Revision 4.10 
##DATA TYPE=MASS SPECTRUM
##SAMPLE DESCRIPTION=Japan AIST/NIMC Database- Spectrum MS-NW-5203
##NAMES=HP
##CAS NAME=Isopulegol
##MOLFORM=C10H18O
##CAS REGISTRY NO=89-79-2
##MP= -300
##BP= -300
##MW= 154
##$RETENTION INDEX=1146
##$CONDENSED SPECTRUM=NO
##NPOINTS= 113
##XYDATA=(XY..XY) 1 
    14          2
    15         30
    17          3
    18         10
    26         11
    27        332
    28         43
    29        287
    30          6
    31         92
    32          2
    37          4
    38         16
    39        423
    40        104
    41        999
    42        134
    43        306
    44         62
    45         38
    46          1
    47          1
    48          1
    49          1
    50         18
    51         62
    52         34
    53        297
    54         73
    55        742
    56        545
    57        160
    58         32
    59         66
    60          2
    61          1
    62          4
    63         14
    64          4
    65         61
    66         42
    67        645
    68        806
    69        818
    70        203
    71        852
    72         94
    73         10
    74          2
    75          2
    76          1
    77         98
    78         22
    79        245
    80        197
    81        797
    82        242
    83        281
    84        552
    85        172
    86         20
    87          2
    89          2
    90          1
    91         70
    92        100
    93        464
    94        209
    95        545
    96        115
    97        307
    98        209
    99         46
   100          4
   101          1
   102          1
   103          3
   105         27
   106          9
   107        200
   108        100
   109        298
   110        321
   111        356
   112        169
   113         14
   114          2
   115          1
   119          5
   120          2
   121        527
   122         54
   123        107
   124         14
   125         19
   126          7
   127          2
   134          1
   135          9
   136        321
   137         37
   138         10
   139        196
   140         20
   141          2
   149          1
   150          1
   151          2
   152          4
   153          8
   154        116
   155         14
   156          2