##TITLE=Library Entry 49270
##JCAMP-DX=Revision 4.10 
##DATA TYPE=MASS SPECTRUM
##SAMPLE DESCRIPTION=NIST Mass Spectrometry Data Center, 1994
##NAMES=HP
##CAS NAME=Benzene, 2,4-dimethyl-1-nitro-
##MOLFORM=C8H9NO2
##CAS REGISTRY NO=89-87-2
##MP= -300
##BP= -300
##MW= 151
##$RETENTION INDEX=1205
##$CONDENSED SPECTRUM=NO
##NPOINTS= 70
##XYDATA=(XY..XY) 1 
     4          4
    15         10
    26         18
    27        124
    28         35
    29         23
    30        132
    31          3
    32         10
    37         14
    38         52
    39        258
    40         27
    41         41
    42          4
    43         10
    46         37
    50        115
    51        270
    52         93
    53        128
    54         11
    55          9
    61         22
    62         65
    63        185
    64         43
    65        134
    66         38
    67         13
    73          8
    74         46
    75         42
    76          8
    77        933
    78        321
    79        999
    80         76
    81          4
    85          6
    86         15
    87         12
    88          4
    89         67
    90         19
    91        162
    92         38
    93         21
    94          6
    98          7
    99          2
   102         57
   103        295
   104        125
   105        139
   106        366
   107         74
   108          6
   116          6
   118          5
   119          7
   120         11
   121         19
   122          4
   132          3
   134        938
   135         81
   136          5
   151        211
   152         19