##TITLE=Library Entry 51632
##JCAMP-DX=Revision 4.10 
##DATA TYPE=MASS SPECTRUM
##SAMPLE DESCRIPTION=Chemical Concepts
##NAMES=HP
##CAS NAME=2-Cyclohexen-1-one, 3-methyl-6-(1-methylethyl)-
##MOLFORM=C10H16O
##CAS REGISTRY NO=89-81-6
##MP= -300
##BP= -300
##MW= 152
##$RETENTION INDEX=1253
##$CONDENSED SPECTRUM=NO
##NPOINTS= 84
##XYDATA=(XY..XY) 1 
    24         30
    26         29
    27        271
    28         94
    29        109
    30          4
    31          4
    36          2
    37          5
    38         19
    39        347
    40         51
    41        313
    42         32
    43         60
    44          3
    45          5
    46          2
    50         19
    51         45
    52         26
    53        122
    54        173
    55        112
    56          9
    57          6
    58          1
    59          4
    60          3
    61          3
    62          4
    63         13
    64          3
    65         34
    66         17
    67         83
    68         15
    69         54
    70          3
    71          5
    74          2
    75          3
    77         45
    78         10
    79         40
    80         11
    81         68
    82        999
    83         68
    84          8
    89          2
    91         37
    92         10
    93         17
    94         11
    95        243
    96         22
    97          5
   100          1
   103          2
   105          3
   107         12
   108         15
   109        177
   110        709
   111         57
   112          3
   115          1
   117          1
   119         10
   120          1
   121          5
   122          3
   123         11
   124         48
   125          4
   134          3
   135          3
   137        183
   138         19
   139          1
   152        138
   153         17
   154          1