##TITLE=Library Entry 89233
##JCAMP-DX=Revision 4.10 
##DATA TYPE=MASS SPECTRUM
##SAMPLE DESCRIPTION=TNO Volatile Compounds in Food - Chemical Concepts
##NAMES=HP
##CAS NAME=Cyclohexanone, 5-methyl-2-(1-methylethyl)-, trans-
##MOLFORM=C10H18O
##CAS REGISTRY NO=89-80-5
##MP= -300
##BP= -300
##MW= 154
##$RETENTION INDEX=1154
##$CONDENSED SPECTRUM=NO
##NPOINTS= 86
##XYDATA=(XY..XY) 1 
    27        494
    28         78
    29        255
    30          6
    31          9
    34          2
    35          2
    36          2
    37          3
    38         17
    39        489
    40         75
    41        954
    42        207
    43        513
    44          6
    45          6
    46          3
    49          2
    50         14
    51         32
    52         13
    53        100
    54         38
    55        745
    56        498
    57         85
    58         25
    59          9
    62          2
    63         11
    65         20
    66          8
    67         76
    68         57
    69        918
    70        495
    71         54
    72          7
    73          6
    75          7
    77         23
    78          3
    79         41
    80         10
    81         50
    82         26
    83        229
    84        148
    85         18
    86          2
    91         11
    92          3
    93         28
    94         22
    95        156
    96         22
    97        238
    98         96
    99          7
   102          2
   104          2
   105          2
   106          4
   107          9
   108          2
   109         21
   110         69
   111        223
   112        999
   113         72
   114          4
   121         39
   122         13
   123          5
   125         53
   126          3
   132          2
   135          2
   136          5
   138          2
   139        426
   140         29
   153          2
   154        226
   155         22