##TITLE=Library Entry 76980
##JCAMP-DX=Revision 4.10 
##DATA TYPE=MASS SPECTRUM
##SAMPLE DESCRIPTION=Japan AIST/NIMC Database- Spectrum MS-NW-6674
##NAMES=HP
##CAS NAME=Benzenemethanol, 2-methyl-
##MOLFORM=C8H10O
##CAS REGISTRY NO=89-95-2
##MP= -300
##BP= -300
##MW= 122
##$RETENTION INDEX=1974
##$CONDENSED SPECTRUM=NO
##NPOINTS= 76
##XYDATA=(XY..XY) 1 
    15          3
    18          1
    26          7
    27         45
    28         23
    29         23
    30          2
    31         21
    32          3
    37         10
    38         24
    39        133
    40         13
    41         34
    42          2
    43         13
    44          3
    45          8
    46          4
    47          2
    49          5
    50         51
    51        132
    52         43
    53         30
    54          3
    55          6
    58          1
    59          7
    60         43
    61         13
    62         29
    63         70
    64         18
    65        137
    66         13
    67          3
    68          1
    69          1
    73          3
    74         14
    75         11
    76          9
    77        326
    78        140
    79        350
    80         25
    81          3
    84          1
    85          3
    86          6
    87          5
    88          1
    89         35
    90         12
    91        330
    92         36
    93        196
    94         17
    95          1
    98          2
   101          2
   102         14
   103        127
   104        999
   105        164
   106         20
   107        331
   108         27
   109          2
   119         34
   120         13
   121         57
   122        315
   123         28
   124          2