##TITLE=Library Entry 107679
##JCAMP-DX=Revision 4.10 
##DATA TYPE=MASS SPECTRUM
##SAMPLE DESCRIPTION=Japan AIST/NIMC Database- Spectrum MS-NW-5444
##NAMES=HP
##CAS NAME=Benzenemethanamine, 2-fluoro-
##MOLFORM=C7H8FN
##CAS REGISTRY NO=89-99-6
##MP= -300
##BP= -300
##MW= 125
##$RETENTION INDEX=985
##$CONDENSED SPECTRUM=NO
##NPOINTS= 95
##XYDATA=(XY..XY) 1 
    15          2
    16          1
    20          1
    26          6
    27         17
    28        343
    29        138
    30        478
    31         14
    32          4
    33          3
    36          1
    37         13
    38         17
    39         45
    40          4
    41          6
    42          4
    43          2
    44          9
    45          7
    46          3
    47          1
    48         10
    49          9
    50         72
    51        111
    52         25
    53          7
    54          5
    55          1
    56          7
    57         46
    58          3
    59          9
    60          2
    61         15
    62         35
    63         33
    64          6
    65          6
    66          2
    67          1
    68         17
    69         25
    70         34
    71          6
    72          3
    73          6
    74         29
    75         76
    76         25
    77        167
    78         56
    79         24
    80          4
    81         17
    82          6
    83         75
    84          5
    85          3
    86          4
    87          3
    88          3
    89         11
    90          2
    91          7
    92          4
    93          5
    94         15
    95         54
    96        127
    97        237
    98         21
    99          2
   100          2
   101          1
   102         38
   103          7
   104        106
   105        459
   106         91
   107         52
   108         23
   109        232
   110         24
   111          1
   120          1
   121         13
   122         45
   123         13
   124        999
   125        352
   126         26
   127          1