##TITLE=Library Entry 109361
##JCAMP-DX=Revision 4.10 
##DATA TYPE=MASS SPECTRUM
##SAMPLE DESCRIPTION=Exported from NIST MS Search
##NAMES=HP
##CAS NAME=Benzene, 1-chloro-2-ethyl-
##MOLFORM=C8H9Cl
##CAS REGISTRY NO=89-96-3
##MP= -300
##BP= -300
##MW= 140
##$RETENTION INDEX=1029
##$CONDENSED SPECTRUM=NO
##NPOINTS= 102
##XYDATA=(XY..XY) 1 
    14          1
    15          2
    17          1
    18          2
    26          3
    27         25
    28          2
    29          2
    32          1
    35          1
    36          1
    37          5
    38         12
    39         45
    40          3
    41          2
    42          1
    43          4
    44          2
    45          1
    47          1
    48          1
    49          7
    50         53
    51        150
    52         34
    53          8
    54          1
    55          1
    56          1
    60          1
    61          8
    62         20
    63         59
    64          9
    65         12
    66          1
    67          1
    68          4
    69         11
    70          5
    71          1
    72          2
    73         21
    74         26
    75         51
    76         18
    77        133
    78         31
    79         41
    80          3
    81          1
    84          3
    85          7
    86          6
    87          7
    88          2
    89         84
    90         22
    91          3
    92          1
    96          1
    97          4
    98          4
    99         35
   100          3
   101         24
   102          2
   103        101
   104         25
   105        564
   106         50
   107          2
   108          1
   109          1
   110          1
   111          7
   112         11
   113          4
   114          4
   115          1
   117          1
   118          1
   119          1
   120          1
   121          1
   123          2
   124          1
   125        999
   126         76
   127        321
   128         25
   129          1
   136          1
   137          1
   138          2
   139         21
   140        410
   141         44
   142        132
   143         12
   144          1