##TITLE=Library Entry 45137
##JCAMP-DX=Revision 4.10 
##DATA TYPE=MASS SPECTRUM
##SAMPLE DESCRIPTION=Japan AIST/NIMC Database- Spectrum MS-NW-5708
##NAMES=HP
##CAS NAME=Acetic acid, dimethoxy-, methyl ester
##MOLFORM=C5H10O4
##CAS REGISTRY NO=89-91-8
##MP= -300
##BP= -300
##MW= 134
##$RETENTION INDEX=1442
##$CONDENSED SPECTRUM=NO
##NPOINTS= 44
##XYDATA=(XY..XY) 1 
    13          2
    14          7
    15        172
    16          5
    17          1
    18          3
    27          2
    28         29
    29        154
    30         13
    31        220
    32         16
    33         14
    41          3
    42          3
    43         14
    44         27
    45         27
    46          1
    47        246
    48          7
    49          1
    56          1
    58          1
    59         40
    60          2
    61         13
    72         11
    73          1
    74          2
    75        999
    76         35
    77          6
    79          1
    83          1
    87          1
    88          1
    89          5
    91          1
    92          1
   103         74
   104          6
   105          1
   133          2