##TITLE=Library Entry 82332
##JCAMP-DX=Revision 4.10 
##DATA TYPE=MASS SPECTRUM
##SAMPLE DESCRIPTION=Japan AIST/NIMC Database- Spectrum MS-NW-6043
##NAMES=HP
##CAS NAME=Benzenemethanamine, 2-chloro-
##MOLFORM=C7H8ClN
##CAS REGISTRY NO=89-97-4
##MP= -300
##BP= -300
##MW= 141
##$RETENTION INDEX=0
##$CONDENSED SPECTRUM=NO
##NPOINTS= 100
##XYDATA=(XY..XY) 1 
    14          1
    15          1
    25          1
    26          5
    27         17
    28        206
    29         86
    30        423
    31          8
    35          2
    36          7
    37         11
    38         17
    39         38
    40          5
    41          5
    42          2
    43          4
    44          3
    45          1
    47          1
    48          1
    49         10
    50         74
    51        112
    52         69
    53         14
    54          6
    55          1
    57          1
    59          1
    60          3
    61          9
    62         17
    63         37
    64          9
    65          8
    66          2
    67          2
    68          1
    69          2
    70         13
    71          4
    72          3
    73         17
    74         30
    75         58
    76         29
    77        301
    78         57
    79        122
    80         11
    82          1
    84          5
    85          9
    86          7
    87          7
    88          3
    89         65
    90         14
    91         13
    92          2
    93          1
    95          1
    96          1
    97          2
    98          1
    99         16
   100          3
   101          7
   102         23
   103          9
   104         47
   105         12
   106        999
   107         93
   108          8
   109          1
   110          1
   111          9
   112         58
   113         51
   114         23
   115         15
   116          2
   117          1
   123          4
   124          5
   125        134
   126         17
   127         44
   128          7
   137          3
   138         16
   139          5
   140        405
   141         76
   142        139
   143         24
   144          3