##TITLE=Library Entry 99025
##JCAMP-DX=Revision 4.10 
##DATA TYPE=MASS SPECTRUM
##SAMPLE DESCRIPTION=A.A.Kutin, Moscow, Russia
##NAMES=HP
##CAS NAME=Naphthalen-2-ol, 1-(5-thiazolyliminomethyl)-
##MOLFORM=C14H10N2OS
##CAS REGISTRY NO=890-33-5
##MP= -300
##BP= -300
##MW= 254
##$RETENTION INDEX=0
##$CONDENSED SPECTRUM=NO
##NPOINTS= 188
##XYDATA=(XY..XY) 1 
    33         65
    34          5
    35          0
    36          2
    37         12
    38         39
    39        176
    40         69
    41         39
    42         12
    43         43
    44         27
    45        117
    46         15
    47          8
    48          4
    49          5
    50         73
    51        128
    52         24
    53         26
    55         31
    57         82
    58        200
    59        133
    60         16
    61         22
    62         70
    63        193
    65        249
    66         15
    67          2
    69          6
    70         11
    71         13
    72          7
    73         21
    74         54
    75         80
    76         42
    77         97
    78         12
    79          5
    80          2
    82          5
    83          9
    84         20
    85        127
    86        438
    87         58
    88         76
    89        111
    90         51
    91        386
    92         27
    93          3
    95          1
    96          2
    97          3
    98         13
    99         18
   100         35
   101         43
   102         20
   103          3
   104          4
   105          4
   106          1
   107          0
   108          0
   109          2
   110          6
   111         23
   113        103
   114        138
   115        252
   116         38
   119        999
   120         65
   122          7
   123          2
   124          2
   125         17
   126         87
   127        155
   128         31
   129          4
   130          0
   131          0
   132          0
   133          0
   134          0
   135          0
   136          2
   137          1
   138          3
   139         15
   140         58
   141         60
   142         18
   143         24
   144         26
   145          4
   146          0
   147          0
   149          2
   151          6
   152         24
   153         21
   154         15
   155          5
   156          2
   157          1
   158          1
   159          0
   160          1
   163          0
   164          2
   165          1
   166          6
   167          6
   169        132
   170         55
   171         62
   172         44
   173          4
   174          0
   177          0
   178          1
   179          4
   180          2
   181          3
   182          5
   183          1
   184          1
   185          1
   186          0
   187          0
   188          0
   189          0
   192          4
   193          3
   194          3
   195          8
   196          1
   197          1
   198          3
   199          2
   200          0
   201          0
   202          0
   203          0
   208          1
   209          3
   210          1
   211          0
   212          0
   213          0
   214          1
   215          0
   218          0
   219          1
   221         20
   222          2
   223          1
   224          4
   225         16
   226          8
   227          2
   228          1
   231          0
   232          0
   234          9
   237        323
   238         49
   239         17
   240          1
   246          1
   247          1
   248          0
   249          0
   250          1
   251          4
   253         87
   254        129
   255         26
   256          6
   257          0