##TITLE=Library Entry 17549
##JCAMP-DX=Revision 4.10 
##DATA TYPE=MASS SPECTRUM
##SAMPLE DESCRIPTION=V.A.Korolev, Moscow, Russia
##NAMES=HP
##CAS NAME=5-(Bromomethyl)-1,3-thiazolidin-2-one
##MOLFORM=C4H6BrNOS
##CAS REGISTRY NO=89033-67-0
##MP= -300
##BP= -300
##MW= 195
##$RETENTION INDEX=0
##$CONDENSED SPECTRUM=NO
##NPOINTS= 95
##XYDATA=(XY..XY) 1 
    33         56
    34         24
    35          1
    36         11
    37         51
    38        103
    39        528
    40        170
    41        415
    42         89
    43         92
    44        131
    45        999
    46        149
    47        310
    48         14
    49          7
    50          3
    51         17
    52         55
    53         13
    54        128
    55         52
    56        203
    57         85
    58        245
    59        769
    60        203
    61         69
    62          4
    64          4
    68          3
    69         25
    70         17
    71         86
    72         50
    73        757
    74        411
    75         41
    76         13
    79         40
    80         20
    81         43
    82        185
    83         10
    84          5
    86          7
    87         56
    88         22
    89          1
    91          1
    93         28
    95         26
   101         10
   102        329
   103         12
   104         14
   105          2
   106          8
   107          9
   108          8
   109          3
   111          3
   113          4
   115         48
   116        887
   117         51
   118         38
   119         20
   121         18
   125          2
   132          1
   136          2
   137          2
   138         13
   139        152
   140         17
   141        152
   142          2
   143          2
   152        217
   153          6
   154        217
   155          4
   156          6
   167          1
   169          1
   186          1
   195        257
   196         13
   197        262
   198          9
   199          8
   205          1
   206          1