##TITLE=Library Entry 74404
##JCAMP-DX=Revision 4.10 
##DATA TYPE=MASS SPECTRUM
##SAMPLE DESCRIPTION=Chemical Concepts
##NAMES=HP
##CAS NAME=1,3-Dioxolan-4-one, 2-(1,1-dimethylethyl)-5-(1-methylethyl)-, (2S
-cis)-
##MOLFORM=C10H18O3
##CAS REGISTRY NO=89053-56-5
##MP= -300
##BP= -300
##MW= 186
##$RETENTION INDEX=0
##$CONDENSED SPECTRUM=NO
##NPOINTS= 118
##XYDATA=(XY..XY) 1 
    25         10
    27        159
    28         31
    29        212
    30         10
    31         42
    36          1
    37          3
    38          9
    39        151
    40         26
    41        376
    42         87
    43        293
    44         14
    45         60
    46          2
    47          1
    50          4
    51          8
    52          3
    53         31
    54         14
    55        488
    56        185
    57        678
    58         35
    59         11
    60          5
    61          0
    63          1
    64          0
    65          2
    66          1
    67          7
    68          9
    69         67
    70        438
    71        194
    72         44
    73        786
    74         37
    75          3
    76          4
    77          2
    78          1
    79          2
    80          1
    81          5
    82          7
    83         17
    84         18
    85        142
    86         20
    87        111
    88          7
    89          1
    91          3
    92          1
    93          2
    94          1
    95          4
    96          2
    97          7
    98          3
    99          8
   100          9
   101        999
   102         67
   103         10
   104          1
   105          2
   106          0
   107          0
   108          1
   109          3
   110          1
   111          4
   112          3
   113          3
   114          0
   115          3
   116          0
   117          1
   119          1
   120          0
   121          1
   122          0
   123          1
   124          0
   125          3
   126          2
   127          8
   128         10
   129        380
   130         33
   131          6
   132          0
   133          1
   134          0
   135          1
   136          0
   137          0
   138          0
   139          1
   140         11
   141          7
   142         38
   143          7
   144         10
   145          1
   157          2
   158          0
   171          1
   184          0
   185          2
   186          2
   187          1