##TITLE=Library Entry 2000
##JCAMP-DX=Revision 4.10 
##DATA TYPE=MASS SPECTRUM
##SAMPLE DESCRIPTION=A.A.Kutin, Moscow, Russia
##NAMES=HP
##CAS NAME=1,3,5-Triazine, 2,4,6-tris(cyanomethoxy)-
##MOLFORM=C9H6N6O3
##CAS REGISTRY NO=891-64-5
##MP= -300
##BP= -300
##MW= 246
##$RETENTION INDEX=0
##$CONDENSED SPECTRUM=NO
##NPOINTS= 160
##XYDATA=(XY..XY) 1 
    33          2
    34          1
    35          5
    36          2
    37          2
    38         60
    40        999
    41         98
    42         59
    43         32
    44         15
    45         28
    46          8
    47          5
    49          1
    50          3
    51          4
    52         10
    53         30
    54         61
    55         58
    56         53
    57          7
    58          3
    59          1
    60          0
    61          8
    62          8
    63          7
    64          2
    65          3
    66         32
    67         45
    68         41
    69         69
    70        583
    71         15
    72          2
    73          1
    75          3
    76          1
    77          3
    78          3
    79          3
    80         12
    81         11
    82          4
    83         10
    84         10
    85          2
    87          9
    89          6
    90          1
    91          1
    92          3
    94         60
    95         11
    96          4
    97          6
    98          3
    99          0
   100          0
   101          1
   103          3
   105          3
   106          4
   107          3
   108          9
   109          2
   110          3
   111          1
   112          2
   113          9
   114          1
   115          1
   116          0
   117          0
   118          0
   119          0
   120          5
   121         18
   122          3
   123          3
   124          6
   125          5
   126         12
   127          1
   128          0
   130         17
   131          8
   132          5
   133          2
   134          1
   135          2
   136         11
   137          2
   138          4
   139          1
   140          1
   141          0
   142          1
   143          0
   146          1
   147          0
   148          0
   149          2
   150          5
   151         72
   152         93
   153          6
   154          1
   155          1
   156          0
   157          0
   158          0
   159          0
   160          0
   161          0
   163         27
   164          2
   165          0
   166          1
   167          0
   168          0
   169          1
   170         10
   171          2
   172          3
   173          0
   176          9
   177          0
   179          3
   180          0
   181          0
   182          0
   187          0
   189          0
   190          1
   191         29
   192          2
   193          0
   195          0
   197          0
   198          0
   203          0
   204          0
   206          4
   207          0
   208          2
   209          0
   211          0
   216          0
   217          0
   218          0
   219          0
   220          0
   221          0
   245          0
   246          2
   247          0