##TITLE=Library Entry 15512
##JCAMP-DX=Revision 4.10 
##DATA TYPE=MASS SPECTRUM
##SAMPLE DESCRIPTION=Japan AIST/NIMC Database- Spectrum MS-IW- 750
##NAMES=HP
##CAS NAME=(4R,5R)-(+)-2-Chloro-4,5-dimethyl-1,3,2-dioxaphospholane-2-oxide
##MOLFORM=C4H8ClO3P
##CAS REGISTRY NO=89104-48-3
##MP= -300
##BP= -300
##MW= 170
##$RETENTION INDEX=0
##$CONDENSED SPECTRUM=NO
##NPOINTS= 106
##XYDATA=(XY..XY) 1 
    14          3
    15         23
    16          1
    18          1
    26         15
    27         79
    28         39
    29         79
    30          2
    31          3
    32          1
    35          2
    36         17
    37          3
    38          7
    39         63
    40          5
    41         39
    42         16
    43        674
    44        999
    45        345
    46          9
    47         56
    48          3
    49          2
    50          7
    51          9
    52          4
    53         22
    54        740
    55        378
    56         31
    57        192
    58          8
    61          1
    62          9
    63         15
    64          3
    65         29
    66          1
    69          2
    70          2
    71        526
    72         27
    73          7
    74          1
    75          4
    76          1
    77          2
    79          1
    81         17
    82          2
    83         36
    84          1
    85         10
    87          3
    88        154
    89         13
    90          5
    91        254
    92         14
    93          2
    97          1
    98          1
    99         49
   100          7
   101         24
   102          2
   103          3
   107          1
   110          4
   112          1
   117        146
   119         64
   120          1
   121          1
   124          1
   125          5
   126        710
   127         66
   128        240
   129         21
   130          4
   133          3
   135         71
   136          3
   137          2
   141          3
   142         39
   143         18
   144         12
   145          7
   153          2
   154          3
   155        107
   156          4
   157         35
   158          1
   165          1
   167          2
   169          9
   170          4
   171         35
   172          3
   173         10