##TITLE=Library Entry 51380
##JCAMP-DX=Revision 4.10 
##DATA TYPE=MASS SPECTRUM
##SAMPLE DESCRIPTION=P.A. Leclercq, Lab. Instrum. Anal., Eindhoven Univ. Tec
hnol., Netherlands
##NAMES=HP
##CAS NAME=[1,1'-Bicyclohexyl]-4-carboxylic acid, 4'-butyl-, 4-propylcyclohe
xyl ester, [trans[trans(trans)]]-
##MOLFORM=C26H46O2
##CAS REGISTRY NO=89129-90-8
##MP= -300
##BP= -300
##MW= 390
##$RETENTION INDEX=0
##$CONDENSED SPECTRUM=NO
##NPOINTS= 80
##XYDATA=(XY..XY) 1 
    27         66
    28         34
    29        139
    39         54
    41        479
    42         47
    43        204
    44         13
    53         66
    54        178
    55        736
    56         53
    57        225
    58         14
    65         17
    67        392
    69        839
    70         62
    71         26
    73         39
    77         23
    79        143
    81        709
    82        999
    83        765
    84         51
    85         10
    91         28
    93         59
    95        240
    96        158
    97        174
    98         16
   105         11
   107         43
   108         27
   109        205
   110         34
   111         61
   119          9
   121         44
   122         19
   123        126
   124        652
   125        224
   126         29
   127        126
   128         44
   129         24
   133         16
   135         37
   136         11
   137         78
   138         26
   139         51
   141         18
   147         31
   149         30
   151         35
   161         23
   163         23
   165         26
   166         11
   175         20
   179         15
   180         13
   183         25
   189         10
   191         13
   219         21
   221         42
   222         10
   231        158
   232         29
   247         10
   248         32
   249         29
   267        596
   268        112
   269         10