##TITLE=Library Entry 54970
##JCAMP-DX=Revision 4.10 
##DATA TYPE=MASS SPECTRUM
##SAMPLE DESCRIPTION=V.Zaikin,Topchiev Inst.Petrochem.Synth.,Moscow
##NAMES=HP
##CAS NAME=Pentanoic acid, 2-pentyl ester
##MOLFORM=C10H20O2
##CAS REGISTRY NO=89155-38-4
##MP= -300
##BP= -300
##MW= 172
##$RETENTION INDEX=0
##$CONDENSED SPECTRUM=NO
##NPOINTS= 52
##XYDATA=(XY..XY) 1 
    26          7
    27         66
    28         13
    29        111
    30          3
    31          3
    35          2
    36         11
    38          4
    39         44
    40          8
    41        150
    42         66
    43        211
    44          9
    45         38
    53         10
    54          4
    55        141
    56         29
    57        293
    58         15
    59          4
    60        136
    61         16
    67          3
    68          1
    69          9
    70        257
    71        143
    72          8
    73         55
    74          6
    75         10
    82          3
    83          6
    84          4
    85        999
    86         68
    87         58
    88          3
   100          1
   101          6
   102        107
   103        212
   104         12
   105          1
   115          1
   128          8
   129         78
   130         15
   157          7