##TITLE=Library Entry 1490
##JCAMP-DX=Revision 4.10 
##DATA TYPE=MASS SPECTRUM
##SAMPLE DESCRIPTION=T. CLERC
##NAMES=HP
##CAS NAME=2,4,6-Octatrien-1-ol, 3,7-dimethyl-(E,E)-
##MOLFORM=C10H16O
##CAS REGISTRY NO=89155-85-1
##MP= -300
##BP= -300
##MW= 152
##$RETENTION INDEX=0
##$CONDENSED SPECTRUM=NO
##NPOINTS= 37
##XYDATA=(XY..XY) 1 
    30        104
    31        999
    39        275
    40         79
    41        375
    42         66
    43        341
    44        170
    45        458
    50         62
    51         91
    53         45
    54         41
    55        187
    63         41
    65         66
    67        166
    69        220
    77        150
    78         83
    79        154
    81        154
    82        108
    91        250
    92         62
    93        133
    94         79
    95        104
   105        112
   107        120
   109        170
   110         33
   121        154
   123         37
   134         58
   137         41
   152        204