##TITLE=Library Entry 54414
##JCAMP-DX=Revision 4.10 
##DATA TYPE=MASS SPECTRUM
##SAMPLE DESCRIPTION=Asinex Ltd, Moscow, Russia
##NAMES=HP
##CAS NAME=Piperidine, 1-[phenyl(1-piperidyl)phosphorothioyl]-
##MOLFORM=C16H25N2PS
##CAS REGISTRY NO=89169-29-9
##MP= -300
##BP= -300
##MW= 308
##$RETENTION INDEX=0
##$CONDENSED SPECTRUM=NO
##NPOINTS= 82
##XYDATA=(XY..XY) 1 
    34          6
    40         94
    41         35
    42         30
    43          9
    44         21
    45          1
    51          6
    53          1
    55         67
    56         33
    57          8
    60          1
    63         63
    64         25
    65          9
    67          3
    69          4
    70          3
    77         14
    78          5
    79          1
    80          2
    82         26
    84        999
    85         51
    86          2
    91         12
    93          4
    96          6
   106          4
   107         29
   108         10
   109        136
   110          8
   111          2
   112          2
   114          1
   115          4
   116         27
   117          2
   118          2
   120          1
   122          0
   123         11
   128         16
   130          1
   133          6
   135          1
   136          2
   139          6
   140         23
   141         27
   143         11
   146          1
   149          1
   150          0
   160         18
   162          1
   167          5
   168         14
   169          1
   171          9
   190          4
   191         10
   192        820
   193        103
   194          5
   199          6
   213          0
   222          1
   223          8
   224        106
   225         53
   226         11
   256         21
   258          6
   275          6
   276          2
   308        150
   309         25
   310          6