##TITLE=Library Entry 47957
##JCAMP-DX=Revision 4.10 
##DATA TYPE=MASS SPECTRUM
##SAMPLE DESCRIPTION=A.A.Kutin, Moscow, Russia
##NAMES=HP
##CAS NAME=2-Methyl-3,8-diphenyl-3H-imidazo[4,5-E][2,1]benzisoxazole
##MOLFORM=C21H15N3O
##CAS REGISTRY NO=89174-96-9
##MP= -300
##BP= -300
##MW= 325
##$RETENTION INDEX=0
##$CONDENSED SPECTRUM=NO
##NPOINTS= 223
##XYDATA=(XY..XY) 1 
    33          0
    36          0
    37          5
    38         20
    39         63
    40          7
    41         14
    42         56
    43         20
    44          1
    45          0
    51        546
    52         31
    53          9
    54          1
    55          2
    56          0
    57          1
    58          0
    61         11
    62         16
    63         49
    64         30
    65         39
    66          5
    67          1
    69          2
    70          1
    71          0
    73          2
    74         39
    75         57
    77        999
    78         59
    79          5
    80          0
    81          0
    82          1
    84          1
    86          9
    87         18
    88         20
    89         22
    90         18
    91         19
    92          5
    93          2
    95          0
    97          3
    99         18
   100         22
   101         24
   102         25
   103         36
   105         89
   106          6
   107          1
   109          1
   110          3
   111          4
   112          6
   113         10
   114         23
   115         11
   116          8
   117          6
   118         15
   119          3
   120          0
   121          0
   122          1
   123          3
   124          5
   125         23
   126         39
   127         42
   128         38
   129         10
   130          3
   131          1
   132          0
   134          1
   135          3
   137          4
   138         16
   139         11
   140         13
   141          5
   142          4
   143          2
   146          1
   147          3
   148          7
   150          7
   151         48
   152         58
   153         38
   154         11
   155         20
   156          2
   160          0
   161          2
   162          9
   163         10
   164         28
   165         14
   166         13
   167          7
   168          1
   169          1
   170          1
   171          0
   174          0
   175          4
   176         14
   177         14
   178         41
   179         62
   180         12
   181          3
   182          0
   186          0
   187          0
   188          3
   189          4
   190          6
   191         14
   192         16
   193         15
   194          8
   195          2
   200          4
   201         12
   202         10
   203          9
   204         17
   206         10
   207         17
   208          3
   209          0
   212          0
   213          0
   214          2
   215          3
   216          3
   217          9
   218         12
   219         14
   220         60
   221         14
   222          5
   223          1
   224          0
   225          1
   226          5
   227         25
   228         18
   229         13
   230          6
   231          3
   232          3
   233          1
   234          0
   235          0
   238          0
   240          2
   241          2
   242          1
   243          1
   244          0
   246          6
   248         72
   249         12
   250          2
   251          1
   252          2
   253         21
   255        156
   256         37
   257          5
   258          1
   259          1
   260          1
   265          1
   266          2
   267          1
   268          6
   269          6
   270          2
   271          1
   274          0
   277          0
   278          0
   279          2
   280          8
   281          8
   282         19
   283         13
   284          7
   285          2
   291          0
   292          2
   294         16
   295         18
   296         28
   297         19
   298          5
   299          1
   300          0
   305          0
   306          3
   307          0
   308          2
   310         67
   311         17
   312          2
   320          1
   322         10
   323         33
   325        924
   326        148
   327         17
   328          1