##TITLE=Library Entry 96768
##JCAMP-DX=Revision 4.10 
##DATA TYPE=MASS SPECTRUM
##SAMPLE DESCRIPTION=Chemical Concepts
##NAMES=HP
##CAS NAME=Vanadium, cyclopentadienyl-(1,2,3,6,7,8-.eta.-octa-1,6-diene-3,8-
diyl)-
##MOLFORM=C13H17V
##CAS REGISTRY NO=89184-66-7
##MP= -300
##BP= -300
##MW= 224
##$RETENTION INDEX=0
##$CONDENSED SPECTRUM=NO
##NPOINTS= 134
##XYDATA=(XY..XY) 1 
    25          0
    26         11
    27         40
    28         16
    29          6
    31          0
    36          0
    37          2
    38          4
    39         54
    40         11
    41         11
    42          0
    43          0
    44          0
    48          0
    49          1
    50          6
    51         51
    52          4
    53         16
    54         27
    55          8
    56          0
    58          0
    61          0
    62          1
    63          2
    64          2
    65          5
    66          3
    67          4
    68          2
    69          0
    71          0
    74          0
    75          0
    76         21
    77          4
    78          4
    79          4
    80          1
    81          2
    82          0
    83          0
    85          0
    87          0
    88          9
    89         24
    90         90
    91          4
    92          1
    93          1
    94          0
    95          1
    97          0
   100          1
   101          2
   102          5
   103          3
   104          2
   105          1
   106          1
   107          0
   108          0
   109          0
   110          0
   111          1
   112          1
   113          1
   114          3
   115         11
   116        999
   117         54
   118          1
   119          0
   121          0
   126          1
   127          2
   128         14
   129          7
   130          4
   131          0
   133          0
   139          0
   140          6
   141         14
   142          3
   143          4
   144          0
   149          0
   152          0
   153          4
   154          1
   155          5
   156          1
   157          1
   159          0
   164          0
   165          1
   166          4
   167          4
   168          0
   169          3
   170        313
   171         30
   172          1
   178          0
   180          0
   181         30
   182          4
   183          0
   191          0
   192          0
   193          2
   194         13
   195          4
   196          0
   205          0
   206          0
   207          7
   208          2
   209          0
   216          0
   217          0
   218         13
   219          2
   220          4
   221          3
   222         95
   223         13
   224         44
   225          6
   226          0