##TITLE=Library Entry 20618
##JCAMP-DX=Revision 4.10 
##DATA TYPE=MASS SPECTRUM
##SAMPLE DESCRIPTION=Chemical Concepts
##NAMES=HP
##CAS NAME=Cyclobut-1-enylmethanol
##MOLFORM=C5H8O
##CAS REGISTRY NO=89182-08-1
##MP= -300
##BP= -300
##MW= 84
##$RETENTION INDEX=0
##$CONDENSED SPECTRUM=NO
##NPOINTS= 53
##XYDATA=(XY..XY) 1 
    25          9
    26         90
    27        544
    28        138
    29        344
    30         17
    31        241
    36         10
    37         42
    38         74
    39        547
    40        130
    41        535
    42        118
    43        160
    44         72
    45         21
    49         24
    50        112
    51        157
    52         68
    53        355
    54         70
    55        999
    56        331
    57        174
    58         18
    59          4
    60          4
    61         12
    62         16
    63         23
    64          6
    65        102
    66        102
    67         47
    68          8
    69         88
    70          9
    71          8
    73          2
    74          7
    75          1
    76          2
    77          5
    78          2
    79          3
    80          3
    81         11
    82         16
    83        617
    84        260
    85         20