##TITLE=Library Entry 50633
##JCAMP-DX=Revision 4.10 
##DATA TYPE=MASS SPECTRUM
##SAMPLE DESCRIPTION=William W. Christie, Mylnefield Lipid Analysis, Invergo
wrie, Dundee, Scotland, UK
##NAMES=HP
##CAS NAME=5,9-Hexacosadienoic acid, methyl ester
##MOLFORM=C27H50O2
##CAS REGISTRY NO=89188-20-5
##MP= -300
##BP= -300
##MW= 406
##$RETENTION INDEX=0
##$CONDENSED SPECTRUM=NO
##NPOINTS= 195
##XYDATA=(XY..XY) 1 
    53         50
    54        179
    55        419
    56         50
    57        289
    58         10
    59         60
    65         30
    66         30
    67        539
    68        229
    69        279
    70         30
    71        129
    72         10
    73         10
    74        109
    75         10
    77         40
    78         20
    79        199
    80        209
    81        999
    82        389
    83        289
    84         40
    85         90
    86         10
    87         50
    88         10
    91         60
    92         20
    93        119
    94        179
    95        309
    96        329
    97        259
    98         60
    99        179
   100         10
   101         20
   103         30
   104         10
   105         30
   106         30
   107        109
   108        189
   109        769
   110        329
   111        139
   112         10
   113         20
   115         30
   117         10
   118         10
   119         40
   120         20
   121        159
   122        109
   123        149
   124        100
   125         60
   126         10
   127         20
   128         10
   129         20
   131         50
   132         20
   133         30
   134         20
   135        209
   136        299
   137        139
   138         80
   139         40
   140        239
   141        539
   142         70
   143         30
   145         20
   146         20
   147         20
   148         10
   149        229
   150        379
   151        100
   152         50
   153         20
   154        100
   155         20
   157         10
   159         20
   160         10
   161         10
   162         10
   163        100
   164        159
   165         50
   166         40
   167         70
   168         90
   169         20
   173         20
   175         10
   177         40
   178         40
   179         30
   180         40
   181        129
   182        100
   183         20
   187         10
   189         10
   191         20
   192         20
   193         20
   194         40
   195         50
   196         40
   197         10
   201         10
   205         10
   206         10
   207         20
   208         40
   209         20
   210         20
   219         10
   220         10
   221         20
   222         50
   223         20
   224         10
   233         10
   234         10
   235         20
   236         40
   237         10
   238         10
   247         10
   248         10
   249         20
   250         30
   251         10
   252         10
   261         10
   262         10
   263         10
   264        119
   265         30
   266         10
   275         10
   276         20
   277         10
   278         50
   279         20
   280         10
   289         10
   290         60
   291        109
   292         80
   293         20
   294         10
   303         50
   304         20
   305         50
   306         30
   307         10
   317         10
   318         20
   319         10
   320         20
   321         10
   328         10
   330         20
   331         20
   332        109
   333         30
   334         10
   345         10
   346         20
   347         10
   355         10
   356         20
   357        109
   358         30
   359         10
   374        219
   375        109
   376         40
   377         20
   396         10
   406        309
   407         90
   408         20