##TITLE=Library Entry 86665
##JCAMP-DX=Revision 4.10 
##DATA TYPE=MASS SPECTRUM
##SAMPLE DESCRIPTION=A.A.Kutin, Moscow, Russia
##NAMES=HP
##CAS NAME=Pyrazole-3-carboxamide, N-phenyl-1-methyl-
##MOLFORM=C11H11N3O
##CAS REGISTRY NO=89202-82-4
##MP= -300
##BP= -300
##MW= 201
##$RETENTION INDEX=0
##$CONDENSED SPECTRUM=NO
##NPOINTS= 69
##XYDATA=(XY..XY) 1 
    39         77
    40         22
    42         76
    43          3
    44          0
    49          0
    51         48
    52         40
    54        105
    55         11
    56          1
    57          0
    61          1
    63         30
    65        113
    66         13
    67          1
    68          0
    74          2
    75          3
    77         37
    78          3
    79          5
    81         25
    82          8
    83          0
    86          0
    87          0
    88          0
    89          1
    92         46
    93          7
    94          4
    95          1
   100          1
   102          0
   103          1
   104          1
   105          0
   106          0
   109        999
   110         32
   111          2
   115          0
   116          0
   117          0
   119          2
   120          3
   128          0
   129          0
   131          2
   132          0
   143          1
   144          0
   145          1
   146          0
   156          0
   157          2
   158          0
   159          0
   172          0
   173          3
   174          0
   185          0
   197          0
   198          0
   201        373
   202         39
   203          2