##TITLE=Library Entry 81530
##JCAMP-DX=Revision 4.10 
##DATA TYPE=MASS SPECTRUM
##SAMPLE DESCRIPTION=NIST Mass Spectrometry Data Center
##NAMES=HP
##CAS NAME=4-Methylbenzyl alcohol, TMS derivative
##MOLFORM=C11H18OSi
##CAS REGISTRY NO=89200-92-0
##MP= -300
##BP= -300
##MW= 194
##$RETENTION INDEX=0
##$CONDENSED SPECTRUM=NO
##NPOINTS= 113
##XYDATA=(XY..XY) 1 
    15          2
    26          1
    27         14
    28          1
    29          6
    30          1
    31          3
    38          2
    39         25
    40          2
    41          6
    42          3
    43         31
    44         10
    45         82
    46          6
    47         25
    48          1
    49          1
    50          8
    51         30
    52         11
    53         18
    54          1
    55          5
    56          1
    57          5
    58         17
    59         24
    60          5
    61         13
    62          4
    63         18
    64          4
    65         28
    66          4
    67          2
    68          1
    69          1
    70          1
    71          2
    72          4
    73        210
    74         31
    75        378
    76         32
    77        137
    78         44
    79         87
    80          6
    81          6
    82         11
    83          3
    85          2
    86          1
    87          2
    88         11
    89         39
    91         51
    92          5
    93          5
    95          1
    96          2
    97          1
   101          2
   102         11
   103         94
   104        366
   105        999
   106         85
   107          6
   109          1
   115          5
   116          1
   117          6
   118          4
   119         19
   120          3
   121          4
   123          1
   131          2
   132          1
   133          4
   134          1
   135          7
   136          1
   137          1
   143          1
   145          5
   146          2
   147          6
   149        263
   150         41
   151         12
   152          1
   159          1
   160          1
   161          8
   162          2
   163         28
   164          5
   165          2
   175          1
   177          6
   179        623
   180        100
   181         29
   182          3
   192          1
   193         29
   194         84
   195         15
   196          4