##TITLE=Library Entry 73482
##JCAMP-DX=Revision 4.10 
##DATA TYPE=MASS SPECTRUM
##SAMPLE DESCRIPTION=U. ZAHORSZKY, INST. ORG. CHEM., UNIV. KARLSRUHE, WEST G
ERMAN
##NAMES=HP
##CAS NAME=3-Heptanamine, N-ethyl-3-methyl-
##MOLFORM=C10H23N
##CAS REGISTRY NO=89214-90-4
##MP= -300
##BP= -300
##MW= 157
##$RETENTION INDEX=0
##$CONDENSED SPECTRUM=NO
##NPOINTS= 34
##XYDATA=(XY..XY) 1 
    26         10
    27         65
    28         61
    29         99
    30         92
    39         31
    41        107
    42        130
    43         76
    44        130
    46         15
    53         10
    55        168
    56         38
    57         65
    58         69
    69         15
    70         57
    71         31
    72        122
    83         15
    84         38
    85         23
    86         23
    98         31
   100        999
   101         69
   126         25
   128        840
   129         75
   142        107
   143          8
   156          3
   157          1