##TITLE=Library Entry 86980
##JCAMP-DX=Revision 4.10 
##DATA TYPE=MASS SPECTRUM
##SAMPLE DESCRIPTION=J. Klune, Insect Chem. Ecol. Lab., USDA, Beltsville, MD
 20705
##NAMES=HP
##CAS NAME=8-Tetradecyn-1-ol
##MOLFORM=C14H26O
##CAS REGISTRY NO=89216-52-4
##MP= -300
##BP= -300
##MW= 210
##$RETENTION INDEX=0
##$CONDENSED SPECTRUM=NO
##NPOINTS= 100
##XYDATA=(XY..XY) 1 
    41        379
    42         69
    43        961
    44         26
    45          8
    50          5
    51         23
    52         49
    53        124
    54        471
    55        491
    56         66
    57         76
    58          7
    61         93
    63          7
    65         72
    66         99
    67        747
    68        555
    69        246
    70         30
    71         34
    72          5
    73         32
    77        117
    78         48
    79        593
    80        380
    81        854
    82        525
    83        197
    84         30
    85         34
    86          4
    87          6
    91        133
    92         30
    93        519
    94        305
    95        531
    96        207
    97         62
    98         15
    99          9
   101         10
   103          4
   105         35
   106         14
   107        343
   108        184
   109        156
   110        999
   111        112
   112          9
   113          4
   115          1
   117          4
   119         14
   120          9
   121        462
   122        103
   123         56
   124        161
   125         25
   126          6
   127          1
   129          6
   133          7
   134          3
   135        164
   136        175
   137         36
   138         15
   139          8
   143         12
   147          1
   149         52
   150        166
   151         27
   152          4
   153          6
   155          1
   163         28
   164         20
   165          9
   167         11
   168          4
   169          1
   177          8
   181          3
   191          5
   192         19
   193          6
   194          8
   196          4
   207          2
   209          7
   210         12
   211          6