##TITLE=Library Entry 60760
##JCAMP-DX=Revision 4.10 
##DATA TYPE=MASS SPECTRUM
##SAMPLE DESCRIPTION=Chemical Concepts
##NAMES=HP
##CAS NAME=4H-Pyran-4-one, 2,3-dihydro-2-[1-(benzyloxy)ethyl]-
##MOLFORM=C14H16O3
##CAS REGISTRY NO=89279-54-9
##MP= -300
##BP= -300
##MW= 232
##$RETENTION INDEX=0
##$CONDENSED SPECTRUM=NO
##NPOINTS= 138
##XYDATA=(XY..XY) 1 
    25          0
    26          5
    27         47
    29         46
    30          1
    31          2
    36          0
    37          0
    38          3
    39         51
    40         13
    41         55
    42         17
    43         58
    44          3
    45          7
    49          0
    50          6
    51         31
    52          8
    53         12
    54          7
    55         40
    56          7
    57          4
    58          1
    59          0
    60          0
    61          1
    62          2
    63         19
    64          6
    65        111
    66          6
    67          1
    68          2
    69         20
    70          9
    71        106
    72          3
    73          1
    74          1
    75          1
    76          1
    77         35
    78          8
    79         23
    80          4
    81          1
    82         12
    83          3
    84         11
    85          1
    86          0
    87          0
    88          0
    89         21
    90         12
    91        999
    92        248
    93         13
    94          1
    95          0
    96          0
    97        676
    98         39
    99          4
   100          0
   101          0
   102          0
   103          1
   104          6
   105         20
   106          5
   107         26
   108          5
   109          1
   110          0
   111          5
   112          0
   113          0
   115          3
   116          3
   117         21
   118         71
   119          5
   120          0
   121          9
   122          0
   123          0
   124          2
   125          6
   126         63
   127          5
   128          1
   129          1
   130          0
   131          0
   132          0
   133          1
   134          2
   135         58
   136         12
   137          0
   141         40
   142          4
   143          0
   144         39
   145          4
   146          1
   147          0
   148          0
   149          0
   157          0
   158          0
   159          0
   160          1
   161          0
   162         15
   163          1
   164          0
   170          0
   171          0
   172          0
   173          0
   177          3
   178          0
   185          0
   186          0
   187          1
   188         78
   189         10
   190          0
   202          0
   223          0
   232          7
   233          1
   234          0