##TITLE=Library Entry 46700
##JCAMP-DX=Revision 4.10 
##DATA TYPE=MASS SPECTRUM
##SAMPLE DESCRIPTION=V.A.Korolev, Moscow, Russia
##NAMES=HP
##CAS NAME=(7-Benzoyl-2,3-dihydro-1,4-benzodioxin-6-yl)(phenyl)diazene
##MOLFORM=C21H16N2O3
##CAS REGISTRY NO=892709-38-5
##MP= -300
##BP= -300
##MW= 344
##$RETENTION INDEX=0
##$CONDENSED SPECTRUM=NO
##NPOINTS= 162
##XYDATA=(XY..XY) 1 
    36          4
    37         25
    38         47
    39         97
    40         34
    41         37
    42          7
    43         45
    44         41
    45          3
    50        403
    51        798
    52         63
    53         55
    55         22
    56          2
    57          7
    61         14
    62         50
    63         72
    64         58
    65         36
    66          8
    67          4
    69        138
    70          4
    71          1
    74         53
    75         61
    77        999
    78        181
    79         18
    83          1
    85          3
    86         10
    87         15
    88         11
    89         21
    90          7
    91         15
    92          4
    93         13
    94          5
    95          1
    98          7
    99          8
   100          7
   101         35
   102         18
   103          5
   105        366
   106         28
   107         12
   111         10
   113         17
   114         17
   115         30
   116          6
   119          4
   122          2
   123          2
   124          2
   125          9
   126        100
   127        209
   128         45
   129          9
   134         21
   135         10
   136          5
   137          6
   139        350
   140         53
   141         14
   142          1
   144          1
   149         11
   150         12
   151         29
   152         23
   153         19
   154         64
   155        182
   156         22
   157          2
   161          3
   162         11
   163         31
   164          6
   165         34
   166          6
   167        113
   168         73
   169         45
   170          4
   172         21
   177          3
   178          3
   179         10
   180         28
   181         15
   182         14
   183        164
   184         28
   185          8
   186          2
   189          2
   193          1
   195         19
   196         29
   197         11
   198          5
   202          9
   203          6
   204          3
   209          3
   210          7
   211         12
   212          6
   213         10
   214          2
   215         10
   223         11
   224          3
   225          7
   226          2
   231          6
   232          3
   236          2
   237          2
   238         15
   239        434
   240         73
   241         11
   248          2
   251          5
   252          5
   253          1
   254          2
   255          2
   259          9
   260         10
   261          2
   267         25
   271          4
   272          5
   274          3
   285          3
   287         16
   288         25
   289          5
   297          3
   299          2
   315         12
   328          5
   329         18
   330          5
   343         38
   344        478
   345        113
   346         18
   347          3