##TITLE=Library Entry 31849
##JCAMP-DX=Revision 4.10 
##DATA TYPE=MASS SPECTRUM
##SAMPLE DESCRIPTION=Chemical Concepts
##NAMES=HP
##CAS NAME=3,5-Dimethyl-4-pyrazolesulfonic acid
##MOLFORM=C5H8N2O3S
##CAS REGISTRY NO=89280-34-2
##MP= -300
##BP= -300
##MW= 176
##$RETENTION INDEX=0
##$CONDENSED SPECTRUM=NO
##NPOINTS= 48
##XYDATA=(XY..XY) 1 
    34         13
    36         13
    37         48
    38        144
    39        682
    40        409
    41        386
    42        713
    43         99
    44         83
    45         59
    48         91
    49         18
    50         49
    51         98
    52         84
    53        134
    54        106
    55         56
    56         23
    57         21
    58         16
    61         30
    62         75
    63        140
    65        999
    66        178
    67         36
    68         82
    69         26
    70         19
    77         28
    79         28
    80         21
    81         69
    82         18
    94        576
    95        441
    96        210
    97         16
   110         25
   141         14
   143         14
   158         18
   159         81
   176        528
   177         33
   178         21