##TITLE=Library Entry 51150
##JCAMP-DX=Revision 4.10 
##DATA TYPE=MASS SPECTRUM
##SAMPLE DESCRIPTION=T. AANERUD, UNIV. MONTANA, MISSOULA, MONT.,
##NAMES=HP
##CAS NAME=2(5H)-Furanone, 5-(2-hydroxyethylidene)-
##MOLFORM=C6H6O3
##CAS REGISTRY NO=89291-42-9
##MP= -300
##BP= -300
##MW= 126
##$RETENTION INDEX=0
##$CONDENSED SPECTRUM=NO
##NPOINTS= 24
##XYDATA=(XY..XY) 1 
    42         50
    43        140
    44        130
    45         10
    53         60
    54        890
    55         10
    56         10
    60         10
    68         20
    69         70
    70         20
    71         50
    79         30
    82        999
    83         40
    84         10
    96         30
    97        110
    98         10
   109         20
   110         20
   126        190
   127         40