##TITLE=Library Entry 30340
##JCAMP-DX=Revision 4.10 
##DATA TYPE=MASS SPECTRUM
##SAMPLE DESCRIPTION=ASES Database, Dalian Institute, P.R. China
##NAMES=HP
##CAS NAME=Methyl 3-bromo-2,2-dichloro-propanoate
##MOLFORM=C4H5BrCl2O2
##CAS REGISTRY NO=89294-73-5
##MP= -300
##BP= -300
##MW= 234
##$RETENTION INDEX=1127
##$CONDENSED SPECTRUM=NO
##NPOINTS= 30
##XYDATA=(XY..XY) 1 
    59        999
    60        100
    61        717
    62         29
    63        227
    85         69
    89        229
    91         79
    95         40
    96        748
    97         29
    98        478
   100         79
   105         20
   107          9
   111         50
   113         29
   119         19
   120         69
   122         19
   123          9
   139         40
   140         10
   141         50
   155          9
   167         10
   169         19
   175        100
   177        149
   191         10