##TITLE=Library Entry 1775
##JCAMP-DX=Revision 4.10 
##DATA TYPE=MASS SPECTRUM
##SAMPLE DESCRIPTION=ASES Database, Dalian Institute, P.R. China
##NAMES=HP
##CAS NAME=Methyl erythro-4-chloro-2,3-dibromo-butyrate
##MOLFORM=C5H7Br2ClO2
##CAS REGISTRY NO=89294-92-8
##MP= -300
##BP= -300
##MW= 292
##$RETENTION INDEX=0
##$CONDENSED SPECTRUM=NO
##NPOINTS= 43
##XYDATA=(XY..XY) 1 
    39        999
    49        217
    51         68
    59        765
    61          9
    63         19
    75        576
    76         20
    77        201
    83         20
    95         40
    97         19
   102        230
   103        677
   104         79
   105        487
   107         80
   119        178
   121        179
   127         40
   129         50
   133        645
   134        200
   135        218
   136         69
   139         29
   141         30
   153         69
   154         40
   155         90
   156         49
   157         20
   158          9
   169          9
   171          9
   177         19
   179         19
   213        407
   215        697
   217        299
   233         20
   235         40
   237         29