##TITLE=Library Entry 36820
##JCAMP-DX=Revision 4.10 
##DATA TYPE=MASS SPECTRUM
##SAMPLE DESCRIPTION=Institute of Organic Chemistry, USSR, 1990
##NAMES=HP
##CAS NAME=Trifluoroacetoacetyl-2-naphthalene
##MOLFORM=C14H9F3O2
##CAS REGISTRY NO=893-33-4
##MP= -300
##BP= -300
##MW= 266
##$RETENTION INDEX=0
##$CONDENSED SPECTRUM=NO
##NPOINTS= 53
##XYDATA=(XY..XY) 1 
    50         15
    51         34
    57          6
    58         12
    62          7
    63         33
    64         26
    69        999
    70         62
    71         12
    74         19
    75         41
    76         23
    77         58
    78         23
    84         25
    87         12
    89         11
    98        141
    99         30
   100          7
   101         32
   102         13
   113          6
   115         40
   119          8
   125          6
   126         72
   127        273
   128         77
   129        201
   130         19
   131          5
   133         10
   139         62
   140         24
   141         24
   149          6
   150         11
   151         22
   152         38
   153          6
   155        107
   156         12
   168         10
   169          9
   197        540
   198         74
   199          6
   265         83
   266        763
   267        114
   268         10