##TITLE=Library Entry 54287
##JCAMP-DX=Revision 4.10 
##DATA TYPE=MASS SPECTRUM
##SAMPLE DESCRIPTION=A. Brossi, LC, NIDDK, NIH, Bethesda, MD 20892
##NAMES=HP
##CAS NAME=Pyrrolidine-5-one-2-propionic acid, ethyl (ester)
##MOLFORM=C9H15NO3
##CAS REGISTRY NO=89317-07-7
##MP= -300
##BP= -300
##MW= 185
##$RETENTION INDEX=0
##$CONDENSED SPECTRUM=NO
##NPOINTS= 119
##XYDATA=(XY..XY) 1 
    41         85
    42         38
    43         22
    44         13
    45         19
    46          0
    47          9
    48          5
    49          8
    50          3
    51          4
    52          4
    53         12
    54         26
    55         67
    56         77
    57         16
    58          2
    59          1
    60         32
    61         14
    62          0
    63          2
    64          0
    65          5
    66          3
    67         15
    68         12
    69         33
    70         28
    71         12
    72          3
    73         18
    74         11
    75          3
    76          0
    77          5
    78         11
    79          2
    80          5
    81          7
    82         24
    83         28
    84        999
    85         85
    86         32
    87          3
    88         26
    89          2
    91          1
    92          0
    93          1
    94          5
    95          8
    96          9
    97         31
    98        300
    99         54
   100         16
   101         30
   102          5
   103          2
   105          3
   106          9
   107          1
   108          0
   109          1
   110         22
   111         19
   112         76
   113         17
   114          5
   115          1
   118          2
   119          3
   120          0
   121          5
   122          6
   123          6
   124         14
   125          2
   126          0
   127          0
   128         26
   129          6
   130          3
   131          4
   135          0
   136          0
   137          0
   138          9
   139          3
   140        336
   141         45
   142          3
   143          8
   144          1
   148          0
   149         12
   150          3
   151          0
   152          3
   153          6
   154          1
   156          4
   157        143
   158         15
   159          3
   164          1
   165          0
   167          2
   168          0
   169          0
   183          1
   184          1
   185        232
   186         48
   187          4
   188          0