##TITLE=Library Entry 51035
##JCAMP-DX=Revision 4.10 
##DATA TYPE=MASS SPECTRUM
##SAMPLE DESCRIPTION=Chemical Concepts
##NAMES=HP
##CAS NAME=1-Oxacyclopentadecan-2-one, 15-isopropenyl
##MOLFORM=C17H30O2
##CAS REGISTRY NO=89328-44-9
##MP= -300
##BP= -300
##MW= 266
##$RETENTION INDEX=0
##$CONDENSED SPECTRUM=NO
##NPOINTS= 211
##XYDATA=(XY..XY) 1 
    25          2
    26          3
    27         82
    29        162
    30          5
    31          5
    33          2
    34          2
    35          2
    36          2
    37          2
    38          2
    39         97
    40         32
    41        507
    42        109
    43        213
    44          9
    45         12
    46          2
    47          2
    48          2
    49          2
    50          2
    51          7
    52          5
    53         83
    54         90
    55        501
    56        119
    57         86
    58         86
    59         33
    60          8
    61          2
    62          2
    63          3
    64          2
    65         18
    66         28
    67        299
    68        404
    69        329
    70         75
    71        159
    72         50
    73         26
    74          3
    75          3
    77         24
    78          8
    79         72
    80         60
    81        423
    82        999
    83        240
    84         85
    85         58
    86         43
    87         13
    88          2
    89          2
    91         15
    92          7
    93         49
    94         57
    95        490
    96        248
    97        127
    98        118
    99         31
   100         10
   101          7
   102          3
   103          3
   104          3
   105          6
   106          4
   107         35
   108         35
   109        163
   110         95
   111         71
   112         50
   113         15
   114         11
   115          8
   116          2
   117          2
   118          2
   119          6
   120          4
   121         39
   122         21
   123         72
   124         42
   125         39
   126         19
   127         12
   128         10
   129          8
   130          2
   131          4
   132          2
   133          6
   134          3
   135         28
   136         22
   137         35
   138         30
   139         20
   140         15
   141         10
   142          4
   143          4
   144          2
   145          3
   146          2
   147          4
   148          3
   149         17
   150         19
   151         14
   152          9
   153         13
   154         12
   155          5
   156          2
   157          2
   158          2
   159          3
   161          5
   162          2
   163         12
   164          8
   165          6
   166          5
   167         13
   168         12
   169          4
   170          2
   171          2
   172          2
   173          3
   174          2
   175          4
   176          2
   177         11
   178          6
   179          5
   180          3
   181         16
   182         12
   183          5
   184          3
   185          2
   186          2
   187         12
   188          3
   189          2
   191          4
   192         11
   193          6
   194          3
   195         51
   196         22
   197          6
   198          2
   199          2
   200          2
   202          2
   203          2
   205          7
   206          5
   207          3
   208          2
   210         47
   211          9
   212          2
   213          2
   215          2
   216          2
   218          2
   219          2
   220          8
   221          2
   222          2
   223         42
   224         12
   225          6
   226          2
   227          2
   229          2
   230          2
   232          2
   233          2
   234          2
   235          2
   236          2
   237         11
   238         12
   239          3
   244          2
   246          3
   248          4
   251         24
   252          6
   253          2
   266        173
   267         36
   269          5