##TITLE=Library Entry 53018
##JCAMP-DX=Revision 4.10 
##DATA TYPE=MASS SPECTRUM
##SAMPLE DESCRIPTION=P.A. Leclercq, Lab. Instrum. Anal., Eindhoven Univ. Tec
hnol., Netherlands
##NAMES=HP
##CAS NAME=Cyclohexanecarboxylic acid, 4-butyl-, 4-propylphenyl ester
##MOLFORM=C20H30O2
##CAS REGISTRY NO=89356-02-5
##MP= -300
##BP= -300
##MW= 302
##$RETENTION INDEX=0
##$CONDENSED SPECTRUM=NO
##NPOINTS= 74
##XYDATA=(XY..XY) 1 
    27        136
    28         16
    29        284
    30          5
    39        109
    41        449
    42         37
    43        158
    44          7
    50          7
    51         28
    52         27
    53         82
    54         85
    55        515
    56         36
    57        266
    58         12
    63         11
    65         97
    66         19
    67        239
    68         42
    69        315
    70         19
    71         47
    72          4
    77        116
    78         82
    79        106
    81        273
    83        999
    84         68
    85          8
    89         11
    91         80
    92         21
    93         56
    94         15
    95        108
    96         71
    97        354
    98         31
   103          8
   104          4
   105         14
   107        810
   108         72
   109         75
   110         29
   111          8
   115          9
   117          7
   119         17
   120         11
   121          9
   122          5
   123         15
   124          9
   133         17
   134          9
   135         78
   136        599
   137         91
   139        258
   140         28
   147          4
   148         30
   149          5
   166        459
   167        157
   168         18
   302         60
   303         13