##TITLE=Library Entry 55353
##JCAMP-DX=Revision 4.10 
##DATA TYPE=MASS SPECTRUM
##SAMPLE DESCRIPTION=Chemical Concepts
##NAMES=HP
##CAS NAME=2-Hydroxypentanediamide
##MOLFORM=C5H10N2O3
##CAS REGISTRY NO=89364-95-4
##MP= -300
##BP= -300
##MW= 146
##$RETENTION INDEX=0
##$CONDENSED SPECTRUM=NO
##NPOINTS= 64
##XYDATA=(XY..XY) 1 
    26         14
    27         67
    28         75
    29        306
    30         28
    31         40
    37          2
    38          6
    39         42
    40         12
    41        135
    42         56
    43        150
    44        379
    45         57
    46         15
    52          2
    54          9
    55         68
    56         63
    57        201
    58         57
    59        406
    60         34
    61         18
    66          5
    67          2
    68          4
    69         11
    70          4
    71          6
    72         89
    73         90
    74         13
    75         66
    76          2
    81          2
    82          3
    83          7
    84         74
    85        999
    86        167
    87         14
    88         15
    89          1
    90         10
    91          1
    95          2
    97          3
    98          2
    99          2
   100          5
   101         41
   102        652
   103         96
   104          6
   111          2
   112          3
   115          2
   116          5
   128          1
   129         79
   130         15
   147          6