##TITLE=Library Entry 11970
##JCAMP-DX=Revision 4.10 
##DATA TYPE=MASS SPECTRUM
##SAMPLE DESCRIPTION=Japan AIST/NIMC Database- Spectrum MS-IW-1992
##NAMES=HP
##CAS NAME=N-(6-Chloro-4-pyrimidinyl)acetamide
##MOLFORM=C6H6ClN3O
##CAS REGISTRY NO=89379-94-2
##MP= -300
##BP= -300
##MW= 171
##$RETENTION INDEX=0
##$CONDENSED SPECTRUM=NO
##NPOINTS= 92
##XYDATA=(XY..XY) 1 
    12          1
    13          2
    14         12
    15        110
    16          2
    25          3
    26          4
    27          9
    28         87
    29          5
    30          9
    35          2
    36          7
    37          3
    38         20
    39         39
    40         39
    41         16
    42         57
    43        999
    44         30
    45          3
    47          8
    48          3
    49          4
    50          3
    51         30
    52         33
    53          8
    54          6
    55          5
    60         13
    61          2
    62          9
    63          2
    64          4
    65         14
    66         90
    67        212
    68         10
    69          4
    73          3
    74         26
    75          5
    76         10
    77          5
    78          1
    79          2
    80          1
    81          3
    82          2
    85          3
    86         51
    87          5
    88         17
    89          2
    90          1
    92          4
    93          5
    94         75
    95          5
   101          9
   102        227
   103         14
   104         72
   105          4
   108          1
   109          4
   113         24
   114          2
   115          9
   116          3
   120          1
   128          4
   129        584
   130         82
   131        191
   132         26
   133          1
   136          4
   142          2
   143        134
   144          9
   145         43
   146          3
   156          9
   158          3
   170          6
   171        343
   172         29
   173        113
   174          9