##TITLE=Library Entry 42217
##JCAMP-DX=Revision 4.10 
##DATA TYPE=MASS SPECTRUM
##SAMPLE DESCRIPTION=Tox21 Consortium/NIST Mass Spectrometry Data Center, 20
12
##NAMES=HP
##CAS NAME=2-Methyl-5-nitro-1-{2-[(trimethylsilyl)oxy]propyl}-1H-imidazole
##MOLFORM=C10H19N3O3Si
##CAS REGISTRY NO=89422-94-6
##MP= -300
##BP= -300
##MW= 257
##$RETENTION INDEX=0
##$CONDENSED SPECTRUM=NO
##NPOINTS= 159
##XYDATA=(XY..XY) 1 
    15          3
    26          7
    27         13
    28         13
    29         11
    30         14
    31          3
    38          1
    39         18
    40          8
    41         39
    42         40
    43         60
    44         20
    45         98
    46          7
    47         40
    48          2
    49          2
    50          1
    51          4
    52         43
    53        117
    54         36
    55         22
    56         10
    57         14
    58         22
    59         46
    60         10
    61         37
    62          4
    63          3
    64          1
    66          6
    67         25
    68         12
    69         67
    70         14
    71          7
    72         27
    73        999
    74         89
    75        165
    76         12
    77         27
    78          4
    79          6
    80         45
    81         17
    82         14
    83         27
    84         29
    85         18
    86         19
    87         12
    88          4
    89          2
    90          1
    91          4
    92          1
    93          3
    94         10
    95          9
    96         15
    97          6
    98         13
    99         15
   100         15
   101         27
   102          7
   103          9
   104         18
   105          2
   106          3
   107          2
   108          4
   109          6
   110          4
   111         13
   112          9
   113          6
   114          8
   115         41
   117        938
   118        103
   119         39
   120          3
   121          6
   122          6
   123          5
   124          4
   125          8
   126          3
   127          4
   128          3
   129          7
   130          8
   131          3
   132          1
   133          1
   134          2
   135          1
   136          1
   137          4
   138          3
   139          4
   140         15
   141         13
   142          4
   143          2
   144          1
   148          1
   149          1
   150          1
   151          3
   152          6
   153          6
   154          4
   155          5
   156          5
   157          2
   163          3
   164          1
   165          2
   166          3
   167          3
   168         42
   169          7
   170          4
   171          1
   179          3
   181        215
   182         33
   183         29
   184         70
   185         10
   186          3
   195         10
   196        131
   197         21
   198          7
   199          1
   209          1
   210          1
   211         10
   212          6
   213         88
   214         13
   215          4
   224          2
   240          2
   242         51
   243          8
   244          2
   256          1
   257         15
   258          3
   259          1