##TITLE=Library Entry 16554
##JCAMP-DX=Revision 4.10 
##DATA TYPE=MASS SPECTRUM
##SAMPLE DESCRIPTION=Chemical Concepts
##NAMES=HP
##CAS NAME=7-Nitro-9-oxo-9,10-dihydroacridine-4-carboxylic acid
##MOLFORM=C14H8N2O5
##CAS REGISTRY NO=89459-28-9
##MP= -300
##BP= -300
##MW= 284
##$RETENTION INDEX=0
##$CONDENSED SPECTRUM=NO
##NPOINTS= 229
##XYDATA=(XY..XY) 1 
    22          9
    26          4
    27         28
    28        188
    29         26
    30        102
    31          2
    32          4
    36          4
    37          5
    38         14
    39         58
    40          6
    41         33
    42          5
    43         33
    44        999
    45         16
    46         10
    47          2
    49          1
    50         49
    51         49
    52         21
    53         15
    54          3
    55         28
    56         13
    57         16
    58          1
    59          3
    60          3
    61          8
    62         37
    63         90
    64         28
    65         24
    66          4
    67         15
    68          4
    69         20
    70         11
    71          9
    72          1
    73          9
    74         39
    75         62
    76         48
    77         55
    78         14
    79         27
    80          4
    81         14
    82         13
    83         23
    84          3
    85         14
    86         16
    87         29
    88         31
    89         37
    90         14
    91         27
    92         16
    93         16
    94          5
    95          8
    96          8
    97          7
    98         10
    99         10
   100          8
   101         16
   102         16
   103          8
   104          8
   105         49
   106          8
   107          8
   108          2
   109          4
   110          9
   111          9
   112         13
   113         39
   114         25
   115         25
   116         19
   117         11
   118          9
   119          9
   120          6
   121          6
   122          2
   123          4
   124          2
   125          9
   126         19
   127         28
   128         21
   129          7
   130          9
   131          3
   132          4
   133          8
   134          5
   135         52
   136          9
   137         34
   138         58
   139        272
   140        146
   141         19
   142          9
   143          7
   144          4
   145          4
   146          3
   147          4
   148          1
   149          4
   150          3
   151         10
   152         14
   153         28
   154         55
   155          8
   156          6
   157          9
   158          3
   159          3
   160          2
   161          3
   162          5
   163         12
   164        130
   165         75
   166        206
   167         34
   168         14
   169          3
   170          2
   171          4
   172          4
   173         16
   174          3
   175          2
   176          2
   177          2
   178          9
   179          8
   180          9
   181         10
   182         46
   183         10
   184          6
   185          3
   186          5
   187          2
   188          1
   189          1
   190          1
   191          7
   192         37
   193         22
   194        374
   195         59
   196          8
   197          5
   198          2
   199          4
   200          4
   201          1
   202          1
   205          1
   206          2
   207         27
   208         18
   209         11
   210        154
   211         27
   212          4
   213          2
   214          6
   215          1
   219          1
   220         41
   221         10
   222          4
   223          5
   224         16
   225          3
   226          3
   227          1
   228          1
   234          1
   235          2
   236         21
   237          4
   238          4
   239         10
   240        666
   241         97
   242         11
   243          1
   248          1
   249         31
   250          7
   251          1
   254         10
   255          2
   256          3
   258          7
   259          2
   260          1
   265          1
   266         87
   267         14
   268          7
   269          1
   277          4
   278          1
   280          1
   281          4
   282          2
   283          2
   284         63
   285         11
   286          1