##TITLE=Library Entry 58071
##JCAMP-DX=Revision 4.10 
##DATA TYPE=MASS SPECTRUM
##SAMPLE DESCRIPTION=NIST Mass Spectrometry Data Center, 2012
##NAMES=HP
##CAS NAME=Glycine, N-(methoxyoxoacetyl)-, methyl ester
##MOLFORM=C6H9NO5
##CAS REGISTRY NO=89464-63-1
##MP= -300
##BP= -300
##MW= 175
##$RETENTION INDEX=0
##$CONDENSED SPECTRUM=NO
##NPOINTS= 51
##XYDATA=(XY..XY) 1 
    15        111
    26          1
    27         15
    29        145
    30         31
    31         26
    33         11
    38          1
    39          2
    40          3
    41          5
    42         96
    43         41
    44        424
    45        113
    46          2
    47          2
    54          4
    55          7
    56        498
    57         20
    58         15
    59        388
    60         20
    61          3
    70          1
    71          1
    72          2
    73          2
    74          6
    83          2
    84          9
    85          1
    86          2
    87          4
    88        999
    89         37
    90          5
    99          1
   115          3
   116        877
   117         43
   118          7
   119          1
   143          4
   144         31
   145          7
   146          1
   147          3
   175          9
   176          1