##TITLE=Library Entry 30871
##JCAMP-DX=Revision 4.10 
##DATA TYPE=MASS SPECTRUM
##SAMPLE DESCRIPTION=Chemical Concepts
##NAMES=HP
##CAS NAME=Ethenol, 2-ethoxy-, acetate
##MOLFORM=C6H10O3
##CAS REGISTRY NO=89489-60-1
##MP= -300
##BP= -300
##MW= 130
##$RETENTION INDEX=0
##$CONDENSED SPECTRUM=NO
##NPOINTS= 40
##XYDATA=(XY..XY) 1 
    26         14
    27         87
    28         27
    29        199
    30         21
    31         54
    39         10
    41         30
    42        114
    43        700
    44         30
    45         26
    55         10
    57         17
    58         11
    59         76
    60        999
    61         41
    62          9
    67          6
    69          9
    70          6
    71         15
    73          8
    74          7
    77          6
    79          6
    81          9
    83          7
    84          6
    85         55
    86          7
    87          8
    88        695
    89         47
    90          7
    91         14
    92          6
   130        210
   131         18