##TITLE=Library Entry 73423
##JCAMP-DX=Revision 4.10 
##DATA TYPE=MASS SPECTRUM
##SAMPLE DESCRIPTION=Darrick Lee, Cayman Chemical, Ann Arbor, MI
##NAMES=HP
##CAS NAME=A-796,260
##MOLFORM=C22H30N2O2
##CAS REGISTRY NO=895155-26-7
##MP= -300
##BP= -300
##MW= 354
##$RETENTION INDEX=0
##$CONDENSED SPECTRUM=NO
##NPOINTS= 99
##XYDATA=(XY..XY) 1 
    41         26
    42         27
    43         13
    44          7
    45          3
    53          5
    54          7
    55         41
    56         64
    57         10
    58          2
    63          2
    65          2
    67          4
    68          3
    69          8
    70         36
    71          3
    72          9
    75          3
    76          2
    77          7
    78          2
    79          4
    81          6
    82          2
    83         10
    84          6
    85          2
    86          2
    88          2
    89          5
    91          2
    95          2
    97          4
    98         12
   100        999
   101         66
   102         14
   103          5
   109          2
   112          4
   114        109
   115         25
   116          7
   117          5
   125          6
   127          3
   128         12
   129         25
   130         17
   131          3
   140          2
   141          2
   142          3
   143         16
   144         10
   152          2
   153          2
   154          5
   155          2
   156          4
   157          6
   158          4
   165          2
   166          3
   167          9
   168          5
   169          3
   170          8
   171          3
   172          2
   179          2
   180         10
   181          8
   182          5
   183          2
   184          2
   194          6
   195          3
   196          6
   197          3
   198          2
   199          3
   208          2
   210          5
   211          2
   224         16
   225          3
   238          3
   239          6
   254          4
   255          2
   257         22
   258          4
   311          2
   339          3
   354         17
   355          4