##TITLE=Library Entry 89295
##JCAMP-DX=Revision 4.10 
##DATA TYPE=MASS SPECTRUM
##SAMPLE DESCRIPTION=Japan AIST/NIMC Database- Spectrum MS-IW-5198
##NAMES=HP
##CAS NAME=4-Oxovaleric acid semicarbazone
##MOLFORM=C6H11N3O3
##CAS REGISTRY NO=89532-09-2
##MP= -300
##BP= -300
##MW= 173
##$RETENTION INDEX=0
##$CONDENSED SPECTRUM=NO
##NPOINTS= 145
##XYDATA=(XY..XY) 1 
    12          5
    13          2
    14         12
    15         38
    16         49
    17         98
    18        231
    19          1
    20          2
    21          2
    22          1
    24          3
    25         11
    26        123
    27        233
    28        266
    29         94
    30         80
    31         33
    32         46
    33          3
    34          1
    36          3
    37          9
    38         32
    39        116
    40        118
    41        375
    42        324
    43        464
    44        311
    45         49
    46          3
    47          1
    48          1
    49          6
    50         37
    51         55
    52         95
    53        131
    54         88
    55        222
    56         99
    57        343
    58         30
    59         20
    60         48
    61         12
    62          2
    63          3
    64          5
    65          9
    66         11
    67         35
    68        144
    69         74
    70         44
    71         72
    72         14
    73         26
    74         10
    75         10
    76         17
    77         32
    78         16
    79         19
    80         15
    81         16
    82         18
    83        115
    84        161
    85        457
    86         27
    87         12
    88          1
    89          2
    91          2
    92          3
    93          4
    94         10
    95         43
    96         51
    97         40
    98         17
    99         80
   100        230
   101         14
   102          2
   103          1
   104          1
   105          2
   106          1
   107          1
   108          2
   109          4
   110         24
   111         78
   112        999
   113        132
   114         66
   115         13
   116          5
   117          1
   118          1
   119          1
   120          1
   121          1
   122          1
   123          3
   124          3
   125          4
   126          1
   127          1
   128         37
   129          5
   130        106
   131          9
   132          2
   133          1
   135          1
   137          4
   138         46
   139          9
   140          5
   141          4
   142          8
   143          2
   144          1
   145          1
   146          1
   147          1
   148          1
   149          1
   151          2
   152          1
   153          1
   154          1
   155         30
   156         28
   157          3
   158         12
   159          3
   173        184
   174         17
   175          2