##TITLE=Library Entry 49897
##JCAMP-DX=Revision 4.10 
##DATA TYPE=MASS SPECTRUM
##SAMPLE DESCRIPTION=Chemical Concepts
##NAMES=HP
##CAS NAME=2,4-Pentadienamide, N,N-diethyl-
##MOLFORM=C9H15NO
##CAS REGISTRY NO=89546-18-9
##MP= -300
##BP= -300
##MW= 153
##$RETENTION INDEX=0
##$CONDENSED SPECTRUM=NO
##NPOINTS= 86
##XYDATA=(XY..XY) 1 
    27        374
    28         79
    29        136
    30         27
    31          1
    35          0
    37          2
    38          5
    39         28
    40          9
    41         27
    42         80
    43          5
    44         54
    45          2
    46          0
    49          2
    50         29
    51         62
    52         45
    53        592
    54         46
    55         16
    56         53
    57          4
    58        128
    59          5
    62          0
    63          1
    64          0
    65          2
    66          2
    67         28
    68         10
    69          6
    70         15
    71          6
    72        179
    73         12
    75          0
    77          2
    78          3
    79          8
    80          9
    81        999
    82        136
    83         13
    84          2
    85          2
    86          3
    87          0
    88          1
    92          1
    93          0
    94          1
    95          3
    96         21
    97          3
    98          3
    99          1
   106          0
   108          3
   109          6
   110         34
   111         12
   112          5
   113          1
   115          1
   116          0
   120          0
   122          1
   123          1
   124         43
   125         11
   126         52
   127          4
   136          1
   137          0
   138         67
   139          6
   142          1
   151          0
   152         26
   153        218
   154         23
   155          1