##TITLE=Library Entry 55612
##JCAMP-DX=Revision 4.10 
##DATA TYPE=MASS SPECTRUM
##SAMPLE DESCRIPTION=P.A. Leclercq, Lab. Instrum. Anal., Eindhoven Univ. Tec
hnol., Netherlands
##NAMES=HP
##CAS NAME=Phosphinothioic acid, P,S- bis(hexahydro-1-pyridazinyl)-, O-pheny
l ester
##MOLFORM=C14H23N4OPS
##CAS REGISTRY NO=89552-73-8
##MP= -300
##BP= -300
##MW= 326
##$RETENTION INDEX=0
##$CONDENSED SPECTRUM=NO
##NPOINTS= 77
##XYDATA=(XY..XY) 1 
    39         35
    40          5
    41        141
    42         35
    43         52
    44         29
    45          5
    46         11
    51         11
    53          5
    55         47
    56         52
    57         11
    58          5
    63         23
    65         11
    66          5
    67          5
    68         47
    69         29
    70        229
    71         17
    73          5
    77         23
    78          5
    79         58
    81          5
    83         23
    84         17
    85        999
    86        105
    87          5
    92          5
    93         58
    94         23
   102          5
   108         17
   109         41
   113         17
   115          5
   125          5
   139         11
   141         17
   145         11
   147         17
   149         11
   153          5
   155         23
   156         11
   157          5
   162         88
   163          5
   164         11
   170        129
   171         23
   172         70
   173          5
   187         99
   188         82
   189         23
   190          5
   223          5
   224         23
   239        470
   240         64
   241         35
   255          5
   256        547
   257        135
   258         35
   259          5
   324         11
   325          5
   326        294
   327         76
   328         23
   329          5