##TITLE=Library Entry 66817
##JCAMP-DX=Revision 4.10 
##DATA TYPE=MASS SPECTRUM
##SAMPLE DESCRIPTION=A.Mazepa, Phys.-Chem.Institute, Odessa, Ukraine
##NAMES=HP
##CAS NAME=5-Hydrazinocarbonyl-4-phenylaminocarbonylimidazole
##MOLFORM=C11H11N5O2
##CAS REGISTRY NO=89562-40-3
##MP= -300
##BP= -300
##MW= 245
##$RETENTION INDEX=0
##$CONDENSED SPECTRUM=NO
##NPOINTS= 96
##XYDATA=(XY..XY) 1 
    50          8
    51         76
    52         15
    53          9
    54          9
    55         20
    56         11
    57         18
    58          2
    63         10
    64         14
    65        129
    66         65
    67        172
    68        253
    69         22
    70         10
    71          4
    74          1
    75          2
    76         10
    77        209
    78         15
    79          2
    80          5
    81         10
    82          6
    83          6
    84          1
    90          2
    91         95
    92         30
    93        999
    94        192
    95        204
    96          9
    97          2
    98          2
    99          1
   102          1
   103          7
   104         37
   105         27
   106          4
   107          8
   108          3
   109          2
   115          1
   116          2
   117          2
   119          6
   120         80
   121         79
   122         15
   123         14
   129          3
   130          5
   131          4
   132         10
   133         18
   134          2
   135         25
   136          3
   141          4
   142         11
   143        134
   144          7
   152        267
   153        103
   154          3
   159          1
   160          9
   161          2
   168          2
   169         24
   170         36
   171          3
   175         20
   176          1
   184          6
   185          7
   186         17
   187          4
   196        192
   197         13
   212          3
   213          2
   214        106
   215          5
   226          4
   227          1
   230          1
   231          7
   245        567
   246         71
   247          2