##TITLE=Library Entry 13952
##JCAMP-DX=Revision 4.10 
##DATA TYPE=MASS SPECTRUM
##SAMPLE DESCRIPTION=Chemical Concepts
##NAMES=HP
##CAS NAME=1H-2-Benzopyran-1-one, 8-(acetyloxy)-3,6-dimethyl-7-nitro-
##MOLFORM=C13H11NO6
##CAS REGISTRY NO=89586-42-5
##MP= -300
##BP= -300
##MW= 277
##$RETENTION INDEX=0
##$CONDENSED SPECTRUM=NO
##NPOINTS= 120
##XYDATA=(XY..XY) 1 
    25          5
    26         32
    28         94
    29         12
    30         56
    37          9
    38         19
    39        110
    40         10
    41         26
    42         37
    43        999
    44         35
    45         10
    49          5
    50         50
    51        106
    52         34
    53         42
    54          6
    55         21
    56          5
    57         14
    59          4
    60          5
    61         12
    62         52
    63        165
    64         43
    65         67
    66         18
    67         49
    68          6
    69         13
    71          7
    73          6
    74         35
    75         43
    76         38
    77        143
    78         60
    79         40
    80          8
    81          6
    83          5
    85          6
    86         15
    87         24
    88         22
    89        158
    90         61
    91         83
    92         23
    93         22
    98          6
   101         14
   102         26
   103         68
   104         35
   105         52
   106         21
   107          8
   114          7
   115         73
   116         27
   117         71
   118         55
   119         29
   120         18
   121         19
   129          6
   130          7
   131         20
   132         30
   133         56
   134         22
   135         20
   143         20
   144         21
   145         15
   146         27
   147         17
   148         24
   149         18
   158          5
   159         17
   160         35
   161        115
   162         39
   163         40
   164         13
   171         58
   172         52
   173         24
   174         13
   175         11
   176         26
   177        381
   178         46
   179          7
   188         37
   189         37
   190         26
   191         18
   192          5
   200         22
   201          5
   202         11
   203         11
   205        256
   206         42
   207          6
   218        254
   219         43
   220         17
   235        397
   236         56
   237          8
   277         37
   278          7