##TITLE=Library Entry 13793
##JCAMP-DX=Revision 4.10 
##DATA TYPE=MASS SPECTRUM
##SAMPLE DESCRIPTION=Chemical Concepts
##NAMES=HP
##CAS NAME=2-Naphthalenecarboxylic acid, 3-acetoxy-5,6,7,8-tetrahydro-4-nitr
o-, methyl ester
##MOLFORM=C14H15NO6
##CAS REGISTRY NO=89586-22-1
##MP= -300
##BP= -300
##MW= 293
##$RETENTION INDEX=0
##$CONDENSED SPECTRUM=NO
##NPOINTS= 192
##XYDATA=(XY..XY) 1 
    26          7
    27         55
    28         17
    29         63
    30         22
    31         12
    37          3
    38          9
    39        111
    40         15
    41        138
    42         32
    43        999
    44         35
    45         30
    47          3
    50         33
    51         84
    52         36
    53         54
    54         14
    55        140
    56         38
    57        102
    58          8
    59         85
    60         29
    61         11
    62         27
    63        119
    64         37
    65        100
    66         29
    67         35
    68         25
    69         51
    70         19
    71         46
    72          4
    73         18
    74         19
    75         40
    76         52
    77        167
    78         75
    79        132
    80         31
    81         30
    82         14
    83         34
    84         14
    85         29
    86          7
    87         18
    88         22
    89        132
    90        100
    91        260
    92         62
    93         48
    94         23
    95         26
    96         18
    97         29
    98          9
    99         11
   100          4
   101         21
   102         56
   103        102
   104         80
   105        129
   106         82
   107         51
   108         36
   109         16
   110          8
   111         17
   112          7
   113         20
   114         23
   115        337
   116        153
   117        216
   118        151
   119         91
   120         76
   121         38
   122         19
   123         25
   124          7
   125         11
   126          4
   127         21
   128         41
   129         44
   130         62
   131         53
   132         47
   133         81
   134         38
   135         62
   136         41
   137         10
   138          4
   139          6
   140          4
   141          8
   142         10
   143         33
   144         89
   145        188
   146        175
   147        142
   148         66
   149         54
   150         12
   151          6
   155          8
   156         18
   157         15
   158         17
   159         39
   160         60
   161         92
   162         54
   163        119
   164         63
   165         12
   166         15
   167         23
   168          7
   169          3
   170          5
   171         15
   172         61
   173        216
   174        170
   175        108
   176         71
   177         29
   178         30
   179         39
   180          8
   181          4
   182          5
   183          3
   184         12
   185         18
   186          8
   187          8
   188         13
   189         50
   190         73
   191        119
   192         45
   193          7
   194          6
   195          7
   196          5
   199          5
   200         16
   201        208
   202        153
   203         57
   204         16
   205         24
   206        142
   207         43
   208          9
   210          5
   211          7
   215          6
   216          3
   217          5
   218         29
   219        996
   220        267
   221         41
   222         11
   233          8
   234        299
   235         50
   236          8
   247          7
   250          5
   251        853
   252        125
   253         18
   262         34
   263          5
   293         10