##TITLE=Library Entry 13973
##JCAMP-DX=Revision 4.10 
##DATA TYPE=MASS SPECTRUM
##SAMPLE DESCRIPTION=Chemical Concepts
##NAMES=HP
##CAS NAME=3-Acetoxy-5-methyl-2-nitro-terephthalic acid, 4-isopropyl ester 1
-methyl ester
##MOLFORM=C15H17NO8
##CAS REGISTRY NO=89586-33-4
##MP= -300
##BP= -300
##MW= 339
##$RETENTION INDEX=0
##$CONDENSED SPECTRUM=NO
##NPOINTS= 134
##XYDATA=(XY..XY) 1 
    26          2
    27         42
    28          9
    29         16
    30         10
    31          3
    38          3
    39         32
    40          4
    41         77
    42         15
    43        999
    44         15
    45          7
    50         15
    51         32
    52         10
    53         12
    54          2
    55         12
    56          4
    57         14
    59         23
    60          6
    61          2
    62          4
    63         10
    64          9
    65         19
    66          7
    67         14
    68          3
    69          9
    70          3
    71          7
    73          3
    74          4
    75          8
    76         19
    77         36
    78         17
    79          9
    80          5
    81          5
    82          2
    83          5
    85          4
    89          4
    90          5
    91         11
    92         14
    93         14
    94          4
    95          5
    96          2
    97          3
   103          4
   104         17
   105         19
   106         12
   107         11
   108          2
   109          2
   111          2
   117         10
   118          8
   119          3
   120          9
   121          8
   122          6
   123          5
   124          3
   125          1
   131          2
   132         11
   133         19
   134         15
   135          7
   136          4
   137          2
   145          1
   146          0
   147          7
   148          9
   149         17
   150          6
   151         16
   159         10
   160          8
   161         15
   162          5
   163          3
   164          5
   165          2
   166          0
   167          1
   175          1
   176          2
   177          7
   178          6
   179        223
   180         20
   181          3
   188          4
   189          5
   190          1
   191          2
   192         14
   193          3
   194          4
   195          2
   196          0
   206          8
   207         45
   208          6
   220          4
   221         19
   222          2
   223          8
   224         17
   237        415
   238        155
   239         19
   240          2
   252          2
   255        133
   256         15
   257          2
   266          3
   282          9
   297         46
   298          7
   339          0
   340          0