##TITLE=Library Entry 32980
##JCAMP-DX=Revision 4.10 
##DATA TYPE=MASS SPECTRUM
##SAMPLE DESCRIPTION=Chemical Concepts
##NAMES=HP
##CAS NAME=Cyclohexane, (2-methyl-1-propenyl)-
##MOLFORM=C10H18
##CAS REGISTRY NO=89656-98-4
##MP= -300
##BP= -300
##MW= 138
##$RETENTION INDEX=0
##$CONDENSED SPECTRUM=NO
##NPOINTS= 74
##XYDATA=(XY..XY) 1 
    27        220
    28         10
    29        166
    30          3
    31          1
    36          1
    37          3
    38         12
    39        261
    40         42
    41        617
    42         60
    43         82
    44          1
    45          2
    46          1
    47          1
    49          1
    50         15
    51         47
    52         22
    53        146
    54        177
    55        419
    56        100
    57        247
    58         12
    59          1
    61          1
    62          3
    63         12
    64          3
    65         47
    66         28
    67        999
    68        120
    69        203
    70         27
    71          7
    72          5
    74          1
    75          2
    76          1
    77         62
    78         16
    79        100
    80         87
    81        577
    82        721
    83         67
    84          7
    89          1
    91         31
    92          6
    93         47
    94         24
    95        659
    96        121
    97         11
   103          1
   105          3
   107          4
   108          7
   109         69
   110         19
   111          1
   121          3
   123        384
   124         34
   125          1
   137          1
   138        340
   139         34
   140          1