##TITLE=Library Entry 56181
##JCAMP-DX=Revision 4.10 
##DATA TYPE=MASS SPECTRUM
##SAMPLE DESCRIPTION=Institute of Organic Chemistry, Novosibirsk, USSR 1988
##NAMES=HP
##CAS NAME=6,14,17,22,25-Pentaoxa-1,3,9,11-tetraazabicyclo[9.8.8]heptacosane
-2,10-dithione
##MOLFORM=C18H34N4O5S2
##CAS REGISTRY NO=89663-10-5
##MP= -300
##BP= -300
##MW= 450
##$RETENTION INDEX=0
##$CONDENSED SPECTRUM=NO
##NPOINTS= 227
##XYDATA=(XY..XY) 1 
    54        165
    55        169
    56        539
    57        299
    58        279
    59        159
    60        239
    61        883
    62         43
    63         23
    66         17
    67         59
    68         69
    69        179
    70        419
    71        143
    72        191
    73         87
    74        319
    75         31
    76         29
    77         23
    78         55
    81         61
    82         37
    83        151
    84         75
    85        699
    86        999
    87        207
    88        199
    89         49
    90         21
    94         47
    95         59
    96         51
    97         47
    98         57
    99         45
   100        359
   101         75
   102        155
   103        219
   104         49
   105         23
   106         37
   109         23
   110         13
   111         33
   112         51
   113         91
   114        159
   115        143
   116        207
   117         59
   118        279
   119         33
   120         19
   121         15
   125         25
   126         31
   127        121
   128        183
   129        187
   130        259
   131        131
   132        579
   133         63
   134         19
   139         35
   140         19
   141         63
   142         81
   143         97
   144        127
   145        101
   146         95
   147        117
   148         29
   149         15
   150         17
   152         17
   153         31
   154         77
   155         91
   156         79
   157         91
   158         91
   159         55
   160        101
   161         49
   162         29
   163         19
   164         17
   165         17
   168         21
   169         19
   170         35
   171         81
   172         89
   173        171
   174         81
   175         53
   176         37
   179         17
   183         17
   184         17
   185         35
   186         33
   187         71
   188         79
   189         79
   190         43
   191         99
   192         21
   193         15
   194        105
   195         13
   196         13
   197         11
   198         17
   199         55
   200         23
   201         41
   202         25
   203         39
   204         51
   205         31
   209         31
   213         19
   214         23
   215         57
   216         31
   217        145
   218         41
   219         39
   220         13
   225         29
   226         11
   228         19
   229         19
   230         39
   231         41
   232         43
   233         43
   234         35
   235         13
   242         13
   243         53
   244         15
   245         25
   246         29
   247         19
   248         19
   249         13
   251         15
   256         19
   258         23
   259         35
   260         43
   261         75
   262         35
   263         39
   272         11
   274         27
   275         19
   276         33
   277         29
   278         15
   279         17
   286         19
   287         23
   288         19
   289         13
   290         13
   302         23
   303         19
   304         27
   305         35
   306         13
   307          9
   316          9
   317         11
   318         13
   319         13
   320         29
   321          9
   329         13
   330          9
   331         21
   332         11
   345         13
   346         39
   347         13
   348         47
   349         13
   361         19
   362          9
   363         25
   364         11
   373         11
   375         13
   376          9
   377         13
   387         27
   388         13
   389         31
   390         19
   391          9
   392          9
   405         15
   406          9
   407         53
   408         13
   409          9
   417         29
   419         23
   420        127
   421         39
   422         23
   432         33
   433         19
   449         39
   450        109
   451         37
   452         17
   453          7