##TITLE=Library Entry 46904
##JCAMP-DX=Revision 4.10 
##DATA TYPE=MASS SPECTRUM
##SAMPLE DESCRIPTION=NIST Mass Spectrometry Data Center, 2010
##NAMES=HP
##CAS NAME=Pentafluoro-1-propanol,  TMS derivative
##MOLFORM=C6H11F5OSi
##CAS REGISTRY NO=89660-59-3
##MP= -300
##BP= -300
##MW= 222
##$RETENTION INDEX=0
##$CONDENSED SPECTRUM=NO
##NPOINTS= 83
##XYDATA=(XY..XY) 1 
    26          1
    27          3
    28          2
    29         31
    30          2
    31          6
    33          8
    39          1
    41          2
    42         16
    43         52
    44         17
    45         62
    46          4
    47         63
    48          4
    49         49
    50          4
    51          8
    53          6
    54          2
    55          8
    56          2
    57          6
    58         17
    59         15
    60          2
    61         46
    62          8
    63         73
    64         14
    65          4
    66          1
    67          3
    69         48
    70          2
    71          3
    72          9
    73        224
    74         20
    75         14
    76         29
    77        999
    78         74
    79         38
    80          3
    81         30
    82          4
    83        142
    84          3
    85          1
    87          1
    88          2
    89          1
    90          1
    91         21
    92          1
    93          1
    95          4
    96          1
    97        267
    98         19
    99         10
   100          3
   103         36
   104          3
   105         19
   106          2
   107         31
   108          3
   109          3
   110          2
   111        261
   112          8
   113          2
   119         13
   125         70
   126          6
   127          3
   159          3
   207         24
   208          2
   209          1