##TITLE=Library Entry 36076
##JCAMP-DX=Revision 4.10 
##DATA TYPE=MASS SPECTRUM
##SAMPLE DESCRIPTION=NIST Mass Spectrometry Data Center
##NAMES=HP
##CAS NAME=(Z)-5-(Benzo[d][1,3]dioxol-5-yl)-1-(piperidin-1-yl)pent-3-en-1-on
e
##MOLFORM=C17H21NO3
##CAS REGISTRY NO=896710-01-3
##MP= -300
##BP= -300
##MW= 287
##$RETENTION INDEX=2599
##$CONDENSED SPECTRUM=NO
##NPOINTS= 170
##XYDATA=(XY..XY) 1 
    26          2
    27         17
    28         41
    29         25
    30         18
    31          1
    37          1
    38          4
    39         66
    40         10
    41        394
    42         80
    43         64
    44         22
    49          1
    50         16
    51         67
    52         17
    53         57
    54         26
    55         99
    56        205
    57         64
    58         16
    60         12
    61          4
    62         18
    63         68
    64         20
    65         89
    66         13
    67         55
    68         23
    69        999
    70        139
    71         10
    72          9
    73         10
    74         12
    75         14
    76         17
    77        129
    78         34
    79         38
    80         15
    81         14
    82         27
    83         38
    84        434
    85         48
    86        105
    87         19
    89         60
    90         14
    91        152
    92         19
    93         10
    94          8
    95         12
    96         18
    97         21
    98         14
    99          8
   100          5
   101          9
   102         36
   104         17
   105         34
   106          9
   107         11
   108          7
   109          7
   110         18
   111         11
   112        951
   113         81
   114         19
   115        461
   116        289
   117        328
   118         42
   119         13
   120          9
   121         35
   122         39
   123          8
   124         17
   125          4
   127         82
   128         28
   129         11
   130         15
   134          9
   135        288
   136         41
   137         10
   138         67
   139         21
   142          3
   143         37
   145         76
   146         30
   147         49
   150         15
   151         17
   152        437
   153         48
   154          5
   158          2
   159         13
   160         17
   161         62
   162         13
   163          3
   165          2
   166          7
   167          1
   169          1
   170          1
   171          6
   172          6
   174        213
   175         60
   176         43
   177          7
   180          2
   181          1
   182          1
   183          1
   184          1
   185          2
   186          2
   188          1
   189          2
   191          2
   194          1
   195          1
   197          1
   200          1
   201          7
   202        129
   203         35
   204        241
   205         32
   207          4
   208          2
   218          1
   222          1
   232          1
   233          1
   236          1
   242          1
   244          1
   245          1
   246          2
   248          1
   256          1
   257          1
   258         11
   259          3
   270          1
   271          1
   272          1
   284          1
   285          1
   286         36
   287        427
   288         83
   289         10
   290          1