##TITLE=Library Entry 66601
##JCAMP-DX=Revision 4.10 
##DATA TYPE=MASS SPECTRUM
##SAMPLE DESCRIPTION=Chemical Concepts
##NAMES=HP
##CAS NAME=Cyclopentanecarbonitrile, 3-(1-methylethylidene)-
##MOLFORM=C9H13N
##CAS REGISTRY NO=89683-72-7
##MP= -300
##BP= -300
##MW= 135
##$RETENTION INDEX=0
##$CONDENSED SPECTRUM=NO
##NPOINTS= 90
##XYDATA=(XY..XY) 1 
    22          1
    25          3
    26         51
    27        242
    28         50
    29         61
    30          6
    31          0
    37         17
    38         40
    39        387
    40         84
    41        297
    42         41
    43         71
    44          2
    49          2
    50         44
    51         98
    52         53
    53        113
    54        147
    55         50
    56         14
    57          1
    59          1
    61          6
    62         15
    63         48
    64         30
    65        111
    66        108
    67        467
    68         46
    69         98
    70          7
    73          3
    74          7
    75          9
    76          9
    77        161
    78         43
    79        214
    80         87
    81         82
    82        215
    83         19
    85          1
    86          2
    87          2
    88          4
    89         16
    90          9
    91        210
    92        144
    93        999
    94        184
    95         53
    96          2
    99          1
   100          1
   101          1
   102          6
   103         41
   104         30
   105         34
   106        106
   107         98
   108        121
   109         13
   110          1
   111          0
   115          3
   116         14
   117         22
   118         55
   119         24
   120        644
   121         58
   122          2
   128          0
   129          1
   130          2
   131          1
   132          5
   133          5
   134         61
   135        648
   136         78
   137          3