##TITLE=Library Entry 4598
##JCAMP-DX=Revision 4.10 
##DATA TYPE=MASS SPECTRUM
##SAMPLE DESCRIPTION=Div. of Experiment Therapeutics WRAIR, WRAMC, Washingto
n DC 20307
##NAMES=HP
##CAS NAME=5-Hydrazino-6-azauracil
##MOLFORM=C3H5N5O2
##CAS REGISTRY NO=89715-82-2
##MP= -300
##BP= -300
##MW= 143
##$RETENTION INDEX=0
##$CONDENSED SPECTRUM=NO
##NPOINTS= 49
##XYDATA=(XY..XY) 1 
    42        999
    43        976
    44        452
    45        144
    46         33
    47        235
    48         57
    52         24
    53         54
    54        143
    55        175
    56         97
    57        253
    58         89
    59         21
    60         41
    61         17
    63         35
    65         15
    67         17
    68         19
    69        130
    70        272
    71        141
    72        156
    73         17
    76         16
    77        129
    78        187
    79         19
    82         45
    83         48
    87         92
    88         20
    91         77
    97         68
   103         32
   104        138
   105        104
   106         87
   107         16
   111         22
   113        224
   114         44
   127         52
   128        105
   129         18
   143        958
   144         55