##TITLE=Library Entry 11564
##JCAMP-DX=Revision 4.10 
##DATA TYPE=MASS SPECTRUM
##SAMPLE DESCRIPTION=A.A.Kutin, Moscow, Russia
##NAMES=HP
##CAS NAME=Ethanedial,1,2-dichloro-, bis(O-acetyloxime)
##MOLFORM=C6H6Cl2N2O4
##CAS REGISTRY NO=89715-76-4
##MP= -300
##BP= -300
##MW= 240
##$RETENTION INDEX=0
##$CONDENSED SPECTRUM=NO
##NPOINTS= 101
##XYDATA=(XY..XY) 1 
    35        327
    36        178
    37        109
    38        199
    40         46
    41         99
    42         93
    43        999
    44         84
    45         28
    46          1
    47        163
    49         59
    50         64
    52        150
    53         52
    54        101
    55         31
    56          3
    57          5
    59         23
    61         99
    62        165
    63        103
    64         67
    65         32
    66          3
    68         95
    69        127
    70         10
    71          1
    73        138
    74         76
    75         53
    76         35
    77         20
    78        269
    79         18
    80         78
    81          4
    82         17
    84        119
    85         60
    86          6
    87         36
    89         43
    90        161
    91         15
    92         66
    93          1
    94         11
    95          5
    96         13
    97          2
    98         10
    99          5
   101          4
   103         26
   104         12
   105         10
   106          5
   108        120
   109         73
   110         69
   111         53
   112         16
   113          3
   116          2
   120         97
   121        728
   122         57
   123        228
   124          5
   125          4
   126          3
   130          1
   138         18
   139         56
   140         15
   141         30
   143          3
   144          2
   150         18
   151          2
   156        294
   158        191
   159          5
   160         28
   164          1
   166          7
   167          3
   168          2
   172          2
   180          6
   181          1
   186          3
   194          1
   198         48
   199          2
   200         33
   202          2