##TITLE=Library Entry 22243
##JCAMP-DX=Revision 4.10 
##DATA TYPE=MASS SPECTRUM
##SAMPLE DESCRIPTION=Chemical Concepts
##NAMES=HP
##CAS NAME=2(3H)-Furanone, dihydro-4,4-dimethyl-5-(2-oxopropyl)-
##MOLFORM=C9H14O3
##CAS REGISTRY NO=89722-19-0
##MP= -300
##BP= -300
##MW= 170
##$RETENTION INDEX=0
##$CONDENSED SPECTRUM=NO
##NPOINTS= 105
##XYDATA=(XY..XY) 1 
    26         10
    27        103
    28         25
    29        102
    30          4
    31         18
    33          0
    34          1
    37          2
    38          9
    39        132
    40         32
    41        406
    42         44
    43        803
    44         18
    45         55
    46          1
    47          1
    49          0
    50          7
    51         13
    52          5
    53         35
    54         11
    55        119
    56        999
    57        142
    58         94
    59         35
    60          7
    61          2
    62          0
    63          2
    65          7
    66          3
    67         49
    68         40
    69        199
    70        160
    71         80
    72          6
    73          6
    74          7
    75          2
    77          5
    78          1
    79          8
    80          7
    81         24
    82         88
    83        108
    84         13
    85         97
    86         17
    87        132
    88         10
    89          1
    91         27
    92          3
    93          4
    94          5
    95         31
    96          4
    97          4
    98          2
    99          3
   100         23
   101          5
   105          2
   107          1
   108          1
   109         10
   110         24
   111         12
   112          8
   113        163
   114         18
   115          3
   116          1
   121          1
   122          2
   123          9
   124          4
   125          2
   126          2
   127         29
   128        654
   129         48
   130          5
   131          0
   139          2
   141          2
   142         25
   143          2
   144          1
   145          0
   152          1
   153          2
   154          2
   155         22
   156          3
   169          1
   170          5
   171          2