##TITLE=Library Entry 28502
##JCAMP-DX=Revision 4.10 
##DATA TYPE=MASS SPECTRUM
##SAMPLE DESCRIPTION=Div. of Experiment Therapeutics WRAIR, WRAMC, Washingto
n DC 20307
##NAMES=HP
##CAS NAME=7-Chloro-3-[2,4-dichlorophenyl]-1-[[3-[dimethylamino]propyl]amino
]-(10H)-9-thioxanthone
##MOLFORM=C24H21Cl3N2OS
##CAS REGISTRY NO=89756-79-6
##MP= -300
##BP= -300
##MW= 490
##$RETENTION INDEX=0
##$CONDENSED SPECTRUM=NO
##NPOINTS= 230
##XYDATA=(XY..XY) 1 
    41          7
    42         48
    43         22
    44         34
    45          8
    46          2
    47          3
    48          2
    49         19
    50          5
    51          9
    52          2
    54          2
    55          3
    56         22
    57         23
    58        999
    59         38
    63          2
    67          2
    69          4
    70         29
    71         36
    72        212
    73         11
    75          3
    77          2
    78          2
    82          3
    83          3
    84         56
    85        199
    86         24
    88          3
    99          3
   106          1
   107          1
   108          2
   110          2
   111          2
   113          1
   115          1
   123          2
   124          1
   128          2
   129          1
   135          2
   137          2
   139          3
   142          4
   143          2
   145          2
   146          3
   147          2
   148          2
   149          4
   150          3
   151          1
   155          2
   160          2
   161          2
   163          2
   164          2
   170          4
   171          3
   172          2
   173          3
   179          2
   182          1
   183          2
   184          3
   185          2
   186          2
   187          2
   188          1
   207          1
   208          2
   209          2
   210          2
   211          4
   212          2
   213          3
   222          2
   223          3
   224          3
   229          1
   230          3
   232          1
   243          2
   245          7
   246          7
   247          5
   248          1
   256          9
   257          4
   258          8
   259          2
   260          2
   261          2
   265          2
   266          9
   267          2
   268          4
   269          2
   270          5
   271          2
   272          2
   274          4
   276          2
   279          5
   281          3
   282          2
   283          3
   284          1
   290          3
   291          2
   292         16
   293          4
   294          7
   295          1
   296          2
   300          3
   302          1
   304          2
   305          3
   306          4
   307          3
   308          3
   317          2
   319          2
   320          3
   321          2
   322          1
   326          6
   327          2
   328          7
   329          2
   330          4
   331          1
   332          1
   333          2
   335          2
   339          5
   340          2
   341          5
   342          3
   343          3
   344          2
   347          2
   348          1
   349          5
   351          4
   353          2
   354          3
   355          3
   356          4
   357          2
   358          2
   360          2
   362          6
   364          5
   366          2
   367          6
   368          3
   369          8
   370          2
   371          3
   374          3
   375          3
   376          3
   377          4
   378          2
   379          2
   380          2
   381          2
   382          4
   383          2
   384          5
   385          2
   386          3
   389          2
   390         10
   391          8
   392         11
   393          7
   394          5
   395          3
   396          3
   397          2
   398          2
   401          3
   402         23
   403          8
   404         25
   405          9
   406         12
   407          5
   408          4
   409          2
   414          7
   415          2
   416         10
   417          4
   418         22
   419         63
   420         30
   421         63
   422         19
   423         22
   424          5
   425          3
   430          2
   431          6
   432         19
   433         10
   434         18
   435          6
   436          7
   437          2
   444          2
   445          2
   446          2
   447          2
   490         41
   491         12
   492         42
   493         11
   494         16
   495          4
   496          2