##TITLE=Library Entry 28692
##JCAMP-DX=Revision 4.10 
##DATA TYPE=MASS SPECTRUM
##SAMPLE DESCRIPTION=Div. of Experiment Therapeutics WRAIR, WRAMC, Washingto
n DC 20307
##NAMES=HP
##CAS NAME=7-Chloro-3-[2,4-dichlorophenyl]-1-[[3-[dimethylamino]propyl]amino
]-3,4-dihydro-9(10H)-thioxanthone
##MOLFORM=C24H23Cl3N2OS
##CAS REGISTRY NO=89756-78-5
##MP= -300
##BP= -300
##MW= 492
##$RETENTION INDEX=0
##$CONDENSED SPECTRUM=NO
##NPOINTS= 232
##XYDATA=(XY..XY) 1 
    41         24
    42        122
    43         46
    44         91
    45         30
    46         12
    49         10
    50          5
    51          9
    54          4
    55          7
    56         35
    57         33
    58        999
    59         41
    60         36
    61         34
    63          8
    68          5
    69         12
    70         33
    71         28
    72        125
    73          9
    74          5
    75         11
    77          6
    78          8
    82          5
    83          5
    84         63
    85        157
    86        212
    87         30
    88          5
    89          4
    98          4
    99         15
   100          5
   101         12
   102         25
   103          4
   106          6
   107          5
   108          9
   109          4
   110          6
   111          7
   113          5
   115          7
   121          4
   123         11
   124          5
   125          5
   126          4
   127          4
   128          4
   129          4
   133          4
   135          7
   136         10
   137          8
   138          7
   139         15
   140          5
   141          6
   142          9
   143          7
   144          5
   145          6
   146          5
   147          4
   149          9
   150          9
   151          9
   152          6
   154          6
   155          5
   159         13
   160          5
   161         10
   162          4
   163          4
   164          4
   169          4
   170         10
   171         23
   172          9
   173         16
   174          6
   175          7
   177          4
   179          4
   181          4
   183          7
   184          7
   185          6
   186         10
   187          6
   188          6
   189          5
   190          4
   196          4
   197          4
   199          4
   200          5
   201          4
   203          4
   204          4
   205          7
   207          4
   208          4
   209          4
   210          4
   211          5
   212          5
   213          4
   218          5
   222          4
   223          5
   224          4
   229          4
   230          5
   232          5
   233          6
   234          4
   235          7
   236          6
   238          4
   245          8
   246         17
   247         23
   248         13
   249         11
   250          4
   251          4
   256          6
   257          4
   258         11
   259          4
   260          5
   261          4
   262         18
   263          6
   264          8
   265          6
   266         22
   267          5
   268         12
   270          6
   272          5
   274         33
   275          7
   276         18
   279          6
   282          4
   288          6
   290          4
   292         13
   294          5
   302          9
   304          5
   307          4
   308          6
   315          4
   320          4
   321          7
   328          5
   339          4
   341          4
   342          4
   343          4
   347        142
   348         32
   349         55
   350         11
   351          5
   355          9
   356          7
   357         11
   358          6
   359          6
   370          5
   371          5
   372          5
   373          4
   384          4
   386          6
   390          7
   391         10
   392         13
   393         11
   394          9
   395          5
   402          9
   403          4
   404         11
   405         10
   406         83
   407         25
   408         82
   409         21
   410         31
   411          7
   412          6
   416          4
   418         12
   419         20
   420         16
   421         25
   422         11
   423         13
   424          4
   432          7
   433          4
   434         24
   435          7
   436         20
   437          5
   438          7
   445          9
   446          5
   447         10
   448          4
   449          4
   490         11
   491          7
   492         47
   493         15
   494         40
   495         11
   496         13