##TITLE=Library Entry 38796
##JCAMP-DX=Revision 4.10 
##DATA TYPE=MASS SPECTRUM
##SAMPLE DESCRIPTION=NIST Mass Spectrometry Data Center, 1990.
##NAMES=HP
##CAS NAME=2,4-Dimethylcyclopentanol
##MOLFORM=C7H14O
##CAS REGISTRY NO=89794-28-5
##MP= -300
##BP= -300
##MW= 114
##$RETENTION INDEX=0
##$CONDENSED SPECTRUM=NO
##NPOINTS= 49
##XYDATA=(XY..XY) 1 
    14          7
    15         25
    16         10
    18          4
    26         19
    27        191
    28         64
    29        167
    30         12
    31         42
    32         12
    38         25
    39        219
    40         41
    41        285
    42        174
    43        259
    44         51
    45         30
    50         15
    51         32
    52          8
    53         87
    54         52
    55        399
    56         52
    57        415
    58         85
    59          6
    65         12
    66          8
    67         38
    68         21
    69         76
    70        206
    71        999
    72         63
    77         14
    79         42
    81        317
    82         22
    83         11
    85          9
    86         41
    95         12
    96         86
    97         17
    99         27
   114         27