##TITLE=Library Entry 32634
##JCAMP-DX=Revision 4.10 
##DATA TYPE=MASS SPECTRUM
##SAMPLE DESCRIPTION=Chemical Concepts
##NAMES=HP
##CAS NAME=2,3-Norbornanedione, 1-chloro-
##MOLFORM=C7H7ClO2
##CAS REGISTRY NO=89793-48-6
##MP= -300
##BP= -300
##MW= 158
##$RETENTION INDEX=0
##$CONDENSED SPECTRUM=NO
##NPOINTS= 92
##XYDATA=(XY..XY) 1 
    25          3
    26         21
    27         92
    29          4
    31          4
    33          2
    35          5
    36         20
    37         20
    38         35
    39        180
    40         40
    41        119
    42          9
    43          6
    44         11
    45          2
    47          5
    48          3
    49         11
    50         18
    51         24
    52          9
    53         23
    54          7
    55        884
    56         29
    57          6
    60          5
    61         41
    62         15
    63         24
    64          7
    65        114
    66         50
    67        999
    68         44
    69         12
    70          2
    71          3
    72          2
    73         14
    74          3
    75         11
    76          3
    77          7
    78          2
    79          5
    80          1
    81         11
    82          2
    83          2
    85          3
    86          1
    87          6
    88          4
    89         34
    90          1
    91          8
    92          2
    93          3
    94          9
    95         22
    96          2
    97          3
    98          1
    99          2
   100          8
   101         26
   102         14
   103         11
   104          3
   105          3
   109          1
   115          2
   119          2
   123          5
   127          2
   128          5
   129          1
   130        242
   131         19
   132         74
   133          4
   134          1
   141          4
   144          2
   145          2
   158         38
   159          2
   160         13
   161          2