##TITLE=Library Entry 34185
##JCAMP-DX=Revision 4.10 
##DATA TYPE=MASS SPECTRUM
##SAMPLE DESCRIPTION=J. Klune, Insect Chem. Ecol. Lab., USDA, Beltsville, MD
 20705
##NAMES=HP
##CAS NAME=3-Octylthio-1,1,1-trifluoropropan-2-one
##MOLFORM=C11H19F3OS
##CAS REGISTRY NO=89820-00-8
##MP= -300
##BP= -300
##MW= 256
##$RETENTION INDEX=0
##$CONDENSED SPECTRUM=NO
##NPOINTS= 192
##XYDATA=(XY..XY) 1 
    41        945
    42        371
    43        806
    44         88
    45        248
    46        160
    47        163
    48         13
    49         13
    50          9
    51         16
    52          7
    53         87
    54         77
    55        876
    56        451
    57        397
    58         37
    59         97
    60        182
    61         66
    62         33
    63         52
    64          7
    65         19
    66          9
    67        115
    68        124
    69        999
    70        320
    71        164
    72         17
    73         47
    74         25
    75         50
    76          4
    77         12
    78          3
    79         29
    80          4
    81         38
    82         73
    83        220
    84        183
    85         32
    86          6
    87        116
    88         24
    89         16
    90          2
    91          6
    92          1
    93          4
    94          1
    95         16
    96          6
    97         41
    98          6
    99          4
   100          4
   101         59
   102          7
   103          8
   104          0
   105          2
   106          1
   107          6
   108          1
   109         10
   110         12
   111         32
   112         28
   113          6
   114          1
   115         17
   116          4
   117          3
   118          0
   119          2
   120          0
   121          2
   122          1
   123          3
   124          2
   125          3
   126          0
   127         56
   128          3
   129         63
   130          3
   131          8
   133          6
   134          0
   135          2
   136          0
   137          2
   138          1
   139          1
   140          1
   141          2
   142          0
   143          8
   144         32
   145        839
   146         84
   147         41
   148          4
   149          2
   150          1
   151          2
   152          1
   153          7
   154          1
   155          3
   156          0
   157         34
   158          3
   159        249
   160         27
   161         13
   162          1
   163          1
   164          1
   165          1
   166          1
   167          2
   168          0
   169          2
   170          0
   171          6
   172          0
   173          1
   174          0
   175          1
   176          0
   177          0
   178          0
   179          1
   180          1
   181          1
   182          0
   183          1
   184          0
   185          1
   186          0
   187          0
   189          0
   190          1
   191          0
   193          0
   194          1
   195          1
   196          0
   199         12
   200          1
   201          1
   203          0
   204          0
   205          0
   207          1
   208          0
   209          1
   210          0
   213          2
   214          0
   215          0
   219          4
   220          0
   222          0
   223          1
   224          1
   227          0
   228          0
   229          0
   232          0
   233          0
   234          0
   236          0
   237          1
   238          1
   239          1
   241          1
   242          1
   243          0
   248          0
   253          0
   254          0
   255          2
   256         88
   257         12
   258          5
   259          1