##TITLE=Library Entry 89500
##JCAMP-DX=Revision 4.10 
##DATA TYPE=MASS SPECTRUM
##SAMPLE DESCRIPTION=NIST Mass Spectrometry Data Center, 1994
##NAMES=HP
##CAS NAME=1-Ethyl-2-pyrrolidone-4-carboxamide
##MOLFORM=C7H12N2O2
##CAS REGISTRY NO=89852-01-7
##MP= -300
##BP= -300
##MW= 156
##$RETENTION INDEX=0
##$CONDENSED SPECTRUM=NO
##NPOINTS= 69
##XYDATA=(XY..XY) 1 
    12          8
    14         30
    15        136
    16         44
    17         48
    18         39
    25          9
    26        105
    27        474
    28        532
    29        251
    30        316
    31         11
    32          1
    37         15
    38         36
    39        373
    40        120
    41        845
    42        540
    43        141
    44        760
    45         51
    46         22
    51         15
    52         55
    53        107
    54        142
    55        377
    56        348
    57        226
    58        226
    59         16
    66         26
    67         44
    68        303
    69        168
    70        137
    71        127
    72        142
    73         30
    80         24
    82        147
    83        152
    84        954
    85        119
    86        149
    94         26
    95         49
    96        232
    97         99
    98         37
    99        144
   100         22
   110         48
   111        391
   112        999
   113        218
   114         44
   123         42
   124         25
   126         16
   128        406
   129         33
   138         36
   139         17
   141         57
   156        247
   157         18