##TITLE=Library Entry 50627
##JCAMP-DX=Revision 4.10 
##DATA TYPE=MASS SPECTRUM
##SAMPLE DESCRIPTION=Chemical Concepts
##NAMES=HP
##CAS NAME=2-Norbornanone, 3-bromo-
##MOLFORM=C7H9BrO
##CAS REGISTRY NO=89856-55-3
##MP= -300
##BP= -300
##MW= 188
##$RETENTION INDEX=0
##$CONDENSED SPECTRUM=NO
##NPOINTS= 52
##XYDATA=(XY..XY) 1 
    26         41
    27        191
    28         37
    29         19
    37         17
    38         42
    39        257
    40         65
    41        180
    42         18
    43          5
    49          7
    50         41
    51         71
    52         45
    53        196
    54         65
    55         61
    63         13
    65         40
    66        302
    67        246
    68         73
    69          9
    77         50
    78         19
    79        205
    80        104
    81        999
    82         79
    91          7
    93         13
    95         28
   108          7
   109        473
   110         37
   119        133
   120          9
   121        132
   122          9
   132         11
   134         11
   159          9
   160          3
   161          9
   162          3
   173         11
   175         11
   188        175
   189         14
   190        175
   191         14