##TITLE=Library Entry 5175
##JCAMP-DX=Revision 4.10 
##DATA TYPE=MASS SPECTRUM
##SAMPLE DESCRIPTION=A.A.Kutin, Moscow, Russia
##NAMES=HP
##CAS NAME=5-Amino-1-(2-hydroxy-ethyl)-2-methyl-1H-imidazole-4-carboxylic ac
id amide
##MOLFORM=C7H12N4O2
##CAS REGISTRY NO=89852-62-0
##MP= -300
##BP= -300
##MW= 184
##$RETENTION INDEX=0
##$CONDENSED SPECTRUM=NO
##NPOINTS= 98
##XYDATA=(XY..XY) 1 
    33          4
    34          2
    36          1
    37          0
    38          7
    39         27
    40        109
    41        137
    42        999
    43        246
    44        246
    45        248
    46          7
    50          1
    51         12
    52         45
    53         72
    54        140
    55        134
    56         61
    57         23
    58          4
    59          3
    60          7
    62          2
    63          1
    64          1
    65          4
    66         13
    67         55
    68         86
    69        112
    70         24
    71         25
    72          7
    73          1
    77          4
    78          2
    79         12
    80         14
    81         46
    82         26
    83         19
    84         13
    85          6
    86         63
    87         13
    91          4
    92          1
    93          4
    94         14
    95         91
    96         50
    97         17
    98         16
    99          3
   105          1
   106          3
   107         23
   108         26
   109         39
   110          6
   111          4
   112          1
   113          1
   114          2
   115          0
   119          4
   120          2
   121         11
   123        759
   124        235
   125         18
   126          1
   136         17
   137         60
   138         11
   139         31
   140        286
   141         40
   142          2
   148          4
   149          3
   150         16
   151          4
   153          2
   154         16
   155          3
   165          5
   166         27
   167         22
   168         20
   169          0
   171          0
   182         14
   184        496
   185         40
   186          2