##TITLE=Library Entry 71118
##JCAMP-DX=Revision 4.10 
##DATA TYPE=MASS SPECTRUM
##SAMPLE DESCRIPTION=NIST Mass Spectrometry Data Center, 1994
##NAMES=HP
##CAS NAME=N,N'-Dimethyl-5-pyrrolidinone-3-carboxamide
##MOLFORM=C7H12N2O2
##CAS REGISTRY NO=89851-99-0
##MP= -300
##BP= -300
##MW= 156
##$RETENTION INDEX=0
##$CONDENSED SPECTRUM=NO
##NPOINTS= 44
##XYDATA=(XY..XY) 1 
    15        133
    26         25
    27        113
    28         59
    29         25
    30         91
    38         19
    39        230
    40         63
    41        381
    42        465
    43         60
    44        235
    52         17
    53         28
    54         46
    55        236
    56         56
    57         30
    58        323
    60         28
    66         13
    68        176
    69        172
    70        567
    71         38
    82         30
    83         37
    84        344
    85         76
    86         78
    96         39
    97        255
    98        999
    99         90
   100         18
   113         26
   114         27
   124         32
   126         36
   128        156
   129         12
   156         73
   157          6