##TITLE=Library Entry 88174
##JCAMP-DX=Revision 4.10 
##DATA TYPE=MASS SPECTRUM
##SAMPLE DESCRIPTION=A.S. Plaziak, Dept. Synth. Struct. Org. Compds., A. Mic
kiewicz Univ., Poznan, Poland
##NAMES=HP
##CAS NAME=2(1H)-Pyrimidinone, 4-[(2-carboxyethyl)amino]-
##MOLFORM=C7H9N3O3
##CAS REGISTRY NO=89853-89-4
##MP= -300
##BP= -300
##MW= 183
##$RETENTION INDEX=0
##$CONDENSED SPECTRUM=NO
##NPOINTS= 42
##XYDATA=(XY..XY) 1 
    51         20
    52         80
    53         60
    54         40
    55        590
    56         90
    57         30
    65         20
    66         90
    67        240
    68        230
    69        230
    70         70
    71         40
    72        700
    73         30
    81         50
    82         40
    83        110
    84         20
    93         20
    94         90
    95        390
    96         40
   108         70
   109        170
   110         60
   111        999
   112        100
   121         20
   122         20
   123         20
   124         60
   136        250
   137        300
   138        130
   139         20
   164        100
   165        460
   166         50
   183         70
   184          6