##TITLE=Library Entry 22723
##JCAMP-DX=Revision 4.10 
##DATA TYPE=MASS SPECTRUM
##SAMPLE DESCRIPTION=Institute of Organic Chemistry, USSR, 1990
##NAMES=HP
##CAS NAME=3,15-Dimethyl-6,9,12,20,23,28,31-heptaoxa-1,3,15,17-tetraazabicyc
lo-[15.8.8]-tritriacontan-2,16-dione
##MOLFORM=C24H46N4O9
##CAS REGISTRY NO=89863-15-0
##MP= -300
##BP= -300
##MW= 534
##$RETENTION INDEX=0
##$CONDENSED SPECTRUM=NO
##NPOINTS= 178
##XYDATA=(XY..XY) 1 
    54         39
    55         78
    56        999
    57        294
    58        392
    59         84
    70        431
    71        216
    72        149
    73        110
    74         31
    84         59
    85         55
    86        275
    87         88
    88         51
    98         53
    99         88
   100        510
   101        157
   102        686
   103         57
   112         98
   113        333
   114        353
   115        124
   116         55
   125         57
   126        102
   127        143
   128        196
   129         55
   130        102
   131         11
   137         39
   139         71
   140         39
   141        137
   142         67
   143         61
   144         85
   145         49
   146         98
   147         21
   152         33
   153         39
   154         33
   155         86
   156         49
   157         75
   158         77
   159         35
   160         29
   169         29
   170         41
   171         86
   172         78
   173         29
   174         51
   175         20
   176         26
   183         35
   184         28
   185         45
   186         29
   187         75
   188         35
   189         71
   190         73
   199         53
   200         29
   201        109
   202         53
   213         71
   214         49
   215         94
   216         49
   217         33
   218         24
   220         29
   227         41
   228         22
   229         31
   230         26
   231         51
   233         45
   241         45
   242         16
   243         20
   244         31
   245         59
   246         28
   247         33
   256         24
   257         26
   258         29
   259         78
   260         18
   261         14
   270         53
   271         26
   272         16
   273         26
   274         16
   275         14
   277         47
   284         33
   285         20
   286         20
   288         20
   289         33
   295         33
   300         16
   301         16
   302         29
   303         35
   304         20
   305         16
   314         28
   315         20
   316         20
   317         14
   318         14
   321         29
   328         28
   329         10
   332         22
   333         20
   342         14
   343         10
   344         39
   345         14
   346         28
   347         12
   358         78
   359         29
   360         12
   364         12
   371         14
   372         33
   373         14
   374         14
   388         20
   389         10
   390         14
   402         10
   403         14
   404         12
   415         10
   416         14
   428         10
   429         12
   432         14
   433         16
   434         12
   445         14
   446         10
   447         16
   448          8
   452         16
   453          8
   457          8
   459         61
   460         22
   472         16
   473         31
   474         20
   478          8
   489         20
   490         10
   491         10
   504         10
   505          8
   506         10
   519         12
   533         29
   534        104
   535         31