##TITLE=Library Entry 39363
##JCAMP-DX=Revision 4.10 
##DATA TYPE=MASS SPECTRUM
##SAMPLE DESCRIPTION=Institute of Organic Chemistry, Novosibirsk, USSR 1988
##NAMES=HP
##CAS NAME=10,12-Dimethyl-1,4,7-trioxa-10,12-diazacyclotetradecane-11-thione
##MOLFORM=C11H22N2O3S
##CAS REGISTRY NO=89863-08-1
##MP= -300
##BP= -300
##MW= 262
##$RETENTION INDEX=0
##$CONDENSED SPECTRUM=NO
##NPOINTS= 62
##XYDATA=(XY..XY) 1 
    55         87
    56        283
    57        299
    58        499
    59        145
    60         49
    69         83
    70        108
    71        999
    72        216
    73        299
    74        391
    75         83
    76         49
    79        204
    85         58
    86        233
    87         91
    88        108
    89         95
    99         62
   100        154
   101         62
   102        137
   104        583
   105         91
   115        191
   116         54
   117         66
   118        166
   128         54
   129        333
   130        916
   131        208
   132         95
   133         29
   141         66
   143         66
   144        108
   145         29
   146         29
   147         58
   148         70
   156         41
   157         41
   158         41
   159         41
   173         37
   174        316
   175         62
   176         29
   185         20
   186         20
   188        124
   202         54
   217         24
   218         33
   229         33
   247         33
   262        245
   263         33
   264         16