##TITLE=Library Entry 17784
##JCAMP-DX=Revision 4.10 
##DATA TYPE=MASS SPECTRUM
##SAMPLE DESCRIPTION=Chemical Concepts
##NAMES=HP
##CAS NAME=1,6,9,12,15-Pentaoxaheptadecane-3,4-diol, trans-
##MOLFORM=C12H24O7
##CAS REGISTRY NO=89863-22-9
##MP= -300
##BP= -300
##MW= 280
##$RETENTION INDEX=0
##$CONDENSED SPECTRUM=NO
##NPOINTS= 155
##XYDATA=(XY..XY) 1 
    26          5
    27         73
    28        124
    29         76
    30         19
    31        216
    33          2
    39          2
    41         63
    42         40
    43        327
    44        190
    45        999
    46         26
    53          1
    54          0
    55         19
    56         18
    57         71
    58        188
    59        265
    60         26
    61         28
    62          2
    63          4
    66          0
    68          3
    69         29
    70         24
    71         28
    72         43
    73        129
    74         12
    75         40
    76          3
    77          6
    80          1
    81          9
    82          3
    83          3
    85         21
    87        557
    88         63
    89        308
    90         20
    91          1
    92          0
    94          3
    95          4
    96          1
    97          1
    98          3
    99         33
   100         10
   101         31
   102         20
   103         66
   104          6
   105         12
   106          1
   107         15
   108          0
   109          0
   110          0
   111          2
   112         12
   113         19
   114          5
   115          9
   116          6
   117         53
   118          4
   119         18
   120          1
   121          4
   122          0
   125          0
   126          1
   128          3
   129          4
   130         15
   131        122
   132         10
   133         89
   134          5
   135          3
   138          0
   139          0
   140          0
   141          0
   143          3
   144          2
   145          3
   146          1
   147          6
   148          1
   149         10
   150          0
   151         16
   152          1
   154          0
   156          2
   157          4
   158          1
   159          3
   160          0
   161         19
   162          2
   163          3
   164          0
   165          2
   170          0
   173          1
   174          5
   175         32
   176          3
   177          6
   178          0
   179          1
   187          9
   188          0
   189          1
   190          1
   191          1
   192          0
   193          6
   194          0
   195          1
   200          0
   201          1
   204          0
   205          4
   206          0
   207          0
   208          0
   209          4
   217          0
   218          0
   219        567
   220         66
   221          9
   222          0
   231          2
   232          0
   236          0
   237         19
   238          2
   239          0
   244          0
   251          0
   254          1
   262          1
   263          0
   280          0
   281          1