##TITLE=Library Entry 72565
##JCAMP-DX=Revision 4.10 
##DATA TYPE=MASS SPECTRUM
##SAMPLE DESCRIPTION=Chemical Concepts
##NAMES=HP
##CAS NAME=1,4-Dioxaspiro[4.6]undecan-6-one
##MOLFORM=C9H14O3
##CAS REGISTRY NO=89874-32-8
##MP= -300
##BP= -300
##MW= 170
##$RETENTION INDEX=0
##$CONDENSED SPECTRUM=NO
##NPOINTS= 72
##XYDATA=(XY..XY) 1 
    26          7
    27         47
    28         38
    29         28
    31          4
    38          2
    39         37
    40         11
    41         78
    42        111
    43         42
    44         11
    45         11
    48          8
    49          6
    50          2
    51          4
    52          4
    53         15
    54         11
    55        151
    56         20
    57          8
    58          2
    63          4
    65          2
    66          6
    67         17
    68         20
    69         25
    70         10
    71          5
    73         11
    74          2
    77          4
    79          8
    80          4
    81         17
    82          6
    83          9
    84          6
    85          3
    86        152
    87         13
    88          2
    95          5
    96          2
    97          7
    98         11
    99        999
   100        105
   101         13
   102          3
   109          3
   110          4
   111          5
   112          9
   113        121
   114         11
   115          4
   125          5
   126         13
   127          5
   140         15
   141          7
   142        177
   143         24
   144          4
   155          3
   156          4
   170         23
   171          8