##TITLE=Library Entry 25802
##JCAMP-DX=Revision 4.10 
##DATA TYPE=MASS SPECTRUM
##SAMPLE DESCRIPTION=Zaikin V.G., TIPS RAS, Moscow, Russia
##NAMES=HP
##CAS NAME=2- Bromopropionic acid, octadecyl ester
##MOLFORM=C21H41BrO2
##CAS REGISTRY NO=89876-55-1
##MP= -300
##BP= -300
##MW= 404
##$RETENTION INDEX=2549
##$CONDENSED SPECTRUM=NO
##NPOINTS= 128
##XYDATA=(XY..XY) 1 
    26         20
    27         83
    28          1
    29        152
    30          3
    31          5
    35          3
    36         27
    37          3
    38         11
    39         56
    40         14
    41        412
    42        125
    43        687
    44         80
    45         10
    50          3
    51          5
    52          3
    53         29
    54        105
    55        788
    56        462
    57        999
    58         44
    65          5
    66         12
    67        160
    68        221
    69        723
    70        364
    71        515
    72         32
    73         45
    74        640
    75        310
    76         12
    77          8
    79         19
    80         43
    81        122
    82        387
    83        867
    84        268
    85        349
    86         24
    87          5
    91          5
    93          5
    94          7
    95         90
    96        254
    97        792
    98        185
    99         87
   100         10
   101          3
   107        106
   108         11
   109        139
   110        116
   111        431
   112        122
   113         62
   114         10
   115          4
   122          6
   123         46
   124         85
   125        220
   126         78
   127         44
   128          5
   130         10
   134          3
   135         72
   136         10
   137         86
   138         66
   139         97
   140         52
   141         24
   142          3
   148          3
   150          4
   151         15
   152         44
   153        187
   154         55
   155        153
   156          5
   165         10
   166         33
   167         36
   168         29
   169         14
   179          8
   180         29
   181         24
   182         21
   183          8
   191          3
   193         13
   194         27
   195         18
   196         18
   197          5
   208         24
   209         11
   210          8
   211          3
   221          6
   222         43
   223         11
   224         62
   225         12
   250        200
   251         48
   252         72
   253         15
   267          5
   269          3
   295         11
   297         37
   298          6
   324          3
   325          2