##TITLE=Library Entry 70214
##JCAMP-DX=Revision 4.10 
##DATA TYPE=MASS SPECTRUM
##SAMPLE DESCRIPTION=Chemical Concepts
##NAMES=HP
##CAS NAME=Cyclopentene, 3,5-dimethoxy-
##MOLFORM=C7H12O2
##CAS REGISTRY NO=89897-05-2
##MP= -300
##BP= -300
##MW= 128
##$RETENTION INDEX=0
##$CONDENSED SPECTRUM=NO
##NPOINTS= 85
##XYDATA=(XY..XY) 1 
    26         20
    27        121
    28         26
    29         87
    30         16
    31         19
    33         10
    37          4
    38         18
    39        179
    40         39
    41        218
    42         25
    43         72
    44          3
    45         90
    46          1
    47          3
    49          0
    50         15
    51         31
    52         19
    53        176
    54         46
    55        105
    56          8
    57         24
    58         19
    59         14
    60          0
    61          1
    62          4
    63         11
    64          3
    65         75
    66        183
    67        202
    68         20
    69         33
    70          7
    71         73
    72        187
    73         11
    74          7
    75          9
    76          0
    77          7
    78          1
    79          7
    80          3
    81        188
    82         73
    83         31
    84          5
    85        114
    86          7
    87          4
    88          0
    91          0
    94          0
    95         76
    96        292
    97        999
    98        117
    99         20
   100          2
   101         34
   102          2
   103          0
   109          0
   110          0
   111          7
   112          4
   113        116
   114          8
   115          0
   119          0
   123          0
   124          0
   125          1
   126          0
   127        104
   128         73
   129          7
   130          0