##TITLE=Library Entry 9739
##JCAMP-DX=Revision 4.10 
##DATA TYPE=MASS SPECTRUM
##SAMPLE DESCRIPTION=Chemical Concepts
##NAMES=HP
##CAS NAME=Acetic acid, 1,4-pentadien-3-yl ester
##MOLFORM=C7H10O2
##CAS REGISTRY NO=89898-06-6
##MP= -300
##BP= -300
##MW= 126
##$RETENTION INDEX=0
##$CONDENSED SPECTRUM=NO
##NPOINTS= 48
##XYDATA=(XY..XY) 1 
    26         12
    27         71
    28         15
    29         32
    31          9
    37          5
    38         17
    39        140
    40         77
    41        143
    42         24
    43        999
    44         29
    45          6
    50          8
    51         17
    52         10
    53         10
    54          8
    55        113
    56         27
    57         41
    58          6
    60          3
    61         21
    62          7
    63         13
    64          7
    65        152
    66        273
    67        247
    68         21
    69         15
    71          3
    77          4
    78          3
    79         13
    80          3
    81          4
    82         11
    83        144
    84        350
    85         19
    97          7
    98          7
    99         13
   111          5
   126          2