##TITLE=Library Entry 6397
##JCAMP-DX=Revision 4.10 
##DATA TYPE=MASS SPECTRUM
##SAMPLE DESCRIPTION=Chemical Concepts
##NAMES=HP
##CAS NAME=2(5H)-Furanone, 4,5,5-trimethyl-3-(3-methyl-2-methylenebutyl)-
##MOLFORM=C13H20O2
##CAS REGISTRY NO=89902-33-0
##MP= -300
##BP= -300
##MW= 208
##$RETENTION INDEX=0
##$CONDENSED SPECTRUM=NO
##NPOINTS= 154
##XYDATA=(XY..XY) 1 
    23          1
    24          0
    25          0
    26         12
    27        257
    29        121
    30          1
    31         12
    35          0
    37          3
    38         13
    39        294
    40         28
    41        641
    42         46
    43        999
    44         23
    45         17
    47          1
    49          1
    50         32
    51         91
    52         45
    53        182
    54         27
    55        163
    56         14
    57        149
    58         10
    59         55
    60          3
    61          3
    62          7
    63         32
    64          9
    65         86
    66         33
    67        165
    68         22
    69        232
    70         51
    71         19
    72          1
    73          3
    74         10
    75         14
    76          5
    77        179
    78         42
    79        280
    80         35
    81         76
    82         15
    83         22
    84          4
    85         15
    86          5
    87          5
    88          4
    89         17
    90          5
    91        228
    92         51
    93        233
    94        120
    95        201
    96         42
    97         27
    98          5
    99          6
   100          1
   101          1
   102          4
   103         26
   104         10
   105        209
   106         41
   107        399
   108         55
   109         68
   110         63
   111         38
   112         11
   113          2
   114          0
   115         13
   116          8
   117         23
   118          8
   119        111
   120         32
   121        365
   122         99
   123        111
   124         31
   125         95
   126          8
   127          3
   128          3
   129          5
   130          3
   131         13
   132         11
   133        100
   134         45
   135         85
   136         12
   137        115
   138        572
   139         99
   140        142
   141         14
   142          2
   143          2
   144          1
   145          6
   146          7
   147        136
   148         27
   149        212
   150         41
   151        200
   152        113
   153         21
   154          1
   157          7
   158          2
   159          4
   160         10
   161          8
   162          5
   163         79
   164         23
   165        180
   166         61
   167          6
   173          3
   174          2
   175         79
   176         10
   177          4
   178          1
   179          4
   180          1
   189          3
   190          5
   191          3
   193        148
   194         22
   195          2
   207          1
   208        122
   209         19
   210          1