##TITLE=Library Entry 69670
##JCAMP-DX=Revision 4.10 
##DATA TYPE=MASS SPECTRUM
##SAMPLE DESCRIPTION=Chemical Concepts
##NAMES=HP
##CAS NAME=2(5H)-Furanone, 4-methyl-5-(2-methyl-2-propenyl)-
##MOLFORM=C9H12O2
##CAS REGISTRY NO=89902-24-9
##MP= -300
##BP= -300
##MW= 152
##$RETENTION INDEX=950
##$CONDENSED SPECTRUM=NO
##NPOINTS= 82
##XYDATA=(XY..XY) 1 
    27        112
    28          6
    29         77
    30          1
    31          1
    36          1
    37         10
    38         32
    39        295
    40         68
    41        529
    42         24
    43         16
    44          4
    45          1
    49          4
    50         16
    51         27
    52         11
    53         40
    54         10
    55         87
    56          7
    57          0
    60          0
    61          2
    62          3
    63          6
    64          1
    65          9
    66          4
    67         26
    68         46
    69        245
    70         12
    71          1
    73          1
    74          1
    75          1
    77         12
    78          3
    79         11
    80          4
    81         23
    82          8
    83          4
    84          1
    85          0
    89          0
    91         15
    92          2
    93         10
    94         10
    95         49
    96         41
    97        999
    98         58
    99          6
   100          0
   105          2
   106          4
   107         13
   108          4
   109         51
   110         31
   111          5
   112          1
   119          1
   121          1
   122          5
   123         41
   124         71
   125          6
   133          0
   134         11
   135          1
   137          6
   138          0
   150          2
   152         71
   153          8
   154          0