##TITLE=Library Entry 83335
##JCAMP-DX=Revision 4.10 
##DATA TYPE=MASS SPECTRUM
##SAMPLE DESCRIPTION=Chemical Concepts
##NAMES=HP
##CAS NAME=2(5H)-Furanone, 4-methyl-3-(2-methyl-2-propenyl)-
##MOLFORM=C9H12O2
##CAS REGISTRY NO=89902-23-8
##MP= -300
##BP= -300
##MW= 152
##$RETENTION INDEX=0
##$CONDENSED SPECTRUM=NO
##NPOINTS= 106
##XYDATA=(XY..XY) 1 
    27        573
    28        129
    29        346
    30         19
    31         25
    36          3
    37         41
    38        102
    39        957
    40        145
    41        610
    42         47
    43        340
    44         70
    45         35
    46          4
    47          3
    48          2
    49         15
    50        122
    51        247
    52        118
    53        340
    54        114
    55        344
    56         42
    57         26
    58         28
    59         12
    60          5
    61         16
    62         34
    63         72
    64         20
    65        204
    66        124
    67        414
    68         46
    69        157
    70         17
    71         11
    72          4
    73          6
    74         21
    75         20
    76         10
    77        600
    78        102
    79        443
    80         75
    81        284
    82         50
    83         86
    84         20
    85          5
    86          5
    87          3
    88          1
    89         16
    90          9
    91        927
    92        112
    93        645
    94         96
    95        320
    96         38
    97         46
    98         11
    99          2
   102          1
   103         11
   104          7
   105        144
   106         82
   107        999
   108        110
   109        208
   110         22
   111         30
   112         73
   113          5
   115          1
   117          1
   118          2
   119         54
   120         14
   121          9
   122          5
   123         60
   124         34
   125          7
   126          1
   132          1
   133          7
   134         46
   135         11
   136          6
   137        215
   138         22
   148          7
   149          1
   150          2
   151         21
   152        256
   153         29
   154          4