##TITLE=Library Entry 21732
##JCAMP-DX=Revision 4.10 
##DATA TYPE=MASS SPECTRUM
##SAMPLE DESCRIPTION=Chemical Concepts
##NAMES=HP
##CAS NAME=2(5H)-Furanone, 4-methyl-3,5,5-tris(2-methyl-2-propenyl)-
##MOLFORM=C17H24O2
##CAS REGISTRY NO=89902-28-3
##MP= -300
##BP= -300
##MW= 260
##$RETENTION INDEX=0
##$CONDENSED SPECTRUM=NO
##NPOINTS= 112
##XYDATA=(XY..XY) 1 
    26          9
    27        281
    28        216
    29        416
    30          8
    34         10
    37          5
    38         15
    39        335
    40         10
    41        298
    42         21
    43        240
    44         13
    45          7
    50         13
    51         64
    52         29
    53        203
    54         41
    55        999
    56         53
    57         42
    59          6
    63         18
    64          7
    65         62
    66         13
    67         81
    68          7
    69        155
    70          7
    71         14
    73         17
    75         10
    76          4
    77        180
    78         33
    79        133
    80         30
    81         51
    82         17
    83        121
    84          7
    85          4
    89          8
    91        127
    92         25
    93        157
    94         52
    95        102
    96         37
    97          8
   103         13
   104          8
   105         68
   106         11
   107        117
   108         17
   109         31
   110          7
   111         30
   113          4
   115         15
   116          7
   117         38
   118          5
   119         63
   120         11
   121        137
   122         19
   123         20
   125          6
   127          6
   128         13
   129         14
   130          8
   131         29
   133         33
   134         13
   135        141
   136         17
   137          9
   141          9
   142          8
   143         14
   144         22
   145         26
   146          7
   147         17
   149        335
   150         36
   151         12
   157          4
   159         88
   160         12
   161         30
   162          8
   163        124
   164         20
   165         11
   173          5
   175          6
   177         28
   178          5
   187         16
   189          7
   204         13
   205        468
   206         71
   207         10
   260          8