##TITLE=Library Entry 75952
##JCAMP-DX=Revision 4.10 
##DATA TYPE=MASS SPECTRUM
##SAMPLE DESCRIPTION=Institute of Organic Chemistry, Novosibirsk, USSR 1988
##NAMES=HP
##CAS NAME=13,15-Dimethyl-1,4,7,10-tetraoxa-13,15-diazacycloheptadecan-14-on
e
##MOLFORM=C13H26N2O5
##CAS REGISTRY NO=89913-93-9
##MP= -300
##BP= -300
##MW= 290
##$RETENTION INDEX=0
##$CONDENSED SPECTRUM=NO
##NPOINTS= 95
##XYDATA=(XY..XY) 1 
    55         26
    56        276
    57        382
    58        638
    59        321
    60         22
    61         42
    64         85
    69         15
    70        140
    71        199
    72        259
    73        395
    74        123
    75         34
    83         14
    84         51
    85         61
    86        225
    87        225
    88        348
    89        259
    90        180
    98         14
    99         76
   100        140
   101        489
   102        999
   103         85
   112         31
   113        191
   114        280
   115        289
   116        123
   117         72
   118         23
   125         80
   126         17
   127        165
   128        153
   129        144
   130        123
   131        191
   132         35
   133         97
   139         14
   140         55
   141         46
   142         93
   143         76
   144         72
   145         55
   146         93
   147         12
   156         19
   157         61
   158         97
   159         72
   160         31
   161          0
   162         12
   171         23
   172         28
   173         13
   174         15
   175         18
   176         11
   185         11
   188         33
   189         34
   190         63
   201         25
   202         19
   203         23
   204         17
   206         24
   215         22
   216          9
   217          8
   218          9
   219         11
   229         12
   232         23
   233         18
   234         12
   245         10
   246          9
   247         20
   259         11
   260          5
   275         11
   289          5
   290         42
   291         19
   292          2