##TITLE=Library Entry 13456
##JCAMP-DX=Revision 4.10 
##DATA TYPE=MASS SPECTRUM
##SAMPLE DESCRIPTION=Chemical Concepts
##NAMES=HP
##CAS NAME=Molybdenum, (acetato-O,O')tris(.eta.3-2-propenyl)-
##MOLFORM=C11H18MoO2
##CAS REGISTRY NO=89922-75-8
##MP= -300
##BP= -300
##MW= 280
##$RETENTION INDEX=0
##$CONDENSED SPECTRUM=NO
##NPOINTS= 185
##XYDATA=(XY..XY) 1 
    26         58
    27        145
    28        100
    29         24
    36          6
    37         35
    38         63
    39        399
    40         85
    41        308
    42        119
    43        999
    44         29
    45         36
    50         15
    51         20
    52         13
    53         30
    54         42
    55         26
    56          8
    60         17
    63          7
    65         11
    66         11
    67         85
    68          7
    69          6
    77         17
    78          8
    79         33
    80         13
    81         20
    82         16
    92         46
    94         34
    95         48
    96         53
    97         38
    98         76
   100         29
   105         19
   106          8
   107         18
   108         47
   109         40
   110         50
   111         74
   112         60
   113         54
   114         72
   115         20
   116         22
   117         23
   118         11
   119         24
   120         26
   121         52
   122         79
   123         71
   124         67
   125        104
   126         75
   127         73
   128         72
   129         51
   130         47
   131         38
   132         27
   133         62
   134         76
   135         64
   136         87
   137         86
   138         86
   139         76
   140         73
   141         36
   142         33
   143         22
   144         20
   145         26
   146         67
   147        119
   148        140
   149        184
   150        224
   151        265
   152        269
   153        256
   154        191
   155        163
   156         74
   157         68
   158         16
   159         33
   160         45
   161         56
   162        104
   163        125
   164        127
   165        174
   166        174
   167        162
   168        162
   169        116
   170         66
   171         60
   172         35
   173         59
   174         36
   175         63
   176         61
   177         79
   178         58
   179         90
   180         35
   181         55
   182         18
   183         24
   184         12
   185         24
   186         69
   187        120
   188         83
   189        219
   190        251
   191        441
   192        318
   193        436
   194        383
   195        442
   196        222
   197        355
   198         75
   199        146
   200         24
   201         21
   202         32
   203         46
   204         85
   205        134
   206         82
   207        151
   208        171
   209        171
   210        157
   211        139
   212         63
   213         67
   214         20
   215         18
   216         30
   217         16
   218         20
   219         30
   220         27
   221         21
   222         38
   223          7
   224         16
   227          5
   228          9
   229         99
   230         62
   231        101
   232        317
   233        216
   234        271
   235        397
   236        348
   237        254
   238        337
   239         73
   240        119
   241         22
   274         37
   275          7
   276         27
   277         53
   278         55
   279         31
   280         68
   281          8
   282         25