##TITLE=Library Entry 97616
##JCAMP-DX=Revision 4.10 
##DATA TYPE=MASS SPECTRUM
##SAMPLE DESCRIPTION=Chemical Concepts
##NAMES=HP
##CAS NAME=Chromium, (.eta.5-2,4-cyclopentadien-1-yl)bis(.eta.3-2-propenyl)-
##MOLFORM=C11H15Cr
##CAS REGISTRY NO=89922-80-5
##MP= -300
##BP= -300
##MW= 199
##$RETENTION INDEX=0
##$CONDENSED SPECTRUM=NO
##NPOINTS= 135
##XYDATA=(XY..XY) 1 
    23          0
    25          3
    26         26
    27        110
    28         19
    29         34
    30          1
    31          2
    36          0
    37         14
    38         29
    39        205
    40         34
    41        209
    42         53
    43         45
    44          0
    49          2
    50         14
    51         22
    52        289
    53         37
    54        110
    55         40
    56          9
    57         13
    58          1
    61          3
    62          6
    63         12
    64          2
    65         56
    66         40
    67        406
    68         25
    69         13
    70          3
    71          3
    72         11
    73          1
    74          4
    75          1
    76          0
    77         21
    78         10
    79         44
    80          8
    81         65
    82         77
    83         10
    84          8
    85          2
    88          0
    89          4
    90         31
    91         22
    92         14
    93         13
    94          2
    95          8
    96          2
    97          2
   100          0
   101          0
   102          0
   103          2
   104          3
   105          6
   106          5
   107          5
   108          1
   109          5
   110          2
   111          2
   112          0
   114          0
   115         49
   116          7
   117        999
   118        215
   119         40
   120          3
   121          1
   122          1
   123          2
   124          1
   126          0
   127          0
   128          2
   129          4
   130         70
   131         29
   132         78
   133         13
   134          4
   135          1
   140          0
   141          0
   142          3
   143          2
   144          4
   145          1
   146          0
   148          0
   149          1
   150          1
   154         11
   155          3
   156        157
   157         37
   158        470
   159         90
   160         18
   161          1
   164          1
   165          0
   166          0
   168          0
   169         14
   170          2
   171        285
   172         61
   173         11
   174          0
   184          0
   185          0
   193          4
   194          1
   195         73
   196         43
   197         25
   198          6
   199        135
   200         32
   201          6