##TITLE=Library Entry 89191
##JCAMP-DX=Revision 4.10 
##DATA TYPE=MASS SPECTRUM
##SAMPLE DESCRIPTION=Humboldt-Universitat zu Berlin, Department of Chemistry
, Analytical Group
##NAMES=HP
##CAS NAME=Acetic acid, succinimido-, methyl ester
##MOLFORM=C7H9NO4
##CAS REGISTRY NO=89937-73-5
##MP= -300
##BP= -300
##MW= 171
##$RETENTION INDEX=0
##$CONDENSED SPECTRUM=NO
##NPOINTS= 80
##XYDATA=(XY..XY) 1 
    12          3
    13          8
    14         48
    15        325
    16         11
    17         30
    18         91
    19          1
    25         10
    26        149
    27        389
    28        856
    29        165
    30        344
    31         37
    32          3
    33          3
    37          5
    38          6
    39         16
    40         14
    41        397
    42        221
    43         31
    44         21
    45         28
    51          3
    52          8
    53         20
    54         43
    55        839
    56        675
    57         42
    58         15
    59        245
    60         10
    61          2
    65          1
    66          3
    67          4
    68          8
    69         90
    70         40
    71         26
    72          3
    73          2
    74          2
    81          2
    82         17
    84        751
    85         85
    86          6
    87          1
    88         26
    89          1
    93          1
    97        117
    98         61
    99         92
   100         11
   101          1
   109          4
   110          3
   112        999
   113         76
   114          7
   115          3
   116          3
   126          2
   127         68
   128          5
   129          1
   139         40
   140        175
   141         13
   142          2
   149          1
   171        466
   172         40
   173          5