##TITLE=Library Entry 40305
##JCAMP-DX=Revision 4.10 
##DATA TYPE=MASS SPECTRUM
##SAMPLE DESCRIPTION=Chemical Concepts
##NAMES=HP
##CAS NAME=Maleamide, tetra-N-ethyl-2,3-dimethyl-
##MOLFORM=C14H26N2O2
##CAS REGISTRY NO=89945-59-5
##MP= -300
##BP= -300
##MW= 254
##$RETENTION INDEX=0
##$CONDENSED SPECTRUM=NO
##NPOINTS= 104
##XYDATA=(XY..XY) 1 
    26          7
    27        140
    28         51
    29        559
    30         43
    38          2
    39         56
    40          5
    41         33
    42        128
    43         25
    44        154
    45          3
    46          1
    50          2
    51          7
    52         10
    53        120
    54        125
    55        139
    56         78
    57          8
    58         44
    59          2
    65          3
    66          7
    67         24
    68          8
    69          9
    70         43
    71          7
    72        999
    73         48
    74          5
    77          2
    78          2
    79          3
    80         55
    81         28
    82         56
    83         79
    84          8
    86          4
    94          4
    95          3
    96          8
    97          4
    98          6
    99          2
   100         40
   101          3
   103         11
   104          3
   105          1
   106          3
   107          2
   108        172
   109         15
   110        142
   111         18
   112         18
   113          1
   120          1
   121          1
   122          2
   123          1
   124          9
   125          8
   126        248
   127         17
   128          2
   130         15
   131          6
   132          2
   136          2
   137          2
   138         54
   139          8
   140        497
   141         39
   142          3
   146          1
   147          1
   148          2
   149          2
   150          1
   151          1
   152         56
   153         14
   154        801
   155         70
   156          6
   166          9
   167          2
   168         11
   179          1
   180          9
   181         67
   182        855
   183        418
   184         40
   185          3
   195          1
   209          1