##TITLE=Library Entry 37198
##JCAMP-DX=Revision 4.10 
##DATA TYPE=MASS SPECTRUM
##SAMPLE DESCRIPTION=Japan AIST/NIMC Database- Spectrum MS-NW-8614
##NAMES=HP
##CAS NAME=Methoxydi(1-pyrrolidinyl)phosphine
##MOLFORM=C9H19N2OP
##CAS REGISTRY NO=89983-14-2
##MP= -300
##BP= -300
##MW= 202
##$RETENTION INDEX=0
##$CONDENSED SPECTRUM=NO
##NPOINTS= 134
##XYDATA=(XY..XY) 1 
    14          3
    15         38
    26          9
    27         54
    28        176
    29         21
    30         51
    31         10
    32          5
    33          3
    34          2
    37          5
    38         11
    39         81
    40         26
    41        172
    42        300
    43        657
    44         29
    45         10
    46          5
    47         54
    48          4
    49          9
    50          3
    51          3
    52          6
    53          8
    54          8
    55         13
    56         13
    57         76
    58          4
    59          8
    60         11
    61          1
    62          7
    63         68
    64          5
    65          3
    66          8
    67         12
    68         66
    69         29
    70        999
    71        280
    72         26
    73         16
    74          8
    75          3
    76         12
    77          6
    78          6
    79         59
    80         14
    81          2
    82         11
    83          3
    84         97
    85         52
    86          3
    87          1
    88          2
    89         18
    90         19
    91         12
    92          3
    93        229
    94         18
    95          4
    96          9
    97          3
    98          4
    99          1
   100          3
   101          4
   102         18
   103          6
   104          1
   105          4
   106         28
   107          3
   108         28
   109          6
   110          2
   112          1
   114          1
   115          1
   116         28
   117         13
   118         33
   119          6
   120          7
   121         23
   122          3
   123          1
   124          1
   127          4
   130          1
   131         12
   132        175
   133         21
   134          8
   135          6
   136          7
   137          1
   139          1
   140          2
   141          2
   142         14
   145          1
   146          1
   147        109
   148        133
   149         39
   150          6
   151          2
   153          3
   162         16
   163         76
   164          6
   166          1
   167          3
   169          1
   171          3
   177          1
   178          2
   179          1
   187          8
   188          4
   189          1
   190          1
   202          7
   203          1