##TITLE=Library Entry 13038
##JCAMP-DX=Revision 4.10 
##DATA TYPE=MASS SPECTRUM
##SAMPLE DESCRIPTION=Chemical Concepts
##NAMES=HP
##CAS NAME=3-Acetamido-1-acetyl-1,2-diaza-4-thiaspiro[4.5]dec-2-ene
##MOLFORM=C11H17N3O2S
##CAS REGISTRY NO=89992-30-3
##MP= -300
##BP= -300
##MW= 255
##$RETENTION INDEX=0
##$CONDENSED SPECTRUM=NO
##NPOINTS= 80
##XYDATA=(XY..XY) 1 
    38          5
    39        107
    41        202
    43        999
    45         33
    46          5
    47         10
    50          6
    51         16
    53         60
    54         45
    55         77
    56         12
    58         45
    59         17
    60         37
    61          4
    62          5
    65         12
    67         50
    68         13
    69         27
    71         35
    72          6
    73          9
    74          6
    75         17
    76          4
    77         15
    79         34
    81         78
    82         13
    83         10
    84         11
    85          9
    86         11
    87          5
    94         12
    96         65
    97         11
    98          8
    99          6
   100         20
   101          7
   102          5
   103          6
   111         31
   112          7
   113         12
   114         23
   115         65
   116          7
   117          8
   118          5
   125          4
   128        117
   129         92
   130         11
   131          5
   132          6
   138         18
   139          4
   142         19
   144          4
   145          9
   154          9
   155          8
   157         46
   159          6
   170        368
   171         50
   172         19
   184         31
   185          4
   213        249
   214         26
   215         11
   254         54
   255         64
   257          5