##TITLE=Library Entry 86307
##JCAMP-DX=Revision 4.10 
##DATA TYPE=MASS SPECTRUM
##SAMPLE DESCRIPTION=NIST Mass Spectrometry Data Center, 1998.
##NAMES=HP
##CAS NAME=Phenol, 2-methoxy-
##MOLFORM=C7H8O2
##CAS REGISTRY NO=90-05-1
##MP= -300
##BP= -300
##MW= 124
##$RETENTION INDEX=1090
##$CONDENSED SPECTRUM=NO
##NPOINTS= 62
##XYDATA=(XY..XY) 1 
    14          2
    15         13
    25          2
    26         17
    27         55
    29         21
    30          2
    31          6
    36          1
    37         16
    38         36
    39         89
    40          7
    41         16
    42          7
    43          5
    48          1
    49         12
    50         76
    51        109
    52        124
    53        220
    54         23
    55         38
    56          2
    60          2
    61         15
    62         33
    63         70
    64         24
    65         67
    66         16
    67         11
    68          2
    69          3
    73          3
    74          9
    75          5
    76          4
    77         39
    78          7
    79         17
    80         24
    81        682
    82         39
    83          3
    91          1
    92          7
    93          6
    94          4
    95         22
    96          3
   105          1
   107          2
   109        999
   110         69
   111          6
   121          3
   122          1
   124        795
   125         63
   126          5