##TITLE=Library Entry 48246
##JCAMP-DX=Revision 4.10 
##DATA TYPE=MASS SPECTRUM
##SAMPLE DESCRIPTION=Japan AIST/NIMC Database- Spectrum MS-NW- 136
##NAMES=HP
##CAS NAME=Salicyl alcohol
##MOLFORM=C7H8O2
##CAS REGISTRY NO=90-01-7
##MP= -300
##BP= -300
##MW= 124
##$RETENTION INDEX=0
##$CONDENSED SPECTRUM=NO
##NPOINTS= 57
##XYDATA=(XY..XY) 1 
     2          1
    15          3
    18          2
    26          9
    27         30
    28          2
    29         24
    30          2
    31          3
    37         15
    38         36
    39        145
    40         17
    41         26
    42          4
    43          6
    49          7
    50         62
    51        142
    52         82
    53         24
    54          3
    55         18
    60          1
    61          9
    62         18
    63         47
    64         13
    65         53
    66         19
    67         17
    68          3
    73          4
    74         17
    75         11
    76         26
    77        245
    78        999
    79         84
    80          3
    81          2
    92          4
    93          9
    94         10
    95         42
    96          3
   104          3
   105         30
   106        308
   107         45
   108          4
   121         14
   122          3
   123          8
   124        308
   125         24
   126          2