##TITLE=Library Entry 84112
##JCAMP-DX=Revision 4.10 
##DATA TYPE=MASS SPECTRUM
##SAMPLE DESCRIPTION=NIST Mass Spectrometry Data Center, 1990.
##NAMES=HP
##CAS NAME=Phenol, 2-ethyl-
##MOLFORM=C8H10O
##CAS REGISTRY NO=90-00-6
##MP= -300
##BP= -300
##MW= 122
##$RETENTION INDEX=1139
##$CONDENSED SPECTRUM=NO
##NPOINTS= 71
##XYDATA=(XY..XY) 1 
    14          2
    15         10
    17          0
    18          0
    19          1
    26         12
    27         47
    28          5
    29         10
    31          2
    32          1
    37          9
    38         27
    39        105
    40         15
    41         17
    42          4
    43          7
    44          2
    45          5
    46          4
    49          4
    50         39
    51         89
    52         32
    53         48
    55         11
    59          4
    60         13
    61          9
    62         22
    63         44
    64         13
    65         48
    66         18
    67          4
    73          3
    74         12
    75         12
    76          3
    77        287
    78         67
    79        158
    80         12
    81          3
    85          1
    86          2
    87          3
    89         10
    91         64
    92         11
    93         10
    94         17
    95          4
    98          1
   101          3
   102          9
   103         45
   104         14
   105         13
   106          1
   107        999
   108         77
   109          4
   118          1
   119          4
   120          6
   121          1
   122        377
   123         33
   124          2