##TITLE=Library Entry 84866
##JCAMP-DX=Revision 4.10 
##DATA TYPE=MASS SPECTRUM
##SAMPLE DESCRIPTION=NIST Mass Spectrometry Data Center, 1998.
##NAMES=HP
##CAS NAME=Benzenamine, 2-methoxy-
##MOLFORM=C7H9NO
##CAS REGISTRY NO=90-04-0
##MP= -300
##BP= -300
##MW= 123
##$RETENTION INDEX=1143
##$CONDENSED SPECTRUM=NO
##NPOINTS= 68
##XYDATA=(XY..XY) 1 
    14          1
    15         14
    25          1
    26          8
    27         26
    28         27
    29         11
    30          6
    31          2
    37         13
    38         32
    39         84
    40         14
    41         30
    42          9
    43          1
    44          1
    45          1
    47          1
    48          1
    49          8
    50         51
    51         87
    52        173
    53        249
    54         50
    55          5
    56          1
    60          1
    61         12
    62         24
    63         49
    64         27
    65        129
    66         28
    67          7
    68          2
    73          1
    74          7
    75          7
    76         13
    77         25
    78         34
    79         26
    80        946
    81         63
    82          2
    87          1
    88          1
    89          2
    90          4
    91         14
    92         51
    93         21
    94         22
    95          5
   104          8
   105          6
   106          3
   107          3
   108        999
   109         74
   110          4
   120          3
   121          1
   123        809
   124         68
   125          4