##TITLE=Library Entry 83389
##JCAMP-DX=Revision 4.10 
##DATA TYPE=MASS SPECTRUM
##SAMPLE DESCRIPTION=Chuck Anderson, Aldrich Chemical Co.
##NAMES=HP
##CAS NAME=Benzenemethanol, .alpha.-(trichloromethyl)-, acetate
##MOLFORM=C10H9Cl3O2
##CAS REGISTRY NO=90-17-5
##MP= -300
##BP= -300
##MW= 266
##$RETENTION INDEX=1538
##$CONDENSED SPECTRUM=NO
##NPOINTS= 103
##XYDATA=(XY..XY) 1 
    14          4
    15         33
    26          2
    27          7
    28          2
    29          4
    35          1
    36          2
    37          2
    38          5
    39         13
    40          0
    41          0
    42          6
    43        650
    44         17
    45          3
    47          2
    49          3
    50         31
    51         66
    52         12
    53          2
    60          1
    61          4
    62         10
    63         20
    64          3
    65          3
    68         16
    69          5
    73          6
    74         18
    75         29
    76         14
    77        110
    78         23
    79        129
    80          8
    82          4
    83          3
    84          5
    85          6
    86          6
    87          5
    88          0
    89         26
    90         12
    91          3
    96          0
    97          4
    98          3
    99         11
   100          4
   101         42
   102         56
   103          6
   105         51
   106          5
   107        999
   108         69
   109          7
   110          6
   111          3
   112         13
   113          1
   114          3
   117          9
   118          2
   119         11
   121          3
   123          2
   125         31
   126          2
   127         10
   133          0
   135          4
   136         36
   137         27
   138         14
   139          8
   149        291
   150         27
   151          2
   153          1
   154          1
   159          1
   161          0
   170          1
   171         13
   172         30
   173         10
   174         19
   175          2
   176          3
   188         19
   189          1
   190         12
   192          2
   207          3
   209          3
   230          3
   232          1