##TITLE=Library Entry 83232
##JCAMP-DX=Revision 4.10 
##DATA TYPE=MASS SPECTRUM
##SAMPLE DESCRIPTION=Japan AIST/NIMC Database- Spectrum MS-IW-4558
##NAMES=HP
##CAS NAME=Benzenesulfonamide, N-methyl-N-phenyl-
##MOLFORM=C13H13NO2S
##CAS REGISTRY NO=90-10-8
##MP= -300
##BP= -300
##MW= 247
##$RETENTION INDEX=0
##$CONDENSED SPECTRUM=NO
##NPOINTS= 74
##XYDATA=(XY..XY) 1 
    15          1
    27          7
    28          1
    30          4
    37          1
    38          4
    39         32
    40          2
    41          2
    42          3
    44          1
    45          1
    50         19
    51        102
    52         11
    53          6
    54          2
    55          1
    62          3
    63         15
    64         11
    65         21
    66          6
    67          1
    69          1
    74          5
    75          5
    76          6
    77        393
    78         74
    79        109
    80          8
    81          1
    89          1
    90          6
    91          9
    92          3
    94          1
    97          3
   103          1
   104         67
   105         68
   106        999
   107         90
   108          3
   110          1
   115          4
   120          5
   122          1
   125          2
   128          2
   139          1
   140          1
   141         24
   142         62
   143          7
   151          1
   152          2
   153          2
   154          2
   157          1
   166          2
   167          9
   168          9
   169          1
   180          2
   182        112
   183        115
   184         15
   185          1
   247        418
   248         63
   249         24
   250          3