##TITLE=Library Entry 61549
##JCAMP-DX=Revision 4.10 
##DATA TYPE=MASS SPECTRUM
##SAMPLE DESCRIPTION=FLO 0030
##NAMES=HP
##CAS NAME=Benzeneacetamide, .alpha.-ethyl-
##MOLFORM=C10H13NO
##CAS REGISTRY NO=90-26-6
##MP= -300
##BP= -300
##MW= 163
##$RETENTION INDEX=2600
##$CONDENSED SPECTRUM=NO
##NPOINTS= 126
##XYDATA=(XY..XY) 1 
    12          2
    13          2
    14         17
    15         26
    16         13
    25          2
    26         15
    27         53
    29         40
    30         26
    31         40
    36          1
    37         10
    38         26
    39        132
    40         25
    41        172
    42         26
    43         40
    44        106
    45         16
    46          3
    47          1
    48          1
    49          4
    50         40
    51         92
    52         40
    53         26
    54          8
    55         26
    56         11
    57         23
    58          7
    59         10
    60          6
    61         13
    62         26
    63         53
    64         26
    65         79
    66         17
    67          9
    68          5
    69         22
    70         10
    71         11
    72          8
    73          6
    74         25
    75         20
    76         25
    77        106
    78        119
    79         66
    80          9
    81          7
    82          5
    83         11
    84          5
    85          8
    86         17
    87         10
    88          5
    89         53
    90         40
    91        999
    92        158
    93         23
    94          5
    95          7
    96          4
    97         10
    98          4
    99          3
   100          1
   101          5
   102         24
   103         53
   104         53
   105         66
   106         40
   107         16
   108          4
   109          5
   110          3
   111          7
   112          4
   113          5
   114          3
   115         53
   116         24
   117         40
   118         40
   119        211
   120        145
   121         26
   122          3
   123          3
   124          2
   125          4
   126          2
   127          2
   128          2
   129          1
   130          2
   131         16
   132          3
   133          5
   134          6
   135          4
   136         40
   137          6
   144          1
   145          2
   146          4
   147          6
   148         40
   149         14
   160          1
   161          2
   162         10
   163        145
   164         40
   165          7
   166          1