##TITLE=Library Entry 61676
##JCAMP-DX=Revision 4.10 
##DATA TYPE=MASS SPECTRUM
##SAMPLE DESCRIPTION=Japan AIST/NIMC Database- Spectrum MS-NW-8829
##NAMES=HP
##CAS NAME=Benzeneacetic acid, .alpha.-ethyl-
##MOLFORM=C10H12O2
##CAS REGISTRY NO=90-27-7
##MP= -300
##BP= -300
##MW= 164
##$RETENTION INDEX=1415
##$CONDENSED SPECTRUM=NO
##NPOINTS= 70
##XYDATA=(XY..XY) 1 
    26          1
    27         12
    28          2
    29          7
    38          3
    39         40
    40          4
    41         73
    42          3
    43          3
    44          1
    45          9
    50         11
    51         44
    52         10
    53          7
    55          2
    57          4
    58          2
    59          2
    62          6
    63         24
    64          6
    65         37
    66          3
    69          2
    74          4
    75          5
    76          6
    77         80
    78         49
    79         77
    80          5
    86          1
    87          2
    88          1
    89         24
    90         24
    91        999
    92         81
    93          4
    94          2
   101          1
   102          7
   103         37
   104         26
   105         15
   106          6
   107         35
   108          3
   114          1
   115         35
   116          9
   117         34
   118         33
   119        515
   120         60
   121          3
   131          6
   135         25
   136         32
   137          3
   144          1
   146          6
   147          1
   149          2
   161          2
   164        288
   165         31
   166          3