##TITLE=Library Entry 70773
##JCAMP-DX=Revision 4.10 
##DATA TYPE=MASS SPECTRUM
##SAMPLE DESCRIPTION=Japan AIST/NIMC Database- Spectrum MS-NW-3831
##NAMES=HP
##CAS NAME=[1,1'-Bicyclohexyl]-2-one
##MOLFORM=C12H20O
##CAS REGISTRY NO=90-42-6
##MP= -300
##BP= -300
##MW= 180
##$RETENTION INDEX=1496
##$CONDENSED SPECTRUM=NO
##NPOINTS= 85
##XYDATA=(XY..XY) 1 
    15          2
    18          1
    26          2
    27         39
    28          3
    29         35
    30          1
    31          1
    38          1
    39         47
    40          9
    41        123
    42         12
    43         13
    44          1
    50          2
    51          7
    52          4
    53         27
    54         34
    55        111
    56          9
    57          7
    58          1
    59          2
    63          1
    65          8
    66          6
    67        103
    68         20
    69         17
    70        122
    71          7
    77         10
    78          3
    79         27
    80         21
    81         68
    82         24
    83        102
    84          9
    85          3
    91          9
    92          2
    93          9
    94          9
    95         24
    96         10
    97         69
    98        999
    99         91
   100          6
   103          1
   105          3
   106          2
   107          5
   108          2
   109         17
   110          3
   111          5
   117          1
   119          3
   120          1
   121          3
   122          1
   123         17
   124          4
   125          1
   132          1
   133          3
   134          2
   135          3
   136          1
   137         21
   138          4
   147          1
   149          3
   150          1
   151          4
   152          1
   162          5
   178          2
   179          1
   180          7
   181          1