##TITLE=Library Entry 62340
##JCAMP-DX=Revision 4.10 
##DATA TYPE=MASS SPECTRUM
##SAMPLE DESCRIPTION=Japan AIST/NIMC Database- Spectrum MS-IW-4276
##NAMES=HP
##CAS NAME=Pheneturide
##MOLFORM=C11H14N2O2
##CAS REGISTRY NO=90-49-3
##MP= -300
##BP= -300
##MW= 206
##$RETENTION INDEX=1465
##$CONDENSED SPECTRUM=NO
##NPOINTS= 95
##XYDATA=(XY..XY) 1 
    15          3
    16          1
    17          6
    18         19
    26          2
    27         12
    28         14
    29         11
    30          1
    36          1
    38          3
    39         34
    40          3
    41         70
    42         21
    43        136
    44        118
    45          2
    50         10
    51         34
    52          8
    53          4
    54          1
    55          1
    57          4
    58          2
    59          2
    60          3
    61          8
    62          6
    63         22
    64          7
    65         30
    66          3
    69          2
    70          2
    74          5
    75          5
    76          6
    77         54
    78         93
    79         30
    80          2
    86          2
    87          7
    88          5
    89         53
    90         60
    91        999
    92         95
    93          5
    94          1
   101          1
   102          8
   103         38
   104         33
   105         48
   106         10
   107          1
   114          2
   115         36
   116        226
   117        365
   118        100
   119        281
   120        153
   121         13
   128          1
   129          1
   130         13
   131         14
   132          2
   133          2
   134          1
   135         99
   136          9
   142          1
   143          2
   144          3
   145        169
   146        881
   147         96
   148         30
   149          3
   162          1
   163        104
   164         13
   165          1
   178          5
   189          2
   191          9
   192          1
   206        373
   207         51
   208          5