##TITLE=Library Entry 56482
##JCAMP-DX=Revision 4.10 
##DATA TYPE=MASS SPECTRUM
##SAMPLE DESCRIPTION=Tox21 Consortium/NIST Mass Spectrometry Data Center, 20
12
##NAMES=HP
##CAS NAME=Etafenone
##MOLFORM=C21H27NO2
##CAS REGISTRY NO=90-54-0
##MP= -300
##BP= -300
##MW= 325
##$RETENTION INDEX=2434
##$CONDENSED SPECTRUM=NO
##NPOINTS= 110
##XYDATA=(XY..XY) 1 
    15          1
    18          2
    27          8
    28         17
    29         23
    30         39
    31          1
    38          1
    39          6
    40          1
    41          6
    42         33
    43          7
    44         41
    45          1
    50          3
    51          9
    52          2
    53          2
    54          4
    55          4
    56         49
    57         15
    58         55
    59          2
    62          1
    63          5
    64          4
    65         18
    66          2
    68          1
    69          1
    70         15
    71         16
    72         17
    73          2
    74          1
    75          1
    76          7
    77         27
    78          9
    79         12
    80          1
    84         20
    85          6
    86        999
    87         60
    88          2
    89          4
    90          3
    91         87
    92         14
    93          5
    94          2
    96          1
    98          5
    99        142
   100         26
   101          2
   102          3
   103         11
   104         19
   105         25
   106          2
   107          6
   109          1
   110          2
   115          2
   116          1
   117          1
   118          3
   119          3
   120          4
   121         17
   122          1
   127          1
   128          1
   131          4
   132          1
   133          2
   134          2
   135          4
   145          2
   146          1
   147          4
   148          2
   149          2
   151          1
   152          2
   153          1
   162          1
   163          1
   165          3
   166          1
   176          3
   177          1
   178          3
   179          1
   192          1
   207          2
   208          1
   220          1
   234          1
   253          1
   296          5
   297          1
   310          5
   311          1
   324          1
   325          2