##TITLE=Library Entry 69443
##JCAMP-DX=Revision 4.10 
##DATA TYPE=MASS SPECTRUM
##SAMPLE DESCRIPTION=Japan AIST/NIMC Database- Spectrum MS-NW-5927
##NAMES=HP
##CAS NAME=Lobeline
##MOLFORM=C22H27NO2
##CAS REGISTRY NO=90-69-7
##MP= -300
##BP= -300
##MW= 337
##$RETENTION INDEX=0
##$CONDENSED SPECTRUM=NO
##NPOINTS= 168
##XYDATA=(XY..XY) 1 
    14          3
    15         27
    17          2
    18          7
    26          5
    27         33
    28         24
    29          9
    30         23
    31          2
    39         55
    40          8
    41         64
    42        209
    43         76
    44         23
    45          2
    46          2
    48          1
    49          6
    50         66
    51        163
    52         24
    53         24
    54         16
    55         30
    56         30
    57         46
    58         18
    59          1
    60          4
    61          5
    62          9
    63         21
    64          5
    65         23
    66          7
    67         23
    68         65
    69         15
    70         59
    71         13
    72          2
    73          4
    74         20
    75         16
    76         21
    77        526
    78        104
    79         90
    80         22
    81         41
    82         82
    83         12
    84         12
    85         15
    86          3
    87          3
    89          8
    90          2
    91         48
    92          9
    93          6
    94         96
    95         32
    96        999
    97        680
    98        148
    99          9
   100          1
   101          1
   102          6
   103         18
   104         34
   105        593
   106         59
   107         37
   108         17
   109         11
   110         68
   111         16
   112         18
   113          4
   114          9
   115         13
   116          3
   117          9
   118          2
   119          3
   120        203
   121         22
   122          2
   123          1
   124          2
   126          8
   127          3
   128          7
   129          7
   130          7
   131          4
   132          2
   133          3
   134          1
   136          1
   138          1
   139          2
   140          4
   141          4
   143         13
   144          6
   145          2
   146          6
   147          2
   148          1
   154          1
   156          1
   157          2
   158          3
   159          3
   160          2
   161          2
   162         13
   163          2
   164          2
   165          1
   167          1
   168          1
   170          3
   171          2
   172          4
   173          2
   174          8
   175          5
   176          1
   180          1
   183          1
   184          1
   186          2
   188          4
   189          3
   196          1
   198          3
   199          2
   200          9
   201          5
   202          4
   212          1
   214          2
   215          4
   216        267
   217        122
   218        215
   219         37
   220          4
   222          1
   230          6
   231          9
   232          9
   233          2
   304          1
   319          1
   320          1
   322          4
   323          1
   336          2
   337         84
   338         23
   339          4