##TITLE=Library Entry 83586
##JCAMP-DX=Revision 4.10 
##DATA TYPE=MASS SPECTRUM
##SAMPLE DESCRIPTION=Japan AIST/NIMC Database- Spectrum MS-NW- 328
##NAMES=HP
##CAS NAME=Mandelic acid
##MOLFORM=C8H8O3
##CAS REGISTRY NO=90-64-2
##MP= -300
##BP= -300
##MW= 152
##$RETENTION INDEX=1487
##$CONDENSED SPECTRUM=NO
##NPOINTS= 54
##XYDATA=(XY..XY) 1 
    18          2
    26          3
    27         20
    28          4
    29         26
    31          1
    37          5
    38         11
    39         34
    40          2
    41          1
    43          3
    44          1
    45         13
    49          4
    50         42
    51        110
    52         24
    53         18
    54          2
    55          2
    61          4
    62          9
    63         18
    64          5
    65          2
    73          3
    74         11
    75          9
    76          7
    77        312
    78         49
    79        493
    80         33
    81          1
    85          1
    86          2
    87          2
    89         16
    90         31
    91          4
    95          1
   105         48
   106         12
   107        999
   108         83
   109          5
   114          1
   118          1
   133          1
   135          1
   152        143
   153         12
   154          1