##TITLE=Library Entry 30114
##JCAMP-DX=Revision 4.10 
##DATA TYPE=MASS SPECTRUM
##SAMPLE DESCRIPTION=Japan AIST/NIMC Database- Spectrum MS-NW-6168
##NAMES=HP
##CAS NAME=d-Glucosamine
##MOLFORM=C6H13NO5
##CAS REGISTRY NO=90-77-7
##MP= -300
##BP= -300
##MW= 179
##$RETENTION INDEX=0
##$CONDENSED SPECTRUM=NO
##NPOINTS= 141
##XYDATA=(XY..XY) 1 
    13          3
    14         12
    15         83
    16          5
    17         43
    18        177
    19         22
    25          3
    26         15
    27         53
    28        140
    29        135
    30        282
    31        174
    32         31
    33          2
    39         23
    40         14
    41         69
    42        111
    43        139
    44         55
    45         37
    46         21
    47         19
    48          2
    49          1
    50          2
    51          4
    52          6
    53          9
    54         15
    55         55
    56         90
    57         66
    58         88
    59        999
    60        208
    61         78
    62          4
    63          1
    64          1
    65          2
    66          5
    67          5
    68         12
    69         19
    70         29
    71         43
    72        866
    73         99
    74         40
    75         15
    76         11
    77          3
    78          2
    79          3
    80          7
    81          5
    82          4
    83          9
    84         26
    85         13
    86          9
    87          8
    88         38
    89          8
    90          3
    91          9
    92          2
    93          3
    94          9
    95          8
    96          9
    97         15
    98          9
    99          2
   100         61
   101         15
   102         14
   103          3
   104          1
   105          3
   106          3
   107          6
   108          4
   109          4
   110          3
   111          3
   112          5
   113          3
   114          9
   115         12
   116          4
   117          1
   118         10
   119          3
   120          2
   121          3
   122          4
   123         14
   124          6
   125          3
   126          2
   127          1
   128          1
   129          1
   130         24
   131          5
   132         18
   133          6
   134          2
   135          5
   136          3
   137          3
   138          2
   139          1
   143          3
   144          2
   145          2
   146          1
   147          3
   148         12
   149          7
   150          9
   151          4
   152          2
   153          3
   154          1
   159          1
   160          2
   161          8
   162          4
   163          2
   164          2
   165          2
   166          1
   177          1
   178          1
   179          1
   180          1