##TITLE=Library Entry 31260
##JCAMP-DX=Revision 4.10 
##DATA TYPE=MASS SPECTRUM
##SAMPLE DESCRIPTION=Japan AIST/NIMC Database- Spectrum MS-NW-1670
##NAMES=HP
##CAS NAME=D-Gluconic acid, .delta.-lactone
##MOLFORM=C6H10O6
##CAS REGISTRY NO=90-80-2
##MP= -300
##BP= -300
##MW= 178
##$RETENTION INDEX=0
##$CONDENSED SPECTRUM=NO
##NPOINTS= 116
##XYDATA=(XY..XY) 1 
    12          1
    13          3
    14         26
    15        209
    16          3
    17         15
    18         79
    19        120
    25          3
    26         34
    27        159
    28         71
    29        347
    30        102
    31        438
    32         16
    33          3
    36          1
    37          6
    38         10
    39         69
    40         15
    41         93
    42        187
    43        583
    44        327
    45        223
    46          7
    47         29
    49          3
    50          4
    51          5
    52          4
    53          9
    54         49
    55        142
    56        101
    57        247
    58        135
    59         40
    60        517
    61        999
    62         30
    63          6
    66          1
    67          4
    68         12
    69         72
    70         49
    71        361
    72        232
    73        953
    74         94
    75         13
    76        186
    77          6
    78          1
    79          5
    80          2
    81          6
    82          4
    83         42
    84         24
    85        294
    86         59
    87         20
    88          7
    89         56
    90         19
    91         57
    92          2
    93          1
    94          1
    95          3
    96          6
    97         26
    98         14
    99          5
   100        125
   101         49
   102          9
   103        215
   104         10
   105          3
   107          2
   109          1
   110          1
   111          2
   112         12
   113          8
   114         34
   115          4
   116          3
   117          1
   118         59
   119         55
   120          4
   121          6
   123          1
   124          1
   125          1
   126          1
   129          4
   130          1
   131          2
   132          5
   133          5
   142         31
   143          3
   147         57
   148          4
   149          5
   160        122
   161         11
   162          1
   179          1