##TITLE=Library Entry 73210
##JCAMP-DX=Revision 4.10 
##DATA TYPE=MASS SPECTRUM
##SAMPLE DESCRIPTION=AAFS Toxicology Section MS DB Committee, U. Alberta, Ca
nada
##NAMES=HP
##CAS NAME=Diethylpropion
##MOLFORM=C13H19NO
##CAS REGISTRY NO=90-84-6
##MP= -300
##BP= -300
##MW= 205
##$RETENTION INDEX=1497
##$CONDENSED SPECTRUM=NO
##NPOINTS= 81
##XYDATA=(XY..XY) 1 
    29          9
    30          1
    39          1
    40          1
    41          5
    42         22
    43          2
    44         53
    45          1
    50          3
    51         13
    52          1
    53          1
    54          2
    55          3
    56         17
    57          2
    58          1
    63          1
    65          1
    68          2
    69          1
    70         24
    71          5
    72         85
    73          3
    74          1
    75          1
    76          2
    77         53
    78          5
    79          3
    80          1
    81          1
    82          1
    84          3
    85          1
    87          1
    89          1
    91          8
    92          1
    95          1
    96          1
    97          1
    98         27
    99          2
   100        999
   101         68
   102          2
   103          2
   104          1
   105         27
   106          2
   115          2
   116          1
   117          2
   118          1
   119          1
   128          1
   130          1
   131          3
   132          6
   133          3
   145          1
   146          2
   147          1
   158          1
   160          3
   161          1
   162          1
   174          2
   175          1
   176          1
   186          1
   188          6
   189          1
   190          1
   202          2
   203         11
   204          2
   205          1