##TITLE=Library Entry 45149
##JCAMP-DX=Revision 4.10 
##DATA TYPE=MASS SPECTRUM
##SAMPLE DESCRIPTION=NIST Mass Spectrometry Data Center, 1990.
##NAMES=HP
##CAS NAME=1,1-Dimethoxy-2-phenylpropane
##MOLFORM=C11H16O2
##CAS REGISTRY NO=90-87-9
##MP= -300
##BP= -300
##MW= 180
##$RETENTION INDEX=0
##$CONDENSED SPECTRUM=NO
##NPOINTS= 83
##XYDATA=(XY..XY) 1 
    14          3
    15         32
    16          1
    17          1
    18          0
    26          2
    27         29
    29         39
    30          5
    31         73
    32          3
    33          1
    37          1
    38          5
    39         34
    40          4
    41         11
    42          3
    43         32
    44          3
    45         11
    46          1
    47        219
    48          4
    49          1
    50         20
    51         53
    52         12
    53          7
    55          5
    56          2
    57         14
    58          1
    59          2
    60          0
    61          1
    62          6
    63         19
    64          4
    65         25
    66          2
    67          1
    71          5
    72          2
    75        999
    76         46
    77        101
    78         34
    79         60
    80          3
    86          0
    87          1
    89         12
    90          8
    91         76
    92          6
    93          1
   101          1
   102         11
   103         41
   104         23
   105        150
   106         14
   107          4
   115         41
   116         14
   117         62
   118         10
   119          8
   120          1
   121          4
   129          1
   130          1
   131          4
   132          2
   133         10
   134         13
   135          1
   147          6
   148         42
   149         77
   150          8
   179          1