##TITLE=Library Entry 39230
##JCAMP-DX=Revision 4.10 
##DATA TYPE=MASS SPECTRUM
##SAMPLE DESCRIPTION=NIST Mass Spectrometry Data Center
##NAMES=HP
##CAS NAME=1-Piperazinecarboxamide, N,N-diethyl-4-methyl-
##MOLFORM=C10H21N3O
##CAS REGISTRY NO=90-89-1
##MP= -300
##BP= -300
##MW= 199
##$RETENTION INDEX=0
##$CONDENSED SPECTRUM=NO
##NPOINTS= 78
##XYDATA=(XY..XY) 1 
    15          9
    17          6
    26          4
    27         30
    28         39
    29        121
    30         26
    39          3
    40          2
    41         24
    42        221
    43        148
    44         88
    45          4
    53          2
    54         22
    55         33
    56        290
    57        114
    58        492
    59         20
    63          4
    68          9
    69         12
    70        375
    71        999
    72        572
    73         26
    74          8
    77          3
    80          2
    81          6
    82         70
    83        386
    84        118
    85         40
    86          9
    87          5
    91          2
    95          8
    96          5
    97         65
    98         35
    99        319
   100        698
   101         47
   102          4
   111          5
   112          3
   113         35
   114          6
   115          4
   117         25
   118          3
   125          6
   126         29
   127        260
   128         31
   129        412
   130         29
   131          2
   140          2
   141         40
   142         57
   143         29
   144          2
   153          5
   155          3
   156          6
   157          2
   168          2
   170          5
   184         11
   197         19
   198          6
   199        329
   200         43
   201          2