##TITLE=Library Entry 97316
##JCAMP-DX=Revision 4.10 
##DATA TYPE=MASS SPECTRUM
##SAMPLE DESCRIPTION=Patti Price, Georgia Bureau of Investigation, Decatur,
 Georgia
##NAMES=HP
##CAS NAME=Cinnamedrine
##MOLFORM=C19H23NO
##CAS REGISTRY NO=90-86-8
##MP= -300
##BP= -300
##MW= 281
##$RETENTION INDEX=0
##$CONDENSED SPECTRUM=NO
##NPOINTS= 102
##XYDATA=(XY..XY) 1 
    41         24
    42        140
    43         16
    44         26
    49         18
    50        114
    51        207
    52         59
    53         14
    54         31
    55         28
    56         66
    57         48
    58         27
    61          7
    62         15
    63         46
    64          8
    65         58
    66          6
    67          7
    68          9
    69          5
    70         51
    71         14
    72          5
    73         10
    74         38
    75         23
    76         30
    77        364
    78         82
    79         56
    80          9
    81          7
    82        105
    83          7
    84         47
    85          5
    86          7
    87          8
    88          4
    89         42
    90          9
    91        273
    92         24
    94         15
    95          4
    96         31
   101          4
   102         25
   103         25
   104         63
   105        276
   106        250
   107         31
   108          3
   113          3
   114          4
   115        555
   116        123
   117        999
   118        117
   119          9
   127          7
   128         21
   129         35
   130         33
   131         23
   132         15
   133          8
   141          4
   142          3
   143         19
   144         38
   145         16
   146         16
   147          9
   148         31
   149          4
   156          4
   157          7
   158         82
   159         11
   170          7
   171          3
   172         49
   173        138
   174        236
   175         45
   176         25
   177          3
   178          3
   189          2
   191          4
   193          8
   194          2
   205          2
   207          3
   236          5
   248          3
   263          5