##TITLE=Library Entry 28596
##JCAMP-DX=Revision 4.10 
##DATA TYPE=MASS SPECTRUM
##SAMPLE DESCRIPTION=J. D. HENION, CORNELL UNIVERSITY, ITHACA, NY, USA
##NAMES=HP
##CAS NAME=DL-Ephedrine
##MOLFORM=C10H15NO
##CAS REGISTRY NO=90-81-3
##MP= -300
##BP= -300
##MW= 165
##$RETENTION INDEX=0
##$CONDENSED SPECTRUM=NO
##NPOINTS= 16
##XYDATA=(XY..XY) 1 
    39         22
    41         14
    42         48
    43         34
    44         22
    50         16
    51         41
    52         11
    56         56
    58        999
    59         43
    71         17
    77         73
    78         16
    79         31
   105         19