##TITLE=Library Entry 81578
##JCAMP-DX=Revision 4.10 
##DATA TYPE=MASS SPECTRUM
##SAMPLE DESCRIPTION=Japan AIST/NIMC Database- Spectrum MS-NW-6873
##NAMES=HP
##CAS NAME=Methanone, (4-bromophenyl)phenyl-
##MOLFORM=C13H9BrO
##CAS REGISTRY NO=90-90-4
##MP= -300
##BP= -300
##MW= 260
##$RETENTION INDEX=1841
##$CONDENSED SPECTRUM=NO
##NPOINTS= 102
##XYDATA=(XY..XY) 1 
    26          2
    27          9
    28          5
    36          1
    37          4
    38         11
    39         12
    43          2
    49          5
    50        114
    51        150
    52         10
    53          5
    55          1
    56          1
    61          4
    62          9
    63         15
    64          1
    65          1
    73          7
    74         49
    75        112
    76        168
    77        394
    78         27
    79          2
    80          3
    81          2
    82          3
    85          3
    86          5
    87          5
    88          2
    89          2
    90          2
    91          1
    97          1
    98          4
    99          3
   100          2
   101          4
   102          3
   103          3
   104         25
   105        999
   106         80
   107          5
   109          1
   110          1
   111          1
   113          3
   114          2
   115          2
   116         32
   117         32
   119          1
   122          1
   123          1
   125          3
   126          8
   127          5
   128          2
   129          4
   130          1
   131          4
   137          1
   138          1
   139          1
   149          1
   150          9
   151         19
   152         49
   153         21
   154          3
   155        128
   156         11
   157        127
   158          9
   163          3
   164          2
   165          1
   180          9
   181        149
   182         31
   183        433
   184         35
   185        424
   186         34
   187          2
   232          8
   233          1
   234          8
   235          1
   243          1
   245          1
   259          6
   260        399
   261         64
   262        395
   263         58
   264          6