##TITLE=Library Entry 67702
##JCAMP-DX=Revision 4.10 
##DATA TYPE=MASS SPECTRUM
##SAMPLE DESCRIPTION=V.G.Zaikin, TIPS, Russian Acad. Sci.
##NAMES=HP
##CAS NAME=1-Bromomethyl-2-chlorocyclohexane
##MOLFORM=C7H12BrCl
##CAS REGISTRY NO=90009-23-7
##MP= -300
##BP= -300
##MW= 210
##$RETENTION INDEX=0
##$CONDENSED SPECTRUM=NO
##NPOINTS= 47
##XYDATA=(XY..XY) 1 
    38         13
    39        197
    40         39
    41        246
    42         20
    43          9
    44         24
    45          2
    50         14
    51         45
    52         12
    53        127
    54         43
    55        134
    56          5
    57          3
    61          3
    62         19
    63         10
    64          8
    65         37
    66         16
    67        154
    68         74
    69         46
    75         36
    76          4
    77         49
    78         10
    79         63
    80          8
    81        130
    82          6
    88         11
    89         14
    91         17
    93         17
    94         31
    95        999
    96         74
   130          9
   132          3
   210         19
   211          1
   212         25
   213          2
   214          6