##TITLE=Library Entry 68288
##JCAMP-DX=Revision 4.10 
##DATA TYPE=MASS SPECTRUM
##SAMPLE DESCRIPTION=Chemical Concepts
##NAMES=HP
##CAS NAME=Cyclohexylidenemethanesulfonylbenzene
##MOLFORM=C13H16O2S
##CAS REGISTRY NO=90020-44-3
##MP= -300
##BP= -300
##MW= 236
##$RETENTION INDEX=0
##$CONDENSED SPECTRUM=NO
##NPOINTS= 137
##XYDATA=(XY..XY) 1 
    37          1
    38          6
    39        190
    40         38
    41        339
    42         18
    43         27
    44          2
    45         16
    47          6
    48          4
    49          1
    50         30
    51        162
    52         38
    53        155
    54         27
    55        245
    56         11
    57          4
    58          1
    59          1
    61          1
    62          1
    63         12
    64          8
    65         91
    66         58
    67        407
    68         32
    69         12
    70          1
    71          3
    73          6
    74          4
    75          8
    76          9
    77        341
    78         98
    79        381
    80         49
    81         26
    82          3
    83          6
    84          2
    85          2
    86          1
    87          0
    89          5
    90          1
    91        105
    92         13
    93        106
    94        621
    95        999
    96         74
    97         21
    98          1
    99         17
   100          1
   102          1
   103          2
   104          4
   105          6
   106          0
   107          1
   108          1
   109          6
   110          4
   111          3
   112          5
   113          3
   115         12
   116          3
   117          8
   118          1
   119          2
   120          4
   121          3
   122          3
   123          2
   125         43
   126         15
   127          6
   128         14
   129         28
   130          5
   131          2
   133          3
   134          0
   135          4
   138          1
   139          4
   140          1
   141         39
   142         40
   143         65
   144          5
   145          3
   147          2
   149          0
   152          0
   153          0
   154          0
   155          3
   156          0
   157          0
   163          0
   164          5
   165          1
   166          5
   167          6
   168          7
   169         86
   170         94
   171         15
   172          1
   173          2
   175          0
   177         31
   178          1
   179         29
   180          1
   191          0
   199          2
   201         34
   202          4
   203          2
   214          1
   219         28
   220          2
   221         18
   222          1
   235          1
   236         67
   237         10
   238          3