##TITLE=Library Entry 109685
##JCAMP-DX=Revision 4.10 
##DATA TYPE=MASS SPECTRUM
##SAMPLE DESCRIPTION=K. TAKAGI, DEP. APPL. CHEM., NAGOYA UNIV., NAGOYA, JAPA
N
##NAMES=HP
##CAS NAME=3-Bromo-1,2-dichloro-1-phenylpropane
##MOLFORM=C9H9BrCl2
##CAS REGISTRY NO=90035-62-4
##MP= -300
##BP= -300
##MW= 266
##$RETENTION INDEX=0
##$CONDENSED SPECTRUM=NO
##NPOINTS= 46
##XYDATA=(XY..XY) 1 
    62          0
    63          0
    64          0
    65          0
    80          0
    82          0
    89          0
    91         10
   115         20
   116         20
   117         20
   118          5
   125        999
   126         30
   127        340
   128         20
   150          0
   151          7
   152          4
   153          4
   154          1
   155          0
   169          0
   171          0
   197          0
   199          0
   204         10
   205          0
   206         10
   207          0
   208          4
   209          0
   231          6
   232          0
   234          0
   235          0
   236          0
   238          8
   266         30
   267          0
   268         50
   269          0
   270         20
   271          0
   272          4
   273          0