##TITLE=Library Entry 82367
##JCAMP-DX=Revision 4.10 
##DATA TYPE=MASS SPECTRUM
##SAMPLE DESCRIPTION=Div. of Experiment Therapeutics WRAIR, WRAMC, Washingto
n DC 20307
##NAMES=HP
##CAS NAME=Isonicotinyl formaldoxime
##MOLFORM=C7H6N2O2
##CAS REGISTRY NO=90036-10-5
##MP= -300
##BP= -300
##MW= 150
##$RETENTION INDEX=0
##$CONDENSED SPECTRUM=NO
##NPOINTS= 50
##XYDATA=(XY..XY) 1 
    41         12
    42          1
    43         34
    44        132
    45         14
    48          1
    50        416
    51        949
    52        103
    53         31
    54         10
    55          4
    57          0
    60          2
    61         13
    62         23
    63         39
    64         11
    65          7
    66          4
    67          5
    68          1
    71          2
    72         12
    74          8
    75         30
    76         29
    78        616
    79         40
    80          2
    84          1
    86          0
    87          0
    88          0
    91          1
    92          2
    94          8
    95         11
   105         42
   106        999
   122         12
   123         80
   124          8
   132          4
   133         38
   134          5
   149          2
   150        249
   151         49
   152          6