##TITLE=Library Entry 90040
##JCAMP-DX=Revision 4.10 
##DATA TYPE=MASS SPECTRUM
##SAMPLE DESCRIPTION=A.A.Kutin, Moscow, Russia
##NAMES=HP
##CAS NAME=Propan-1-one, 1-(2,5-dimethyl-4-propionylpiperazin-1-yl)-
##MOLFORM=C12H22N2O2
##CAS REGISTRY NO=90043-72-4
##MP= -300
##BP= -300
##MW= 226
##$RETENTION INDEX=0
##$CONDENSED SPECTRUM=NO
##NPOINTS= 92
##XYDATA=(XY..XY) 1 
    41        288
    42        231
    43         54
    44        164
    45          6
    46          0
    50          0
    51          1
    52          4
    54         67
    55        142
    56        484
    57        884
    58        714
    59         32
    64          0
    65          1
    67         20
    68        102
    69         63
    70        356
    71        135
    72         62
    73          4
    74          2
    77          0
    78          0
    79          1
    80          4
    82         77
    83        209
    84        762
    85         90
    86         25
    87          6
    88          9
    89          0
    94          3
    96         42
    97        175
    98         87
    99        136
   100         55
   101         20
   102          3
   107          0
   108          0
   109          2
   111         19
   113        999
   114        486
   115         42
   116          2
   122          0
   123          0
   124          2
   125          6
   126         23
   127         54
   128         24
   129          3
   130          0
   137          6
   139         18
   140         50
   141         99
   142         10
   143          1
   144          2
   152         22
   153         38
   155        162
   156         16
   157          2
   158          0
   169        203
   170         29
   171          5
   172          0
   183          0
   184          0
   185          0
   197        170
   198         21
   199          2
   211         38
   212          4
   213          0
   226        157
   227         29
   228          3
   229          0