##TITLE=Library Entry 16217
##JCAMP-DX=Revision 4.10 
##DATA TYPE=MASS SPECTRUM
##SAMPLE DESCRIPTION=NIST Mass Spectrometry Data Center, 1998.
##NAMES=HP
##CAS NAME=Alaptide
##MOLFORM=C9H14N2O2
##CAS REGISTRY NO=90058-29-0
##MP= -300
##BP= -300
##MW= 182
##$RETENTION INDEX=0
##$CONDENSED SPECTRUM=NO
##NPOINTS= 37
##XYDATA=(XY..XY) 1 
    14          9
    15          6
    26         13
    38         15
    39        115
    43         48
    44        999
    45         20
    51         11
    52         32
    53         55
    54        251
    55        108
    56        118
    57         71
    66         29
    67        127
    68         69
    72          7
    82        128
    83        148
    84        510
    85         54
    95         34
    97        102
    98          3
   108         57
   112         90
   113         77
   123         14
   125         22
   126         21
   139        831
   140         72
   153         19
   154         22
   182        180