##TITLE=Library Entry 90316
##JCAMP-DX=Revision 4.10 
##DATA TYPE=MASS SPECTRUM
##SAMPLE DESCRIPTION=Japan AIST/NIMC Database- Spectrum MS-IW-5209
##NAMES=HP
##CAS NAME=1,3-Dibromo-5-isobutyl-5-methyl-2,4-imidazolidinedione
##MOLFORM=C8H12Br2N2O2
##CAS REGISTRY NO=90085-79-3
##MP= -300
##BP= -300
##MW= 326
##$RETENTION INDEX=0
##$CONDENSED SPECTRUM=NO
##NPOINTS= 119
##XYDATA=(XY..XY) 1 
    15         11
    26          3
    27         41
    28         27
    29         59
    30          3
    37          1
    38          4
    39         51
    40         19
    41        174
    42        298
    43        120
    44         16
    45          1
    50          2
    51          4
    52          4
    53          9
    54          9
    55         42
    56         37
    57        182
    58         11
    59          1
    61          1
    63          1
    64          1
    65          4
    66          3
    67         17
    68         10
    69         15
    70         93
    71         13
    72          1
    77          2
    78          1
    79         11
    80         14
    81         10
    82         19
    83         27
    84         40
    85          9
    86          3
    87          1
    91          2
    92          4
    93          2
    94          5
    95          4
    96         21
    97         22
    98         25
    99          6
   100         17
   101          1
   106          4
   107          5
   108          3
   109          3
   110         28
   111          7
   112         42
   113        999
   114        525
   115         31
   116          2
   119          1
   120         30
   121          3
   122         29
   123          2
   124          1
   125          7
   126         68
   127         20
   128          2
   135          4
   137          3
   139          1
   140         12
   141          2
   148         50
   149          3
   150         46
   151          2
   153         12
   154          1
   155         16
   156          1
   158        101
   160        198
   162         95
   163          1
   164          3
   165          1
   167          1
   168         14
   169          9
   170          5
   171          3
   190          4
   191        171
   192         16
   193        169
   194         12
   195          1
   233          2
   235          2
   247          2
   248          2
   249          3
   250          2
   269          7
   271         14
   272          1
   273          7