##TITLE=Library Entry 17831
##JCAMP-DX=Revision 4.10 
##DATA TYPE=MASS SPECTRUM
##SAMPLE DESCRIPTION=LAC, NIDDK, NIH, Bethesda, MD 20892
##NAMES=HP
##CAS NAME=Pregn-5-ene-3,20-diol, (3.beta.,20R)-
##MOLFORM=C21H34O2
##CAS REGISTRY NO=901-57-5
##MP= -300
##BP= -300
##MW= 318
##$RETENTION INDEX=0
##$CONDENSED SPECTRUM=NO
##NPOINTS= 191
##XYDATA=(XY..XY) 1 
    41        327
    43        440
    45        999
    46         13
    47          5
    49         31
    51         21
    52          3
    53        115
    55        323
    57        140
    58         10
    61          4
    65         52
    66          9
    67        273
    68         27
    69        111
    71         83
    73          5
    77        176
    78         31
    79        418
    80         19
    81        360
    82         11
    83         69
    84         19
    85         41
    86         14
    91        383
    92         70
    93        265
    94         84
    95        311
    96         36
    97         52
   100          4
   103         38
   104          8
   105        463
   106        105
   107        432
   108        108
   109        144
   110         14
   111         24
   112         12
   115         61
   116         27
   117        135
   118         55
   119        242
   120        164
   121        179
   122         48
   123         76
   124         59
   125         54
   127         11
   128         41
   129         79
   130         40
   131        179
   132         58
   133        252
   134         84
   135        280
   136         13
   137         48
   138         25
   139          4
   141         30
   142         16
   143        157
   144         53
   145        258
   146         57
   147        180
   148         56
   149        113
   150         21
   151         27
   152          4
   153          3
   155         22
   156         10
   157         89
   158         59
   159        231
   160        115
   161        252
   162        100
   163        248
   164         34
   165         26
   167          8
   169         35
   170         12
   171         84
   172         37
   173        103
   174         52
   175         75
   176         29
   177         30
   178         58
   179         42
   183         29
   184          3
   185         74
   186         25
   187         68
   188         39
   189        418
   190         65
   191         19
   192         24
   193         16
   194         14
   197         41
   198          8
   199         70
   200         21
   201         36
   202         15
   203         16
   205         14
   206        102
   207        125
   208         17
   211         44
   212         11
   213        103
   214         57
   215        147
   216         27
   217         37
   218         17
   219          8
   220          4
   225         32
   226         13
   227         39
   228         21
   229         27
   230         15
   231         47
   232         47
   233        320
   234         54
   239         21
   240         16
   241        247
   242         56
   243         36
   244          8
   245         31
   246         21
   253         30
   255         71
   256         39
   257         33
   258         77
   259        154
   260         43
   261         18
   267        224
   268         47
   271         43
   272         26
   273         58
   274         49
   275         22
   282         40
   283         64
   284          6
   285        190
   286         39
   299         16
   300        430
   301        155
   302         16
   303        166
   304         34
   315          4
   316         21
   317         28
   318        804
   319        192
   320         26