##TITLE=Library Entry 10637
##JCAMP-DX=Revision 4.10 
##DATA TYPE=MASS SPECTRUM
##SAMPLE DESCRIPTION=Chemical Concepts
##NAMES=HP
##CAS NAME=Cyclobutene-3,4-diol, tetramethyl-
##MOLFORM=C8H14O2
##CAS REGISTRY NO=90112-64-4
##MP= -300
##BP= -300
##MW= 142
##$RETENTION INDEX=0
##$CONDENSED SPECTRUM=NO
##NPOINTS= 90
##XYDATA=(XY..XY) 1 
    25          0
    26          8
    27         99
    28         15
    29         40
    30          1
    31         10
    35          0
    37          1
    38          5
    39         71
    40         10
    41         82
    42         13
    43        999
    44         24
    45         39
    46          1
    47          0
    48          0
    49          1
    50          9
    51         22
    52          8
    53         61
    54         10
    55         78
    56          6
    57          7
    58          2
    59         10
    60          0
    61          2
    62          1
    63          6
    64          1
    65         14
    66          7
    67         40
    68          3
    69         11
    70          2
    71          5
    72          1
    73          3
    74          1
    75          0
    76          0
    77         14
    78          4
    79         43
    80          5
    81        116
    82          8
    83         18
    84          1
    85          6
    86          0
    87          2
    88         17
    89          1
    90          0
    91          5
    92          1
    93          2
    94          1
    95          3
    96          0
    97          1
    98          1
    99        447
   100         31
   101          1
   103          0
   105          1
   106          0
   107          4
   108          2
   109         30
   110          3
   111          1
   112          0
   122          0
   123         17
   124          7
   125         12
   126          2
   127          2
   128          0
   142          1