##TITLE=Library Entry 49690
##JCAMP-DX=Revision 4.10 
##DATA TYPE=MASS SPECTRUM
##SAMPLE DESCRIPTION=A.A.Kutin, Moscow, Russia
##NAMES=HP
##CAS NAME=Isoindole-1,3(2H)-dione-4,7-ethano-3a,4,7,7a-tetrahydro-2-phenyl-
##MOLFORM=C16H15NO2
##CAS REGISTRY NO=90130-14-6
##MP= -300
##BP= -300
##MW= 253
##$RETENTION INDEX=0
##$CONDENSED SPECTRUM=NO
##NPOINTS= 187
##XYDATA=(XY..XY) 1 
    33          1
    34          4
    35          0
    36          1
    37          4
    38         20
    39        114
    40         93
    41         44
    42          5
    43         13
    44         23
    45          2
    46          0
    47          0
    48          0
    50         31
    51        101
    52         75
    53         36
    54         59
    55         24
    56          5
    57          7
    58          1
    59          2
    60          2
    61          1
    62          7
    63         45
    64         65
    65         68
    66         16
    67          9
    68          4
    69          5
    70          9
    71          4
    72          1
    73          3
    74          5
    75          6
    76         16
    77        226
    78        530
    79        301
    80        999
    81         64
    82          9
    83          4
    84          4
    85          2
    86          0
    87          1
    88          1
    89          9
    90         18
    91        193
    92         29
    93         30
    94          7
    95          3
    96          1
    97          2
    98          2
    99          3
   100          0
   101          1
   102          5
   103         44
   104         26
   105         59
   106         51
   107          6
   108          0
   109          0
   110          0
   111          1
   113          9
   114          0
   115          5
   116          6
   117         25
   119        530
   120         48
   121          4
   122          0
   123          0
   124          0
   125          0
   126          0
   127          1
   128          9
   129         34
   130          9
   131          6
   132          6
   133          9
   134          3
   135          1
   136          0
   137          0
   139          0
   140          0
   141          0
   142          0
   143          1
   144          6
   145          9
   146         17
   147         12
   148          1
   149          5
   150          1
   151          0
   152          0
   153          0
   154          1
   155          0
   156          1
   157          0
   158          0
   159          3
   160          1
   161          0
   162          0
   163          0
   165          0
   166          0
   167          2
   168          1
   169          1
   170          1
   171          1
   172         10
   173         99
   174         96
   175        103
   176         11
   177          1
   178          0
   179          0
   180          1
   181          0
   182          2
   183          0
   184          0
   185          0
   187          1
   188          0
   191          0
   192          0
   193          0
   194          0
   195          0
   196          2
   197          1
   198          0
   199          0
   204          0
   206          0
   207          0
   208          1
   209          0
   210          0
   211          0
   212          1
   213          0
   222          0
   223          0
   224          3
   225         10
   226          1
   233          0
   234          0
   238          0
   239          0
   242          0
   247          0
   248          0
   250          0
   252         15
   253        708
   254        137
   255         15
   256          1
   257          0