##TITLE=Library Entry 23307
##JCAMP-DX=Revision 4.10 
##DATA TYPE=MASS SPECTRUM
##SAMPLE DESCRIPTION=Japan AIST/NIMC Database- Spectrum MS-IW-4898
##NAMES=HP
##CAS NAME=Bis(1,2-bis(butylthio)-1,2-ethylenedithiolato)nickel(iv)
##MOLFORM=C20H36NiS8
##CAS REGISTRY NO=90157-73-6
##MP= -300
##BP= -300
##MW= 590
##$RETENTION INDEX=0
##$CONDENSED SPECTRUM=NO
##NPOINTS= 301
##XYDATA=(XY..XY) 1 
    15          3
    26          9
    27        127
    28         40
    29        486
    30         10
    32          7
    33          3
    34          7
    35          7
    37          2
    38          5
    39         87
    40          9
    41        520
    42         24
    43         26
    44         13
    45        101
    46         28
    47         80
    48          6
    49          5
    50          5
    51          6
    52          2
    53         23
    54         12
    55        156
    56        132
    57        999
    58         77
    59         40
    60         26
    61         54
    62          3
    63          3
    64         24
    65          3
    66         11
    67          9
    68          1
    69         14
    70          3
    71         13
    72          3
    73         13
    74          2
    75          5
    76         83
    77         35
    78         17
    79         39
    80          2
    81          4
    82          1
    83          1
    84          4
    85         14
    86          4
    87         65
    88        100
    89        145
    90        123
    91         16
    92         20
    93          7
    94          2
    95          1
    96          1
    97          9
    98          6
    99         14
   100          4
   101        110
   102          8
   103         37
   104          4
   105          9
   106          1
   107          1
   108          1
   109          2
   110          2
   111          9
   112          7
   113         45
   114          9
   115          9
   116          4
   117         24
   118          7
   119          6
   120          8
   121         24
   122        224
   123         15
   124         21
   125          2
   126          1
   127          2
   129          6
   130          1
   131          9
   132          1
   133        106
   134          9
   135         23
   136          3
   137          3
   138          1
   140          2
   141         32
   142          4
   143         10
   144          7
   145         31
   146        103
   147         18
   148         17
   149          8
   150          2
   151          1
   152          1
   153          5
   154         11
   155          2
   156          2
   157          2
   158          1
   159          6
   160          2
   161          3
   162          1
   163          2
   165          1
   166          2
   167         16
   168          2
   169          3
   170          1
   171          1
   172          1
   173          8
   174          9
   175          5
   176         10
   177         21
   178        226
   179         27
   180         22
   181          4
   182          1
   185          1
   187          7
   189          2
   190          1
   191         50
   192          6
   193          7
   194          1
   195          1
   197          3
   198          1
   199          1
   200          2
   201          4
   202        156
   203         22
   204         17
   205          4
   206          2
   207          1
   208          1
   209         11
   210         89
   211         12
   212         12
   213          2
   214          1
   215          1
   217          1
   222          1
   223         26
   224          5
   225          5
   226          1
   230          5
   231          2
   232          4
   233          3
   234         27
   235         17
   236         13
   237          5
   238          3
   239          1
   241          1
   242          2
   243          1
   244          1
   247          1
   249          1
   254          1
   256          1
   257          1
   258          4
   259          1
   260          3
   261          1
   264          1
   265          6
   266        330
   267         54
   268         62
   269          9
   270          5
   271          1
   276          1
   279          4
   280          1
   281          1
   288          2
   289          1
   290          3
   291         12
   292          9
   293          4
   294          2
   295          1
   297          1
   298          1
   299          3
   300          1
   301          1
   310          4
   311          1
   312          1
   319          1
   320          2
   321          2
   322         11
   323         60
   324         24
   325         14
   326          4
   327          1
   332          2
   333          1
   334          1
   335          1
   346          1
   347          1
   348          7
   349          1
   350          1
   355         16
   356          4
   357          6
   358          1
   359          1
   368          1
   369          1
   378          2
   379          5
   380         33
   381          8
   382          7
   383          1
   384          1
   388          4
   389          2
   390          3
   391          2
   392          1
   404          1
   411         52
   412         20
   413         16
   414          6
   415          2
   416          1
   436          4
   437          1
   443          2
   445          3
   446          1
   447          1
   457          2
   459          1
   466          1
   467          1
   468         12
   469          4
   470          4
   471          1
   500          6
   501          2
   502          4
   503          1
   504          1