##TITLE=Library Entry 12176
##JCAMP-DX=Revision 4.10 
##DATA TYPE=MASS SPECTRUM
##SAMPLE DESCRIPTION=Chemical Concepts
##NAMES=HP
##CAS NAME=Undeca-3,4-diene-2,10-dione, 5,6,6-trimethyl-
##MOLFORM=C14H22O2
##CAS REGISTRY NO=90165-10-9
##MP= -300
##BP= -300
##MW= 222
##$RETENTION INDEX=0
##$CONDENSED SPECTRUM=NO
##NPOINTS= 115
##XYDATA=(XY..XY) 1 
    26          2
    27         31
    28         11
    29         27
    39         44
    40          9
    41        123
    42          9
    43        999
    44         22
    45          8
    50          4
    51         18
    52         10
    53         39
    54          5
    55         68
    56         13
    57         21
    58         11
    59          6
    63          5
    65         22
    66          7
    67         56
    68          9
    69        175
    70         12
    71         46
    72          3
    73         13
    75          3
    77         51
    78         10
    79         49
    80          9
    81         39
    82         12
    83         24
    84          6
    85         42
    86          3
    91         49
    92          7
    93         55
    94         17
    95        115
    96         87
    97         27
    98         11
    99          4
   103          5
   104          2
   105         32
   106         17
   107         64
   108         13
   109        154
   110         27
   111         43
   112         15
   113          4
   115          3
   117          3
   119         18
   120          7
   121        120
   122         24
   123        162
   124         22
   125         12
   126          5
   127          8
   128          2
   129          2
   131          7
   133          7
   134          3
   135         16
   136         10
   137        205
   138         29
   139         43
   140          5
   145          3
   146          7
   147         28
   148          6
   149         66
   150          8
   151         27
   152          7
   153          7
   154          2
   159          2
   161         25
   162          6
   163          4
   164         37
   165         44
   166          8
   175          2
   179         53
   180         20
   181          2
   183          2
   185          3
   189         14
   190          4
   204          7
   205          2
   207         47
   208          7
   222         23
   223          4