##TITLE=Library Entry 11171
##JCAMP-DX=Revision 4.10 
##DATA TYPE=MASS SPECTRUM
##SAMPLE DESCRIPTION=Chemical Concepts
##NAMES=HP
##CAS NAME=Acetic acid, 2-(2,2,6-trimethyl-7-oxa-bicyclo[4.1.0]hept-1-yl)-pr
openyl ester
##MOLFORM=C14H22O3
##CAS REGISTRY NO=90165-14-3
##MP= -300
##BP= -300
##MW= 238
##$RETENTION INDEX=0
##$CONDENSED SPECTRUM=NO
##NPOINTS= 169
##XYDATA=(XY..XY) 1 
    26          2
    27         42
    28          8
    29         66
    30          2
    31          7
    36          1
    37          1
    38          3
    39         58
    40         11
    41        206
    42         18
    43        999
    44         23
    45         12
    47          1
    50          6
    51         13
    52          6
    53         59
    54         11
    55        160
    56         19
    57         30
    58         18
    59         12
    60          1
    61          4
    62          0
    63          4
    64          1
    65         22
    66          9
    67         85
    68         16
    69        123
    70         22
    71        104
    72         10
    73          2
    74          4
    75         21
    76          4
    77         45
    78          8
    79         65
    80         16
    81        114
    82         28
    83         62
    84         17
    85        166
    86         12
    87         10
    88          2
    90          2
    91         50
    92          9
    93         94
    94         31
    95        164
    96         37
    97         76
    98         21
    99         30
   100         10
   101          3
   102          1
   103         13
   104          3
   105         53
   106         15
   107         87
   108        199
   109        400
   110         96
   111        731
   112        142
   113         17
   114         23
   115          8
   116          8
   117          5
   118         31
   119         34
   120        105
   121        118
   122        147
   123        563
   124         62
   125        206
   126         73
   127         87
   128         11
   129          4
   130          3
   131          4
   132          1
   133         11
   134          8
   135        179
   136         46
   137        117
   138        118
   139         77
   140         28
   141         24
   142          4
   143          2
   144          9
   145         15
   146          2
   147          6
   148          2
   149         30
   150         37
   151         20
   152          6
   153         72
   154         14
   155          4
   156          3
   157         15
   158          3
   159          7
   160          3
   161          6
   162          2
   163         80
   164         10
   165          8
   166          7
   167         21
   168         79
   169         10
   170         27
   171          3
   172          8
   174          2
   175          1
   176          2
   177         13
   178         48
   179         28
   180          8
   181         61
   182         10
   183          2
   185          1
   186          2
   187          4
   188          1
   189          1
   191         28
   192          4
   193          1
   194          2
   195         30
   196        164
   197         25
   198          3
   199          1
   210          4
   211          0
   220          2
   221          1
   238         27
   239          4