##TITLE=Library Entry 9463
##JCAMP-DX=Revision 4.10 
##DATA TYPE=MASS SPECTRUM
##SAMPLE DESCRIPTION=Chemical Concepts
##NAMES=HP
##CAS NAME=1-(7-Hydroxy-1,6,6-trimethyl-10-oxatricyclo[5.2.1.0(2,4)]dec-9-yl
)ethanone
##MOLFORM=C14H22O3
##CAS REGISTRY NO=90165-01-8
##MP= -300
##BP= -300
##MW= 238
##$RETENTION INDEX=0
##$CONDENSED SPECTRUM=NO
##NPOINTS= 137
##XYDATA=(XY..XY) 1 
    26          3
    27         41
    28          6
    29         32
    31          4
    38          2
    39         50
    40          9
    41        186
    42         24
    43        999
    44         21
    45         16
    50          3
    51         10
    52          5
    53         64
    54         15
    55        112
    56         14
    57         36
    58          5
    59         80
    60          2
    61          1
    62          1
    63          2
    64          1
    65         15
    66          5
    67         52
    68         10
    69        136
    70         55
    71        161
    72          7
    73          1
    76          1
    77         29
    78          5
    79         54
    80         13
    81        212
    82        116
    83         62
    84         40
    85         25
    86          1
    89          1
    91         26
    92          7
    93         92
    94         39
    95         84
    96         33
    97         74
    98         15
    99        182
   100          7
   101          3
   103          1
   104          1
   105         13
   106          2
   107         41
   108          7
   109         45
   110         29
   111         15
   112          3
   113          5
   115          3
   116          1
   117          2
   118          1
   119         11
   120          2
   121         25
   122         17
   123         44
   124         14
   125         21
   126          4
   127          4
   128          1
   129          3
   131          1
   132          1
   133          4
   134          1
   135         25
   136          5
   137          5
   138          8
   139         14
   140          7
   141         11
   142         27
   143          3
   145          3
   147          1
   149         15
   150          6
   151          5
   152          5
   153          3
   154          3
   155          9
   156          3
   157          2
   159          2
   160          1
   161          1
   162          2
   163          3
   164          2
   165          2
   166          1
   167          6
   168          2
   169          1
   177         10
   178          3
   179          3
   180          2
   181          2
   193          1
   194          1
   195         17
   196          2
   205          3
   220         12
   221          2
   222          1
   223          1
   238         10
   239          1