##TITLE=Library Entry 10640
##JCAMP-DX=Revision 4.10 
##DATA TYPE=MASS SPECTRUM
##SAMPLE DESCRIPTION=Chemical Concepts
##NAMES=HP
##CAS NAME=7-(2-Acetylcyclopropyl)-6,6-dimethylheptane-2,5-dione
##MOLFORM=C14H22O3
##CAS REGISTRY NO=90174-71-3
##MP= -300
##BP= -300
##MW= 238
##$RETENTION INDEX=0
##$CONDENSED SPECTRUM=NO
##NPOINTS= 125
##XYDATA=(XY..XY) 1 
    26          6
    27         62
    28          8
    29         45
    30          1
    31          5
    35          6
    37          2
    38          3
    39         61
    40         11
    41        127
    42         16
    43        999
    44         23
    45         14
    47         13
    49          9
    50          4
    51         11
    52          6
    53         46
    54         11
    55         70
    56          9
    57         24
    58          6
    59        102
    60          3
    61          1
    62          2
    63          2
    65         14
    66          5
    67         47
    68          8
    69         29
    70         20
    71        149
    72          9
    73          1
    76          2
    77         22
    78          8
    79         35
    80          8
    81        182
    82         70
    83         49
    84         47
    85         10
    86         30
    88          4
    91         17
    92          2
    93         36
    94          5
    95         73
    96         17
    97         69
    98          8
    99        616
   100         34
   101          6
   103          1
   104          1
   105         12
   106          2
   107         13
   108          3
   109         21
   110          4
   111          4
   113          2
   115          2
   117          2
   119         16
   120          2
   121         44
   122         11
   123         38
   124         15
   125         15
   126          2
   127          1
   128          1
   129          1
   131          1
   133          1
   135          9
   136          2
   137          3
   138          5
   139         58
   140         11
   141          4
   142         62
   143          7
   144          1
   145          2
   147          2
   157          1
   159          2
   162          4
   163          3
   164          2
   165          3
   167          2
   168          6
   169          1
   170          1
   177         22
   178          3
   179          1
   180          3
   184          1
   185          1
   195         28
   196          3
   202          1
   205          4
   220          9
   221          1
   238          5
   239          1