##TITLE=Library Entry 89698
##JCAMP-DX=Revision 4.10 
##DATA TYPE=MASS SPECTRUM
##SAMPLE DESCRIPTION=A.A.Kutin, Moscow, Russia
##NAMES=HP
##CAS NAME=Cyclopropane-1,2-dicarboxylic acid, 1-methyl-, dimethyl ester
##MOLFORM=C8H12O4
##CAS REGISTRY NO=90200-11-6
##MP= -300
##BP= -300
##MW= 172
##$RETENTION INDEX=0
##$CONDENSED SPECTRUM=NO
##NPOINTS= 88
##XYDATA=(XY..XY) 1 
    37          0
    39         53
    40          6
    41         51
    42          9
    43         29
    44          2
    45         29
    46          1
    47          0
    50          8
    51         16
    52         16
    53        138
    54         56
    55        136
    56         14
    57         13
    59        164
    60          3
    61          1
    63          0
    65          1
    66          2
    67         11
    68          7
    69         41
    70          7
    71         36
    72          3
    73          2
    74          3
    75          6
    76          0
    77          0
    78          0
    79          5
    81        258
    82        128
    83         42
    84          9
    85        118
    86         12
    87         15
    88          1
    89          2
    91          0
    93          0
    94          1
    95          3
    97        191
    98         14
    99         14
   100          2
   101         10
   102          0
   107          1
   108          3
   109         11
   110          0
   112        999
   113        291
   114         21
   115          4
   117         40
   118          2
   119          0
   125          4
   127          9
   128          3
   129          4
   130          0
   131          0
   137          1
   140        750
   141        572
   142         45
   143          6
   144          3
   145          0
   155          0
   157          4
   158          0
   161          0
   165          0
   171          4
   172          5
   173          0