##TITLE=Library Entry 11376
##JCAMP-DX=Revision 4.10 
##DATA TYPE=MASS SPECTRUM
##SAMPLE DESCRIPTION=Institute of Organic Chemistry, Novosibirsk, USSR 1988
##NAMES=HP
##CAS NAME=Acetyl 2,3,5,6,7-penta-O-acetyl-D-glycero-D-glucoheptofuranoside
##MOLFORM=C19H26O13
##CAS REGISTRY NO=90213-26-6
##MP= -300
##BP= -300
##MW= 462
##$RETENTION INDEX=0
##$CONDENSED SPECTRUM=NO
##NPOINTS= 88
##XYDATA=(XY..XY) 1 
    41         69
    42         79
    43        999
    44        189
    45         82
    55         79
    57         59
    59         99
    60         74
    61         59
    69         69
    71         49
    73        199
    81         99
    82         41
    83         32
    84         60
    85        279
    86        113
    96         40
    97        219
    98         79
   101         99
   102         89
   103        399
   109        109
   110        249
   111        139
   113        109
   114         49
   115        999
   116        229
   125        159
   126        129
   127        169
   128        149
   138        449
   139        439
   143        549
   144         89
   145        239
   152        119
   153         79
   155         99
   156         69
   157        319
   158        229
   159         69
   167        109
   169         99
   170        119
   175        119
   180         99
   181        259
   185         79
   187         79
   197         49
   198        159
   199         89
   203        149
   211         29
   212         29
   213         19
   215         69
   217        309
   223         39
   227         39
   229         42
   240        279
   241         99
   245        379
   246         39
   258         15
   259         12
   282        109
   283         14
   287         49
   289         16
   300        109
   301         95
   317         24
   329         23
   330          6
   331          7
   332         13
   342         26
   359         12
   403        149