##TITLE=Library Entry 55835
##JCAMP-DX=Revision 4.10 
##DATA TYPE=MASS SPECTRUM
##SAMPLE DESCRIPTION=Japan AIST/NIMC Database- Spectrum MS-IW-5503
##NAMES=HP
##CAS NAME=Dibutylsulfamic acid
##MOLFORM=C8H19NO3S
##CAS REGISTRY NO=90225-81-3
##MP= -300
##BP= -300
##MW= 209
##$RETENTION INDEX=0
##$CONDENSED SPECTRUM=NO
##NPOINTS= 69
##XYDATA=(XY..XY) 1 
    15          4
    16          1
    17         41
    18          2
    26          3
    27         38
    28         49
    29        113
    30        326
    31          6
    32          5
    38          1
    39         26
    40          4
    41        122
    42         40
    43         34
    44        357
    45          9
    48         38
    50          2
    51          2
    52          1
    53          7
    54          6
    55         32
    56         81
    57        151
    58         10
    64         79
    65          1
    66          3
    67          2
    68          5
    69          3
    70         24
    71          3
    72         22
    73          3
    80         94
    81          2
    82          6
    83          1
    84         66
    85          6
    86        999
    87         65
    88          1
    91          1
    95          1
    96          1
    97          1
    98          5
    99         10
   100          6
   110          9
   111          1
   112          9
   113          1
   114          1
   124          9
   125          1
   126          2
   127          1
   128         19
   129        114
   130         11
   154         11
   166          6