##TITLE=Library Entry 78310
##JCAMP-DX=Revision 4.10 
##DATA TYPE=MASS SPECTRUM
##SAMPLE DESCRIPTION=Japan AIST/NIMC Database- Spectrum MS-IW-6459
##NAMES=HP
##CAS NAME=1-Benzoyl-2-trichloroacetylhydrazine
##MOLFORM=C9H7Cl3N2O2
##CAS REGISTRY NO=90273-66-8
##MP= -300
##BP= -300
##MW= 280
##$RETENTION INDEX=0
##$CONDENSED SPECTRUM=NO
##NPOINTS= 85
##XYDATA=(XY..XY) 1 
    26          1
    27          4
    28         47
    29          1
    35         12
    36        122
    37          5
    38         40
    39          7
    41          1
    42          1
    43          3
    44          8
    47          3
    48          2
    49          3
    50         24
    51         66
    52          6
    53          1
    61          2
    62          3
    63          7
    64          2
    65          2
    73          2
    74          8
    75          7
    76         19
    77        298
    78         45
    79          3
    82          3
    83          5
    84          2
    85          4
    86          1
    87          1
    89          6
    90          3
    91          3
    99          1
   102          2
   103         23
   104          5
   105        999
   106         80
   107          4
   110          7
   112          4
   117          2
   118          3
   119          2
   121          2
   122          5
   125          5
   127          2
   136          1
   140          1
   145          7
   146          2
   147          2
   154          2
   162          8
   163         12
   164          1
   165          1
   174          1
   188          7
   190          4
   193          2
   194          1
   195          1
   208          5
   210          2
   222          2
   223          1
   228          1
   230          1
   240          2
   280         22
   281          2
   282         21
   283          2
   284          7