##TITLE=Library Entry 99560
##JCAMP-DX=Revision 4.10 
##DATA TYPE=MASS SPECTRUM
##SAMPLE DESCRIPTION=Asinex Ltd, Moscow, Russia
##NAMES=HP
##CAS NAME=N-(2,2-Dichloro-1-hydroxy-ethyl)-4-methyl-benzamide
##MOLFORM=C10H11Cl2NO2
##CAS REGISTRY NO=90283-58-2
##MP= -300
##BP= -300
##MW= 247
##$RETENTION INDEX=0
##$CONDENSED SPECTRUM=NO
##NPOINTS= 71
##XYDATA=(XY..XY) 1 
    33          0
    34          0
    37          8
    38         19
    39        106
    40         18
    41         25
    42          2
    43          7
    44         58
    45         10
    46          8
    47          2
    48          0
    49          4
    50         35
    51         50
    52         16
    53         16
    54         18
    55          1
    57          1
    58          2
    59          6
    61         13
    62         35
    63         84
    64         28
    65        212
    66         15
    67          4
    68          2
    69          0
    74         13
    75          9
    76          8
    77         21
    78          6
    79          7
    80          3
    81          0
    83          4
    84          2
    85          6
    86          9
    87          8
    89         88
    90         66
    91        637
    92         51
    93          2
    97          0
   102          1
   103          0
   104          6
   105          4
   106         14
   107          2
   110          0
   114          0
   116         19
   117         31
   119        999
   120         83
   121          6
   122          0
   128          1
   133          3
   135        608
   136         54
   137          4