##TITLE=Library Entry 67983
##JCAMP-DX=Revision 4.10 
##DATA TYPE=MASS SPECTRUM
##SAMPLE DESCRIPTION=Chemical Concepts
##NAMES=HP
##CAS NAME=Cyclobutene, 1,2,3,4-tetramethyl-
##MOLFORM=C8H14
##CAS REGISTRY NO=90346-45-5
##MP= -300
##BP= -300
##MW= 110
##$RETENTION INDEX=0
##$CONDENSED SPECTRUM=NO
##NPOINTS= 66
##XYDATA=(XY..XY) 1 
    26         27
    27        338
    28         22
    29        198
    30          4
    37          6
    38         19
    39        304
    40         44
    41        395
    42         29
    43         50
    44          0
    45          4
    46          1
    47          2
    48          0
    49          3
    50         39
    51         87
    52         36
    53        231
    54         54
    55        457
    56        175
    57         12
    61          2
    62          8
    63         20
    64          4
    65         60
    66         20
    67        645
    68         77
    69         26
    70          7
    71          0
    73          0
    74          4
    75          3
    76          1
    77         84
    78         16
    79        104
    80         45
    81        146
    82         21
    83          6
    85          0
    87          0
    89          1
    90          0
    91         40
    92          4
    93         78
    94         18
    95        999
    96         71
    97          1
   105          0
   107          1
   108          1
   109         14
   110        342
   111         27
   112          0