##TITLE=Library Entry 64178
##JCAMP-DX=Revision 4.10 
##DATA TYPE=MASS SPECTRUM
##SAMPLE DESCRIPTION=Japan AIST/NIMC Database- Spectrum MS-IW-5906
##NAMES=HP
##CAS NAME=2-(p-Toluenesulfonamido)-1,3,4-thiadiazole
##MOLFORM=C9H9N3O2S2
##CAS REGISTRY NO=90349-32-9
##MP= -300
##BP= -300
##MW= 255
##$RETENTION INDEX=0
##$CONDENSED SPECTRUM=NO
##NPOINTS= 131
##XYDATA=(XY..XY) 1 
    26          1
    27          8
    28         10
    29          3
    31          3
    32          6
    33          1
    34          1
    38          4
    39         50
    40          4
    41         20
    42          7
    43          4
    44          5
    45         43
    46          6
    47          2
    48          1
    50         10
    51         23
    52          6
    53          4
    55          1
    57          1
    58          2
    59         17
    60          2
    61          2
    62          9
    63         37
    64         10
    65        206
    66         11
    67          4
    68          1
    69          2
    70          1
    71          2
    73          2
    74          4
    75          3
    76          3
    77         17
    78          8
    79          9
    80          2
    82          1
    85          1
    86          2
    87          2
    88          1
    89         45
    90         20
    91        999
    92        103
    93          4
    95          8
    96          1
    97          1
   100          1
   101          2
   103          1
   104          7
   105         71
   106          9
   107         11
   108         86
   109          7
   110          1
   111          2
   116          2
   117          1
   118          2
   121          6
   122          3
   123         10
   124          9
   125          1
   127          4
   131         10
   132         69
   133          8
   135          1
   136          1
   137          1
   139         14
   140          2
   141          1
   148        103
   149         18
   150          9
   151          1
   154          1
   155        227
   156         20
   157         11
   158          3
   163         14
   164         23
   165          3
   166          1
   176          1
   180          1
   182          1
   186          8
   187          1
   188          1
   189          1
   190        128
   191        133
   192         19
   193          6
   194          1
   196          4
   197          1
   211          1
   213          1
   214          3
   222          8
   223          1
   238         20
   239          3
   240          2
   253          1
   254          2
   255        568
   256         79
   257         57
   258          7
   259          2