##TITLE=Library Entry 31784
##JCAMP-DX=Revision 4.10 
##DATA TYPE=MASS SPECTRUM
##SAMPLE DESCRIPTION=Div. of Experiment Therapeutics WRAIR, WRAMC, Washingto
n DC 20307
##NAMES=HP
##CAS NAME=Thiosulfuric acid S-2-[[4-[m-[diethylamino]phenoxy]butyl]amino]et
hyl ester
##MOLFORM=C16H28N2O4S2
##CAS REGISTRY NO=90378-57-7
##MP= -300
##BP= -300
##MW= 376
##$RETENTION INDEX=0
##$CONDENSED SPECTRUM=NO
##NPOINTS= 228
##XYDATA=(XY..XY) 1 
    41         53
    42        111
    43         53
    44         54
    45         26
    46          6
    47          9
    48        370
    49          8
    50         24
    51         15
    52         11
    53         23
    54         20
    55         94
    56         81
    57         17
    58         18
    59         23
    60         18
    61         90
    63          9
    64        999
    65         60
    66         53
    67         17
    68         18
    69         16
    70         94
    71         19
    72        147
    73          9
    74          1
    75         19
    76         12
    77         37
    78         19
    79         24
    80         23
    81         13
    82         15
    84        645
    85         38
    86         20
    87         11
    88         14
    89         15
    90         21
    91         45
    92         27
    93         40
    94         32
    95         13
    96         19
    97         14
    98        253
    99          7
   100         19
   101          5
   102         11
   103         20
   104         25
   105         13
   106         21
   107         14
   108         15
   109         10
   110         12
   111          5
   112         15
   114         26
   115          9
   116         24
   117        125
   118         18
   119         14
   120         30
   121         20
   122        104
   123         12
   124         17
   125         12
   126          6
   127          6
   128         15
   129          7
   130         80
   131          8
   132        108
   133         24
   134         38
   135         13
   136         68
   137         23
   138         12
   139          2
   140         12
   141          1
   142         14
   144         28
   145          8
   146         16
   147          6
   148         35
   149          9
   150        519
   151         51
   152         26
   153          7
   154          6
   155          1
   156         11
   157          2
   158         23
   159          5
   160         12
   161         12
   162         31
   163         34
   164         93
   165        210
   166        132
   167         18
   168         10
   169          2
   170         17
   171          2
   172          5
   174         20
   175          6
   176         28
   177          3
   178         40
   179          6
   180          4
   182          8
   184          8
   186          1
   188          5
   189         11
   190         20
   191          7
   192         18
   193          4
   196         10
   198         13
   202         14
   203          1
   204         26
   205          1
   206         14
   207          3
   208          4
   212          2
   216          2
   217          8
   218         19
   219          7
   220         20
   221         16
   233          6
   235          8
   236         33
   237          5
   238          3
   240          2
   241          1
   242          1
   247          6
   248          1
   249         32
   250          6
   256          1
   257          1
   259          2
   261         10
   262          3
   263         60
   264          8
   265          5
   267          5
   268          1
   275          3
   277          2
   279          2
   280          1
   281          1
   289          5
   291          4
   292          4
   293          9
   294         15
   295         32
   296         80
   297         22
   298          6
   303          2
   304          1
   305          8
   307         25
   308          2
   309          4
   317          8
   318          5
   319          4
   320         14
   321          6
   322         11
   323          5
   324          6
   326          8
   327          3
   328         22
   329          3
   330          1
   331          5
   333         20
   334          3
   335          1
   338          3
   346         54
   347         19
   348         10
   349          6
   350          1
   352          1
   355          1
   376          6