##TITLE=Library Entry 8840
##JCAMP-DX=Revision 4.10 
##DATA TYPE=MASS SPECTRUM
##SAMPLE DESCRIPTION=V.Zaikin,Topchiev Inst.Petrochem.Synth.,Moscow
##NAMES=HP
##CAS NAME=Dichloroacetic acid, 2-pentyl ester
##MOLFORM=C7H12Cl2O2
##CAS REGISTRY NO=90380-55-5
##MP= -300
##BP= -300
##MW= 198
##$RETENTION INDEX=1102
##$CONDENSED SPECTRUM=NO
##NPOINTS= 84
##XYDATA=(XY..XY) 1 
    22          3
    25          2
    26         30
    27        259
    28         15
    29        270
    30          5
    31          5
    35         34
    36        211
    37          9
    38         64
    39        149
    40         27
    41        336
    42        173
    43        999
    44        143
    45         67
    47         26
    48        114
    49         70
    50         43
    51         24
    52         29
    53         25
    54          6
    55        460
    56         15
    57          3
    58          3
    59          2
    60          2
    63         33
    65         12
    67          6
    68          2
    69         22
    70        205
    71        733
    72         32
    73         59
    75          2
    76        104
    77         24
    78         32
    79         57
    80          2
    82          6
    83        356
    84         55
    85        232
    86         32
    87         34
    88          4
    91         10
    93          5
    94          2
    95          2
   108          1
   110          7
   111         64
   112          8
   113         38
   114          3
   115          4
   119          1
   121          2
   127        104
   128          3
   129         71
   130          2
   131         10
   139          1
   154          6
   155        286
   156         14
   157        185
   158          8
   159         28
   163          2
   183         13
   185          8
   187          3