##TITLE=Library Entry 284
##JCAMP-DX=Revision 4.10 
##DATA TYPE=MASS SPECTRUM
##SAMPLE DESCRIPTION=NIST Mass Spectrometry Data Center
##NAMES=HP
##CAS NAME=3,5-Difluorobenzylamine
##MOLFORM=C7H7F2N
##CAS REGISTRY NO=90390-27-5
##MP= -300
##BP= -300
##MW= 143
##$RETENTION INDEX=0
##$CONDENSED SPECTRUM=NO
##NPOINTS= 98
##XYDATA=(XY..XY) 1 
    12          2
    14          6
    16         14
    17          9
    18          5
    19          2
    20          2
    25          1
    26          1
    28        999
    29        257
    30        789
    31         44
    32         21
    33          8
    37         30
    38         40
    39         46
    40          6
    41          3
    44          8
    47          4
    48         25
    49         15
    50         93
    51         73
    52         29
    53          3
    54          7
    55          5
    56         25
    57         82
    58          6
    61         41
    62         63
    63        204
    64         23
    65          7
    66          3
    68         52
    69         40
    70         33
    71         29
    73         14
    74         26
    75        111
    76         18
    77         25
    78          7
    79          4
    80         13
    81         47
    82          8
    83         11
    84          8
    85          9
    86          8
    87         17
    88         36
    89          7
    90          3
    91          4
    92         15
    93         34
    94         35
    95        134
    96         57
    97         18
    98          4
    99         12
   100         14
   101         68
   102         11
   103          3
   104          3
   105          8
   107         34
   108          3
   109          2
   110          1
   111          5
   112         18
   113        107
   114        126
   115        193
   116         14
   119          2
   120         15
   122        145
   123        627
   124         89
   125         53
   127        156
   128         13
   140         69
   142        875
   143        266
   144         20