##TITLE=Library Entry 38966
##JCAMP-DX=Revision 4.10 
##DATA TYPE=MASS SPECTRUM
##SAMPLE DESCRIPTION=A. VAN LANGENHOVE, HARVARD SCH. PUBLIC HEALTH, BOSTON,
 USA
##NAMES=HP
##CAS NAME=1,4-Anhydro-5-O-acetyl-2,3,6-tri-O-methyl-d-glucitol
##MOLFORM=C11H20O6
##CAS REGISTRY NO=90405-87-1
##MP= -300
##BP= -300
##MW= 248
##$RETENTION INDEX=0
##$CONDENSED SPECTRUM=NO
##NPOINTS= 62
##XYDATA=(XY..XY) 1 
    71        999
    72        223
    73        185
    74         91
    75        909
    76         42
    77         11
    79         24
    81         46
    82         31
    83         57
    84         22
    85        130
    86         12
    87        515
    88         67
    89         28
    91         21
    93         17
    95         33
    96         29
    97        105
    98         50
    99        162
   100         52
   101        406
   102        381
   103         59
   105         10
   109         12
   111         93
   112         17
   113         34
   114         20
   115         92
   116         10
   117         79
   119         15
   125        156
   126         29
   127         40
   128         85
   129        269
   130         33
   131        296
   132         21
   135         12
   141         16
   142         19
   143         76
   145         14
   153         45
   156         97
   157         47
   158         32
   161        106
   162         10
   168         14
   170         21
   174         11
   188         60
   203         11