##TITLE=Library Entry 5389
##JCAMP-DX=Revision 4.10 
##DATA TYPE=MASS SPECTRUM
##SAMPLE DESCRIPTION=Div. of Experiment Therapeutics WRAIR, WRAMC, Washingto
n DC 20307
##NAMES=HP
##CAS NAME=6-Methyl-1-.beta.-d-ribofuranosyl-4-5H-selenoxopyrazolo[3,4-d]pyr
imidine
##MOLFORM=C11H14N4O4Se
##CAS REGISTRY NO=90414-46-3
##MP= -300
##BP= -300
##MW= 346
##$RETENTION INDEX=0
##$CONDENSED SPECTRUM=NO
##NPOINTS= 105
##XYDATA=(XY..XY) 1 
    42        999
    43        702
    44        261
    45        470
    47         54
    49         80
    50         56
    51        118
    52        158
    53         76
    54         65
    55        327
    56        173
    57        356
    59        138
    60        112
    61         84
    62         33
    63         91
    64         78
    65         69
    66         69
    67        116
    68         98
    69        177
    70        116
    71        174
    72         74
    73        102
    74         39
    75         46
    76         66
    77        255
    78        641
    79        192
    80        169
    81         82
    82        151
    83        154
    84         96
    85         80
    86         24
    87         28
    89         41
    90         20
    91        197
    92         76
    93        104
    94         51
    95         56
    96         54
    97        123
    98         45
    99         40
   101         74
   102         54
   104         63
   105         73
   106        234
   107         72
   108         34
   109         40
   110         34
   111         81
   112         52
   113         19
   115         45
   117         22
   119         23
   121         19
   124         89
   125         19
   127         23
   128         35
   129         29
   131         19
   132         46
   133        235
   134         18
   155         16
   157         32
   158         18
   160         55
   173         17
   210        147
   211        143
   212        320
   214        756
   215        184
   216        129
   217         19
   225         17
   227         57
   229         36
   236         18
   255         17
   257         32
   259         17
   316         20
   342         32
   343         29
   344        123
   346        251
   347         18
   348         27