##TITLE=Library Entry 13262
##JCAMP-DX=Revision 4.10 
##DATA TYPE=MASS SPECTRUM
##SAMPLE DESCRIPTION=Chemical Concepts
##NAMES=HP
##CAS NAME=2-Acetamido-3-nitrobenzoic acid
##MOLFORM=C9H8N2O5
##CAS REGISTRY NO=90417-80-4
##MP= -300
##BP= -300
##MW= 224
##$RETENTION INDEX=0
##$CONDENSED SPECTRUM=NO
##NPOINTS= 167
##XYDATA=(XY..XY) 1 
    26          4
    27         17
    28         18
    29          9
    30         19
    31          2
    37          9
    38         27
    39         60
    40          9
    41         18
    42         25
    43        999
    44         40
    45         18
    46          1
    49          1
    50         22
    51         58
    52         64
    53         28
    54          7
    55         10
    56          2
    57          8
    58          1
    59          2
    60          3
    61          8
    62         38
    63        126
    64         61
    65        132
    66         18
    67          9
    68          5
    69          5
    70          4
    71          3
    72          2
    73          3
    74         15
    75         30
    76         28
    77         94
    78         55
    79         51
    80         23
    81          9
    82          2
    83          3
    84          1
    85          2
    86          0
    87          2
    88         11
    89         32
    90        225
    91         79
    92         31
    93         34
    94         15
    95          4
    96          2
    97          2
    98          1
    99          1
   101          1
   102          3
   103         28
   104         43
   105         41
   106         90
   107         25
   108          4
   109          2
   110          1
   111          2
   112          1
   113          1
   115          1
   116         16
   117         41
   118         53
   119         48
   120         25
   121          6
   122          9
   123          1
   125          1
   126          0
   127          0
   128          0
   129          1
   130          2
   131          4
   132         21
   133         11
   134         91
   135         31
   136          6
   137          2
   138         19
   139          1
   140          0
   141          0
   143          0
   144          0
   145         15
   146          4
   147         35
   148         41
   149          7
   150          1
   151          4
   152        155
   153         12
   154          2
   155          1
   156          0
   157          1
   158          1
   159          1
   160        128
   161         12
   162          9
   163          9
   164        633
   165         60
   166         18
   167          2
   168          0
   172          0
   174          1
   175          1
   176         21
   177          4
   178        117
   179         15
   180          2
   181          1
   182        977
   183         90
   184         12
   185          1
   190          1
   191         19
   192          3
   193          0
   194         21
   195          2
   196          0
   206         40
   207          9
   208          2
   209          2
   210          2
   211          0
   212          0
   213          0
   214          0
   216          0
   223          0
   224         21
   225          3
   226          2
   227          1