##TITLE=Library Entry 159
##JCAMP-DX=Revision 4.10 
##DATA TYPE=MASS SPECTRUM
##SAMPLE DESCRIPTION=Humboldt-Universitat zu Berlin, Department of Chemistry
, Analytical Group
##NAMES=HP
##CAS NAME=N,N'-Carbonyldipyrrolidin-2-one
##MOLFORM=C9H12N2O3
##CAS REGISTRY NO=90437-89-1
##MP= -300
##BP= -300
##MW= 196
##$RETENTION INDEX=0
##$CONDENSED SPECTRUM=NO
##NPOINTS= 133
##XYDATA=(XY..XY) 1 
    12          5
    13         10
    14         42
    15        102
    16         13
    17         57
    18        211
    19          2
    20          1
    24          2
    25         17
    26        170
    27        422
    28        999
    29        362
    30        657
    31         27
    32          1
    35         59
    36        317
    37         39
    38        138
    39        232
    40        143
    41        985
    42        596
    43        127
    44         65
    45         24
    46          1
    47          1
    49          1
    50          3
    51         12
    52         25
    53         18
    54         45
    55        121
    56        585
    57        177
    58         16
    59          3
    60          9
    61          2
    62          3
    63          1
    64          1
    65          1
    66          4
    67          4
    68         15
    69        242
    70         47
    71          9
    72          2
    73         11
    74          8
    75          2
    76          2
    77          2
    78          1
    79          2
    80          3
    81          5
    82          9
    83         62
    84        433
    85        618
    86        167
    87         15
    88         14
    89          1
    91          2
    93          1
    94          1
    95          2
    96          3
    97          6
    98         19
    99         26
   100          5
   101          5
   102         26
   103          3
   104          2
   105          2
   109          3
   110          2
   111          9
   112        245
   113         27
   114          6
   115          2
   116          3
   117          1
   119          2
   121          1
   123          2
   124          2
   125          6
   126         32
   127         10
   128          2
   129          7
   130         85
   131          6
   132          1
   138          1
   139          3
   140         13
   141         10
   142          1
   143          6
   144         20
   145          2
   146          1
   149          3
   151          1
   152          1
   154        149
   155         16
   156          2
   157          6
   158          3
   168        103
   169         11
   170          1
   171          1
   173          1
   185          2
   186          1
   196         21
   197          4