##TITLE=Library Entry 25023
##JCAMP-DX=Revision 4.10 
##DATA TYPE=MASS SPECTRUM
##SAMPLE DESCRIPTION=Chemical Concepts
##NAMES=HP
##CAS NAME=3-Hydroxybutyric acid, t-butyl ester
##MOLFORM=C8H16O3
##CAS REGISTRY NO=90435-23-7
##MP= -300
##BP= -300
##MW= 160
##$RETENTION INDEX=0
##$CONDENSED SPECTRUM=NO
##NPOINTS= 92
##XYDATA=(XY..XY) 1 
    26          1
    27         20
    28          7
    29         76
    30          1
    31         17
    36          0
    37          0
    38          1
    39         25
    40          5
    41        158
    42         18
    43        192
    44          7
    45        113
    46          2
    47          0
    50          0
    51          1
    52          0
    53          2
    54          1
    55         12
    56         73
    57        999
    58         24
    59        290
    60         14
    61          2
    62          0
    63          0
    64          0
    65          0
    66          0
    67          0
    68          0
    69         11
    70          1
    71          7
    72          0
    73          2
    74          0
    75          0
    76          0
    77          0
    78          0
    79          0
    80          0
    81          0
    82          0
    83          0
    84          0
    85         14
    86          5
    87        144
    88          4
    89          9
    90          0
    91          1
    97          0
   100          0
   101          1
   102          0
   103         26
   104         14
   105         34
   106          1
   107          0
   108          0
   109          0
   110          0
   111          0
   113          0
   114          0
   115          0
   116          3
   117          0
   118          0
   119          0
   120          0
   121          0
   122          0
   125          0
   126          0
   127          6
   128          0
   129          0
   141          0
   145         12
   146          1
   147          0