##TITLE=Library Entry 67032
##JCAMP-DX=Revision 4.10 
##DATA TYPE=MASS SPECTRUM
##SAMPLE DESCRIPTION=Dmitri Zagorevskii, Scientific Instruments & Applicatio
ns
##NAMES=HP
##CAS NAME=1-[(1H-Pyrrol-2-ylcarbonyl)oxy]-2,5-pyrrolidinedione
##MOLFORM=C9H8N2O4
##CAS REGISTRY NO=90471-24-2
##MP= -300
##BP= -300
##MW= 208
##$RETENTION INDEX=0
##$CONDENSED SPECTRUM=NO
##NPOINTS= 26
##XYDATA=(XY..XY) 1 
    27         18
    28          5
    38         22
    39        103
    40         15
    41         13
    42         12
    55         22
    56         74
    57          7
    61         16
    65         14
    66        139
    67         13
    69          6
    70         19
    82          8
    83          6
    93         22
    94        999
    95         81
    98         14
    99         20
   143         15
   208         79
   209         10