##TITLE=Library Entry 8311
##JCAMP-DX=Revision 4.10 
##DATA TYPE=MASS SPECTRUM
##SAMPLE DESCRIPTION=A.A.Kutin, Moscow, Russia
##NAMES=HP
##CAS NAME=Isothiourea, 2-methylthiomethyl-
##MOLFORM=C3H8N2S2
##CAS REGISTRY NO=90484-97-2
##MP= -300
##BP= -300
##MW= 136
##$RETENTION INDEX=0
##$CONDENSED SPECTRUM=NO
##NPOINTS= 92
##XYDATA=(XY..XY) 1 
    33         31
    34         21
    35          1
    41         29
    42        143
    43        999
    44        166
    45        447
    46        247
    47        188
    48         88
    49         45
    50          6
    51          9
    52          1
    53          1
    54          1
    55          4
    56          4
    57         11
    58         37
    59         85
    60        168
    61        735
    62         41
    63         34
    64         10
    65          1
    66          1
    67          0
    68          0
    69          1
    70          1
    71          1
    72          3
    73          2
    74          4
    76        369
    77         80
    78         43
    79         25
    80          4
    81          4
    82          1
    83          1
    84          2
    85          0
    86          0
    89        478
    90        178
    91         32
    92         15
    93         32
    94        173
    96         82
    98         24
    99          1
   100          0
   101          1
   102          0
   103          0
   104          1
   105          0
   106          3
   107          2
   108         15
   109          1
   110          1
   111          0
   112          0
   113          0
   115          0
   119          2
   121        149
   122          7
   123         12
   124          1
   125          1
   126          0
   127          0
   128          0
   129          1
   130          0
   131          0
   132          0
   133          0
   134          1
   136         40
   137          5
   138          3
   139          0
   140          0