##TITLE=Library Entry 17792
##JCAMP-DX=Revision 4.10 
##DATA TYPE=MASS SPECTRUM
##SAMPLE DESCRIPTION=Institute of Organic Chemistry, USSR, 1990
##NAMES=HP
##CAS NAME=2-[2-(4-Nitrophenoxy)ethoxy]ethanol
##MOLFORM=C10H13NO5
##CAS REGISTRY NO=90512-18-8
##MP= -300
##BP= -300
##MW= 227
##$RETENTION INDEX=0
##$CONDENSED SPECTRUM=NO
##NPOINTS= 64
##XYDATA=(XY..XY) 1 
    41         11
    43         39
    44         61
    45        999
    46         27
    50         19
    51         10
    55          9
    57         10
    58         13
    59         19
    62          5
    63         27
    64         31
    65         32
    66          7
    68          5
    69         10
    71          6
    75         82
    76         41
    77         10
    78         15
    79          6
    80          7
    81         18
    82          8
    83          8
    85          6
    87          6
    88        172
    89        177
    90          9
    91         36
    92         29
    93         23
    94          6
   106         13
   107          5
   108         19
   109         27
   116          6
   118          7
   119         13
   120         31
   121          6
   122         15
   123         61
   124         19
   129          5
   130          5
   136         19
   139         31
   149         20
   150         16
   152         11
   153         38
   165         82
   166         95
   167         11
   183         10
   196         15
   227        189
   228         24