##TITLE=Library Entry 19623
##JCAMP-DX=Revision 4.10 
##DATA TYPE=MASS SPECTRUM
##SAMPLE DESCRIPTION=G. OHLOFF, FIRMENICH SA, RES. LAB., GENEVA, SWITZ.
##NAMES=HP
##CAS NAME=2,3-Epoxyhexanol
##MOLFORM=C6H12O2
##CAS REGISTRY NO=90528-63-5
##MP= -300
##BP= -300
##MW= 116
##$RETENTION INDEX=1425
##$CONDENSED SPECTRUM=NO
##NPOINTS= 38
##XYDATA=(XY..XY) 1 
    37          6
    38         20
    39        225
    40         34
    41        478
    42         76
    43        584
    44        249
    45        111
    46          1
    50         12
    51         15
    52          4
    53         36
    54         29
    55        999
    56         91
    57        237
    58         10
    59          8
    60         22
    61         33
    62          1
    65          5
    67         20
    68          2
    69         24
    70          8
    71         37
    72         22
    73        241
    74         11
    79          1
    81          4
    82          7
    83         13
    85          2
    98          1