##TITLE=Library Entry 8075
##JCAMP-DX=Revision 4.10 
##DATA TYPE=MASS SPECTRUM
##SAMPLE DESCRIPTION=A.A.Kutin, Moscow, Russia
##NAMES=HP
##CAS NAME=Benzaldehyde, 2,4-dinitro-, 2,2-dimethylhydrazone
##MOLFORM=C9H10N4O4
##CAS REGISTRY NO=90535-55-0
##MP= -300
##BP= -300
##MW= 238
##$RETENTION INDEX=0
##$CONDENSED SPECTRUM=NO
##NPOINTS= 92
##XYDATA=(XY..XY) 1 
    34          0
    37          1
    38          6
    39         11
    40         27
    41          8
    42        144
    43        999
    44         73
    45          5
    46          5
    49          0
    50         25
    51         18
    52          9
    53          4
    54          0
    55          1
    56          1
    58        511
    59         36
    60          1
    61          3
    62         19
    63         43
    64         10
    65          9
    66          9
    67          1
    68          0
    69          1
    71          0
    72          1
    73          2
    74         26
    75         52
    76         41
    77         22
    78         12
    79          4
    80          1
    81          0
    85          0
    86          3
    87          5
    88          8
    89          8
    90         15
    91         11
    92          6
    93          1
    94          0
    95          0
    99          1
   100          2
   101          4
   102         11
   103         10
   104         20
   105          3
   106          2
   107          1
   115          0
   116          8
   117          6
   118         11
   119          5
   120          1
   121          0
   124          0
   129          1
   130          1
   131          3
   132          0
   133          0
   134          6
   135          0
   143          0
   144         10
   145          3
   146          1
   147          0
   148          1
   149          1
   150          0
   164          0
   165          0
   190          0
   208          1
   238         73
   239          8
   240          0