##TITLE=Library Entry 84196
##JCAMP-DX=Revision 4.10 
##DATA TYPE=MASS SPECTRUM
##SAMPLE DESCRIPTION=A.A.Kutin, Moscow, Russia
##NAMES=HP
##CAS NAME=Benzenacetic acid, 4-methylsulfonyl-
##MOLFORM=C9H10O4S
##CAS REGISTRY NO=90536-66-6
##MP= -300
##BP= -300
##MW= 214
##$RETENTION INDEX=0
##$CONDENSED SPECTRUM=NO
##NPOINTS= 150
##XYDATA=(XY..XY) 1 
    33          7
    34          7
    35          1
    36          4
    37         12
    38         59
    39        304
    40         82
    41         53
    42         17
    43        248
    44         63
    45        199
    46          9
    47         11
    48         15
    49          8
    50         94
    51        190
    52         66
    53         77
    54         11
    55         58
    56          9
    57         29
    58          5
    59          7
    60         20
    61         24
    62        103
    63        427
    64        227
    65        134
    66         25
    67         19
    68          7
    69         37
    70         14
    71         19
    72          5
    73         17
    74         21
    75         23
    77        648
    78        169
    79        702
    80         47
    81         24
    82          8
    83         14
    84         11
    85         19
    86         20
    87         26
    89        608
    90        346
    91        376
    92         32
    93         19
    94         11
    95         17
    96          7
    97         12
    98          5
    99          4
   100          1
   101          4
   102          4
   103         12
   104         10
   105         36
   107        999
   108         86
   109        287
   110         29
   111         10
   112          4
   113          6
   114          1
   115          4
   117         99
   118         10
   119          3
   121         27
   122         19
   123         18
   124          4
   125          6
   126          3
   127          3
   128          1
   129          5
   130          1
   131          2
   133         48
   135        957
   136         80
   137         23
   138         26
   139         13
   140          4
   141         21
   142          4
   143          3
   144          0
   147          1
   149         13
   151        346
   152        103
   153         14
   154          8
   155         18
   156          3
   157          5
   158          2
   163          1
   164          0
   165          4
   166          2
   167          3
   169         71
   170         22
   171          9
   172          2
   173          0
   174          0
   175          1
   178          0
   179          0
   181          3
   182          4
   183         27
   184          5
   185          5
   186          0
   196          4
   197          5
   199        661
   200         60
   201         37
   202          3
   207          0
   209          1
   210          0
   212          5
   214        669
   215         69
   216         37
   217          3
   218          1