##TITLE=Library Entry 68646
##JCAMP-DX=Revision 4.10 
##DATA TYPE=MASS SPECTRUM
##SAMPLE DESCRIPTION=D. PIATAK, C/O DEP. CHEM., TEMPLE UNIV., PHILADELPHIA,
 USA
##NAMES=HP
##CAS NAME=1-Methyl-2-methylene-trans-decalin
##MOLFORM=C12H20
##CAS REGISTRY NO=90548-09-7
##MP= -300
##BP= -300
##MW= 164
##$RETENTION INDEX=0
##$CONDENSED SPECTRUM=NO
##NPOINTS= 57
##XYDATA=(XY..XY) 1 
    27         60
    28         10
    29         60
    30         10
    31         10
    39        210
    40         20
    41        430
    42         20
    43         10
    50         10
    51         60
    52         10
    53        190
    54         90
    55        220
    65        120
    66         60
    67        590
    68        350
    69        210
    70         30
    77        220
    78         50
    79        440
    80        160
    81        530
    82        170
    83         90
    91        230
    92         60
    93        380
    94        470
    95        999
    96        230
    97         60
   105         60
   106         40
   107        280
   108        280
   109        230
   110        320
   111         70
   119         10
   120         10
   121        290
   122        700
   123        120
   135        880
   136        220
   137         30
   149        440
   150         70
   163         50
   164        660
   165        100
   166         10