##TITLE=Library Entry 52896
##JCAMP-DX=Revision 4.10 
##DATA TYPE=MASS SPECTRUM
##SAMPLE DESCRIPTION=P. Vainiotalo, Dep. Chem., Joensuu Univ., Joensuu, Finl
and
##NAMES=HP
##CAS NAME=Bicyclo[2.2.1]heptan-2-one, 4-ethenyl-1,7,7-trimethyl-
##MOLFORM=C12H18O
##CAS REGISTRY NO=90547-84-5
##MP= -300
##BP= -300
##MW= 178
##$RETENTION INDEX=0
##$CONDENSED SPECTRUM=NO
##NPOINTS= 75
##XYDATA=(XY..XY) 1 
    26         12
    27        151
    29        126
    31         28
    39        210
    40         46
    41        565
    42         36
    43        124
    44         20
    45         14
    50         12
    51         52
    52         30
    53        131
    54         28
    55        608
    56         31
    57        211
    58         15
    59         22
    63         13
    65         70
    66         39
    67        183
    68         27
    69        144
    70         36
    74         19
    77        126
    78         35
    79        623
    80         73
    81        114
    82         83
    83        999
    84         79
    91        144
    92         93
    93        511
    94        852
    95        177
    96         91
    97         24
    98         28
   103         13
   105         55
   106         19
   107        340
   108         77
   109         38
   110         43
   111         26
   117         10
   119         31
   120         19
   121        247
   122        118
   123         47
   124         10
   134         44
   135        225
   136        123
   137         70
   145         12
   149         46
   150        119
   151         16
   160         12
   161          1
   163         26
   164          3
   178        559
   179         77
   180         14