##TITLE=Library Entry 48400
##JCAMP-DX=Revision 4.10 
##DATA TYPE=MASS SPECTRUM
##SAMPLE DESCRIPTION=NIST Mass Spectrometry Data Center
##NAMES=HP
##CAS NAME=4-Aminopyridine, N-pentafluoropropionyl-
##MOLFORM=C8H5F5N2O
##CAS REGISTRY NO=905417-77-8
##MP= -300
##BP= -300
##MW= 240
##$RETENTION INDEX=0
##$CONDENSED SPECTRUM=NO
##NPOINTS= 97
##XYDATA=(XY..XY) 1 
    14          1
    18          2
    26          9
    27          3
    28          9
    29          1
    31          7
    37          9
    38         28
    39         82
    40         40
    41         17
    42         24
    43          2
    46          1
    47          1
    49          4
    50         37
    51        207
    52         47
    53          8
    54          3
    56          1
    57          1
    60         12
    61          1
    62          1
    63          4
    64         13
    65         29
    66         43
    67         10
    68          4
    69         77
    70          2
    71          1
    75          4
    76         10
    77          9
    78        999
    79         65
    80          3
    81          3
    82          1
    85         12
    89          1
    90          2
    91          2
    92         16
    93         14
    94          4
    95          4
    96          1
   100          9
   101          1
   102          1
   103          2
   104          2
   105          1
   109          4
   110          4
   114          1
   115          2
   116          3
   117          1
   119         94
   120         17
   121        699
   122         55
   123          3
   126          1
   128          1
   141          1
   142          2
   143          3
   144          1
   146          1
   147          1
   152          8
   153          1
   164          1
   169          4
   170          6
   171          1
   173          2
   184          1
   191          1
   193         13
   194          1
   201          2
   221          3
   222          1
   237          1
   238          1
   240        828
   241         79
   242          6