##TITLE=Library Entry 67961
##JCAMP-DX=Revision 4.10 
##DATA TYPE=MASS SPECTRUM
##SAMPLE DESCRIPTION=James Little,Eastman Chem.Co.,Kingsport,TN
##NAMES=HP
##CAS NAME=2,4-Hexadienoyl chloride
##MOLFORM=C6H7ClO
##CAS REGISTRY NO=90554-82-8
##MP= -300
##BP= -300
##MW= 130
##$RETENTION INDEX=0
##$CONDENSED SPECTRUM=NO
##NPOINTS= 26
##XYDATA=(XY..XY) 1 
    26         47
    27         73
    29         36
    37         35
    38         64
    39        241
    40         84
    41        546
    50         78
    51        104
    52         54
    62         52
    63         70
    65        193
    66        116
    67        622
    68         44
    83         13
    95        999
    96         73
    97         14
   102         53
   104         17
   130        118
   131         11
   132         40