##TITLE=Library Entry 109318
##JCAMP-DX=Revision 4.10 
##DATA TYPE=MASS SPECTRUM
##SAMPLE DESCRIPTION=A.A.Kutin, Moscow, Russia
##NAMES=HP
##CAS NAME=Pyrimidin-2-amine, 4-isopropoxy-6-methyl-
##MOLFORM=C8H13N3O
##CAS REGISTRY NO=90556-28-8
##MP= -300
##BP= -300
##MW= 167
##$RETENTION INDEX=0
##$CONDENSED SPECTRUM=NO
##NPOINTS= 74
##XYDATA=(XY..XY) 1 
    36          2
    37         18
    38         57
    39        297
    40        107
    41        339
    42        405
    43        757
    44         64
    45          6
    46          0
    47          0
    50          2
    51         14
    52         53
    53         50
    54        138
    55         94
    56         58
    57          5
    58          5
    59          4
    60          0
    62          0
    63          2
    64         14
    65         20
    66         88
    67        175
    68        128
    69        108
    70         17
    71          1
    76          1
    77          2
    78          1
    79          5
    80          7
    82         84
    83        109
    84        593
    85         31
    86         38
    87          1
    91          0
    92          6
    93          7
    94          3
    96        391
    97        884
    98         54
    99          1
   108        144
   109        375
   110         47
   111          6
   112          0
   122          2
   125        999
   126         97
   127          6
   135          1
   136          0
   138          1
   139          0
   149          2
   150          3
   152        476
   153         43
   154          3
   164          0
   167        324
   168         39
   169          2