##TITLE=Library Entry 97446
##JCAMP-DX=Revision 4.10 
##DATA TYPE=MASS SPECTRUM
##SAMPLE DESCRIPTION=Chemical Concepts
##NAMES=HP
##CAS NAME=Hydrazinecarboxamide, 2-(2,4,6-cyclooctatrien-1-ylidene)-
##MOLFORM=C9H11N3O
##CAS REGISTRY NO=90559-09-4
##MP= -300
##BP= -300
##MW= 177
##$RETENTION INDEX=0
##$CONDENSED SPECTRUM=NO
##NPOINTS= 91
##XYDATA=(XY..XY) 1 
    26         23
    27         96
    29         40
    30         14
    31          7
    37         15
    38         41
    39        225
    41         46
    42         15
    43         46
    44        401
    45          6
    49          5
    50        113
    51        214
    52        113
    53         46
    54         12
    55         67
    56        187
    57          8
    60          4
    61         65
    62         31
    63        139
    64         42
    65        205
    66         51
    67         17
    68          7
    69          7
    73          5
    74         42
    75         37
    76         61
    77        441
    78        449
    79        188
    80         44
    81         14
    82         35
    83          3
    85          3
    86          8
    87          8
    88          7
    89        150
    90        276
    91        694
    92        161
    93         76
    94         29
    95          4
    98          5
    99        214
   100         11
   101         11
   102        116
   103        495
   104        717
   105        179
   106        161
   107         72
   108         48
   109          7
   112          5
   115          6
   116        273
   117        999
   118        775
   119        167
   120         18
   121          4
   131         19
   132         45
   133        414
   134        261
   135         37
   136          8
   146          3
   148          4
   149          3
   151          9
   159         26
   160        131
   161         17
   176         32
   177        419
   178         55
   179          3