##TITLE=Library Entry 65931
##JCAMP-DX=Revision 4.10 
##DATA TYPE=MASS SPECTRUM
##SAMPLE DESCRIPTION=J.S. THRASHER, DEP. CHEM., ALABAMA UNIV., ALABAMA, USA
##NAMES=HP
##CAS NAME=(3-Phenylureido)sulfur pentafluoride
##MOLFORM=C7H7F5N2OS
##CAS REGISTRY NO=90598-04-2
##MP= -300
##BP= -300
##MW= 262
##$RETENTION INDEX=0
##$CONDENSED SPECTRUM=NO
##NPOINTS= 18
##XYDATA=(XY..XY) 1 
    39        121
    51         55
    64         98
    65        345
    66        138
    70         14
    76         69
    89         69
    91        138
    92        276
    93        999
   119        241
   120         98
   124         41
   127         98
   222         34
   242         14
   262        207