##TITLE=Library Entry 30510
##JCAMP-DX=Revision 4.10 
##DATA TYPE=MASS SPECTRUM
##SAMPLE DESCRIPTION=J.S. THRASHER, DEP. CHEM., ALABAMA UNIV., ALABAMA, USA
##NAMES=HP
##CAS NAME=[Methyl(methoxycarbonyl)amino]sulphur pentafluoride
##MOLFORM=C3H6F5NO2S
##CAS REGISTRY NO=90598-21-3
##MP= -300
##BP= -300
##MW= 215
##$RETENTION INDEX=0
##$CONDENSED SPECTRUM=NO
##NPOINTS= 19
##XYDATA=(XY..XY) 1 
    15         86
    28        500
    29        143
    30         43
    31         43
    42        143
    43        107
    44         64
    59        999
    70         50
    88        150
    89        357
   118        143
   127        643
   135         36
   136         71
   170        307
   184        143
   215         14