##TITLE=Library Entry 41747
##JCAMP-DX=Revision 4.10 
##DATA TYPE=MASS SPECTRUM
##SAMPLE DESCRIPTION=Chemical Concepts
##NAMES=HP
##CAS NAME=1-Bromo-1-cyclohexylidene-3-buten-2-ol, TMS derivative
##MOLFORM=C13H23BrOSi
##CAS REGISTRY NO=90598-33-7
##MP= -300
##BP= -300
##MW= 302
##$RETENTION INDEX=0
##$CONDENSED SPECTRUM=NO
##NPOINTS= 196
##XYDATA=(XY..XY) 1 
    26         10
    27        102
    28         18
    29         73
    30          2
    31         10
    37          2
    38         10
    39        142
    40         24
    41        214
    42         24
    43         60
    44         28
    45        128
    46         10
    47         53
    48          3
    49          3
    50         21
    51         79
    52         44
    53         94
    54         19
    55        170
    56         13
    57         43
    58         17
    59         20
    60          9
    61         29
    62          9
    63         34
    64         11
    65        116
    66         49
    67        181
    68         26
    69         45
    70          6
    71          9
    72         17
    73        999
    74        102
    75        328
    76         34
    77        175
    78         75
    79        229
    80         35
    81        101
    82         14
    83         35
    84          5
    85         11
    87          3
    89         12
    90          9
    91        944
    92        129
    93         73
    94         16
    95         44
    96         10
    97          7
    98          2
    99         14
   101         24
   102          7
   103         75
   104         40
   105        251
   106         31
   107         69
   108         13
   109         21
   110          4
   111          7
   113          6
   114          2
   115         21
   116         34
   117         49
   118         21
   119         14
   120          5
   121         19
   122          7
   123         11
   124          2
   125         11
   126          3
   127          6
   128          5
   129        165
   130         20
   131         39
   132         14
   133        459
   134         56
   135         10
   136          3
   137        111
   138         10
   139        108
   140          7
   141          9
   142          3
   143          4
   144         12
   145          4
   146         10
   147         10
   148          4
   149         17
   150          3
   151         23
   152          4
   153          5
   155         39
   156          9
   157          7
   158         13
   159          8
   160          4
   161          3
   163          3
   164          3
   165          9
   166          4
   167         10
   168          3
   169         58
   170        245
   171         68
   172        229
   173         25
   174          3
   175          3
   179         11
   180          4
   181          8
   182          3
   183         12
   184          5
   185         13
   186         13
   187          5
   188         10
   189          2
   193          7
   194          3
   195          8
   197          5
   199          4
   201          3
   203          5
   205          4
   207         22
   208          3
   209         20
   211          2
   212        144
   213         17
   214        131
   215         14
   219         21
   220          3
   221         21
   222          4
   223        230
   224         46
   225         12
   230          6
   231          3
   232          8
   233          5
   235          2
   245          6
   246          3
   247          6
   248          2
   259         10
   260          2
   261          8
   273          4
   275         17
   276          4
   277         14
   278          2
   287         16
   288          3
   289         16
   290          4
   302          4
   304          4