##TITLE=Library Entry 80746
##JCAMP-DX=Revision 4.10 
##DATA TYPE=MASS SPECTRUM
##SAMPLE DESCRIPTION=Chemical Concepts
##NAMES=HP
##CAS NAME=Carbamic acid, (4-methylphenyl)-, 1-phenylethyl ester
##MOLFORM=C16H17NO2
##CAS REGISTRY NO=90591-46-1
##MP= -300
##BP= -300
##MW= 255
##$RETENTION INDEX=0
##$CONDENSED SPECTRUM=NO
##NPOINTS= 112
##XYDATA=(XY..XY) 1 
    26          4
    27         35
    28         24
    29          2
    30          1
    37          2
    38          8
    39         30
    40          3
    41          6
    42          1
    43         24
    44         10
    45          2
    49          0
    50         15
    51         51
    52         20
    53         18
    54          2
    55          1
    56          0
    57          2
    59          0
    60          0
    61          1
    62          3
    63         15
    64          4
    65         16
    66          3
    67          0
    68          0
    69          0
    70          0
    71          0
    73          0
    74          2
    75          5
    76          7
    77         99
    78         63
    79        104
    80          6
    81          1
    82          0
    83          0
    86          0
    87          0
    88          0
    89          3
    90          3
    91         23
    92          1
    93          1
    94          0
    97          0
   101          1
   102          4
   103         34
   104         65
   105        999
   106        103
   107        206
   108         24
   109          0
   115          0
   117          0
   118          1
   119          0
   120          1
   121          5
   122          6
   123          0
   132         12
   133         21
   134         10
   135          1
   149          3
   150          2
   151         25
   152          2
   153          0
   165          1
   166          0
   167          0
   175          0
   179          0
   180          0
   181          1
   182          1
   183          0
   193          0
   194          1
   195          0
   196         54
   197          8
   198          0
   207          0
   208          0
   209          4
   210          2
   211         36
   212          5
   213          0
   224          2
   225          0
   241          0
   253          0
   255         37
   256          7
   257          0