##TITLE=Library Entry 43740
##JCAMP-DX=Revision 4.10 
##DATA TYPE=MASS SPECTRUM
##SAMPLE DESCRIPTION=Chemical Concepts
##NAMES=HP
##CAS NAME=1-Bromo-1-cyclohexylidene-3,3-dimethyl-2-butanol, TMS derivative
##MOLFORM=C15H29BrOSi
##CAS REGISTRY NO=90598-32-6
##MP= -300
##BP= -300
##MW= 332
##$RETENTION INDEX=0
##$CONDENSED SPECTRUM=NO
##NPOINTS= 243
##XYDATA=(XY..XY) 1 
    26          3
    27         19
    28          8
    29         59
    30          1
    31          3
    38          2
    39         31
    40          6
    41        118
    42          8
    43         33
    44         18
    45         85
    46          6
    47         18
    50          3
    51         11
    52          6
    53         25
    54          5
    55         65
    56          9
    57        114
    58          5
    59         22
    60          4
    61         10
    62          1
    63          5
    64          2
    65         24
    66         10
    67         99
    68         16
    69         40
    70          5
    71          6
    72         15
    73        999
    74         89
    75        159
    76         13
    77         46
    78         17
    79        145
    80         20
    81        115
    82         10
    83         26
    84          2
    85          5
    86          1
    87          2
    88          4
    89          4
    90          1
    91         69
    92         15
    93         71
    94         12
    95        268
    96         21
    97          7
    98          1
    99          5
   100          1
   101          5
   102          2
   103         36
   104          8
   105        128
   106         27
   107         76
   108         11
   109         34
   110          4
   111          3
   112          1
   113          3
   114          1
   115          8
   116          3
   117         12
   118          2
   119         14
   120          5
   121         44
   122          8
   123         62
   124          6
   125          5
   126          1
   127          5
   128          3
   129         16
   130          3
   131          6
   132          2
   133          7
   134          3
   135         12
   136          2
   137         38
   138          3
   139         40
   140          3
   141          6
   142          2
   143         13
   144          3
   145          7
   146          2
   147         13
   148         10
   151          8
   152          2
   153         12
   154          4
   155          5
   157          4
   158          1
   159         33
   160          6
   161          5
   162          2
   163         70
   164         10
   165         13
   166          3
   167         10
   168          7
   169          4
   170          2
   171          3
   172          1
   173          1
   174          2
   175          1
   176          3
   177          5
   178          1
   179          4
   180          1
   181          8
   182          2
   183          5
   184          2
   185         10
   186          4
   187          9
   188          3
   189          2
   190          1
   191          1
   192          1
   193          2
   194          1
   195         51
   196         19
   197         26
   198          5
   199          1
   200          1
   201          2
   202          1
   203          3
   204          1
   207        345
   208         40
   209        342
   210         40
   211         14
   212          1
   213          2
   215          1
   216          1
   217          2
   218          2
   219          3
   220          2
   221          2
   222          1
   230         15
   231          4
   232         10
   233         10
   234          3
   235         11
   236          2
   237          4
   238          1
   239          2
   240          1
   241          0
   242          1
   243          2
   244          2
   245          2
   247          1
   248          0
   249          2
   250          1
   251          2
   252          2
   253        138
   254         28
   255          8
   256          1
   257          0
   258          0
   259          2
   260          1
   261          2
   262          8
   263          2
   264          0
   265          0
   266          0
   267          1
   268          1
   269          1
   270          2
   273          2
   274          9
   275        894
   276        178
   277        894
   278        160
   279         43
   280          5
   289          1
   290          2
   291          1
   295          2
   296          1
   303          1
   304          1
   305          1
   317          7
   318          2
   319          7
   322          0