##TITLE=Library Entry 100237
##JCAMP-DX=Revision 4.10 
##DATA TYPE=MASS SPECTRUM
##SAMPLE DESCRIPTION=Chemical Concepts
##NAMES=HP
##CAS NAME=2-Propenoic acid, 3-(1H-pyrrol-2-yl)-, ethyl ester
##MOLFORM=C9H11NO2
##CAS REGISTRY NO=90610-08-5
##MP= -300
##BP= -300
##MW= 165
##$RETENTION INDEX=0
##$CONDENSED SPECTRUM=NO
##NPOINTS= 126
##XYDATA=(XY..XY) 1 
    25          2
    26         27
    27        116
    28         91
    29        144
    30         11
    31         13
    34          2
    37         23
    38         74
    39        278
    40         47
    41        109
    42         37
    43         85
    44         12
    45         22
    46         36
    47          1
    49          3
    50         18
    51         35
    52         53
    53         36
    54         19
    55         77
    56         40
    57         86
    58          6
    59          9
    60         64
    61         16
    62         39
    63        133
    64        141
    65        401
    66         64
    67         66
    68         28
    69         66
    70         28
    71         44
    72          6
    73         13
    74          4
    75          4
    76          5
    77         10
    78          8
    80         60
    81         29
    82         19
    83         45
    84        115
    85         35
    86         12
    87          8
    88          3
    89          4
    90         16
    91        434
    92        536
    93        462
    94         46
    95         22
    96         13
    97         36
    98         12
    99          8
   100          7
   101          3
   102          1
   103          2
   104         10
   105          9
   106         10
   107         10
   108         36
   109         16
   110          7
   111         19
   112         21
   113          8
   114          3
   115          5
   116          1
   117          3
   119        999
   120        878
   121         85
   122         12
   123          9
   124          6
   125         10
   126         20
   127          6
   128          2
   129          4
   130          1
   131          2
   132         10
   133          3
   134          3
   135         13
   136         22
   137         39
   138          5
   139          5
   140          3
   141          4
   142          1
   143          1
   144          1
   145          1
   146         17
   147          4
   148          5
   149          3
   150          8
   151          0
   162          0
   163          1
   164          4
   165        815
   166         87
   167          6