##TITLE=Library Entry 68048
##JCAMP-DX=Revision 4.10 
##DATA TYPE=MASS SPECTRUM
##SAMPLE DESCRIPTION=Japan AIST/NIMC Database- Spectrum MS-IW-2451
##NAMES=HP
##CAS NAME=2-(2-Carboxycyclopentyl)propionic acid
##MOLFORM=C9H14O4
##CAS REGISTRY NO=90612-94-5
##MP= -300
##BP= -300
##MW= 186
##$RETENTION INDEX=0
##$CONDENSED SPECTRUM=NO
##NPOINTS= 110
##XYDATA=(XY..XY) 1 
    15          3
    17          3
    18          5
    26          6
    27         88
    28         41
    29         79
    30         10
    31          9
    37          1
    38          7
    39        124
    40         26
    41        232
    42         33
    43         90
    44         10
    45         62
    46          4
    47          6
    50          5
    51         16
    52          8
    53         64
    54         19
    55        173
    56        162
    57         84
    58         10
    59          4
    60          8
    61          2
    62          2
    63          6
    64          1
    65         34
    66         45
    67        779
    68        175
    69         92
    70         35
    71         21
    72          3
    73        135
    74        415
    75         21
    76          2
    77         28
    78          6
    79         39
    80         14
    81         39
    82         48
    83         30
    84         16
    85         31
    86         23
    87         12
    88          1
    91         12
    92          4
    93         35
    94        110
    95        999
    96        121
    97         67
    98          9
    99         39
   100         14
   101         11
   102          1
   105          1
   106          2
   107          6
   108          4
   109          3
   110          3
   111         46
   112         34
   113        250
   114         32
   115          2
   116          2
   120          2
   121          5
   122         87
   123         19
   124         43
   125         27
   126          3
   127         23
   128          1
   129          1
   132          1
   135          1
   136          1
   138          1
   139          6
   140        463
   141         47
   142         18
   143         10
   149          1
   150         43
   151          4
   153          3
   168        120
   169         27
   170          2
   187          5