##TITLE=Library Entry 72494
##JCAMP-DX=Revision 4.10 
##DATA TYPE=MASS SPECTRUM
##SAMPLE DESCRIPTION=Chemical Concepts
##NAMES=HP
##CAS NAME=1,4-Dioxaspiro[4.4]nonane-7-carboxylic acid, methyl ester
##MOLFORM=C9H14O4
##CAS REGISTRY NO=90613-04-0
##MP= -300
##BP= -300
##MW= 186
##$RETENTION INDEX=0
##$CONDENSED SPECTRUM=NO
##NPOINTS= 122
##XYDATA=(XY..XY) 1 
    26         53
    27        297
    28        132
    29        171
    30         12
    31         38
    33          8
    36          1
    37          6
    38         15
    39        230
    40         44
    41        179
    42        193
    43        147
    44         14
    45         44
    46          2
    47          1
    48          1
    49          2
    50         12
    51         25
    52         17
    53        103
    54         63
    55        679
    56        115
    57         17
    58          7
    59        103
    60          7
    61          3
    62          3
    63         10
    64          2
    65         41
    66         43
    67        104
    68         23
    69         25
    70          4
    71         17
    72          7
    73         35
    74          5
    75          2
    76          1
    77          4
    78          4
    79         25
    80          4
    81         41
    82         79
    83        258
    84         21
    85         30
    86        157
    87         43
    88          7
    89          2
    91          1
    92          1
    93          2
    94          2
    95          8
    96         50
    97         96
    98         28
    99        999
   100        272
   101         26
   102          2
   103         13
   104          1
   105          2
   106          2
   107          2
   108          2
   109          8
   110          3
   111          9
   112         14
   113         72
   114         42
   115         11
   116          2
   117          1
   123          3
   124          7
   125         26
   126        125
   127        976
   128         73
   129          8
   130          1
   131         11
   132          2
   133          1
   137          1
   138          2
   139          2
   140          2
   141          3
   143        209
   144         17
   145          3
   146          2
   152          1
   153          2
   155         70
   156         19
   157         61
   158        110
   159          7
   160          1
   163          1
   171          2
   173          2
   177          1
   185          1
   186          2