##TITLE=Library Entry 109947
##JCAMP-DX=Revision 4.10 
##DATA TYPE=MASS SPECTRUM
##SAMPLE DESCRIPTION=A.B.BARUA, DEP. BIOCHEM. BIOPHYS., IOWA STATE UNIV., AM
ES, USA
##NAMES=HP
##CAS NAME=Methyl 4,4-difluororetinoate (all-trans)
##MOLFORM=C21H28F2O2
##CAS REGISTRY NO=90660-19-8
##MP= -300
##BP= -300
##MW= 350
##$RETENTION INDEX=0
##$CONDENSED SPECTRUM=NO
##NPOINTS= 102
##XYDATA=(XY..XY) 1 
    55        259
    56        227
    57        476
    58        103
    59        190
    60        160
    61        116
    69        575
    70        300
    71        325
    73        242
    79        113
    81        352
    82        147
    83        252
    84        164
    85        187
    87         98
    91         92
    93        205
    95        245
    96        117
    97        172
    98        111
    99        125
   105        259
   107        398
   109        171
   111        172
   112        244
   113        240
   119        361
   120        106
   121        212
   123        246
   125        999
   126        103
   127        178
   129        154
   131        412
   132        142
   133        350
   135        277
   136        179
   137        500
   138        164
   139        394
   140        147
   141        132
   143        150
   145        172
   146        148
   147        185
   149        891
   150        162
   151        212
   152        111
   153        490
   157        208
   158        116
   159        438
   160        136
   161        173
   163        177
   165        273
   167        406
   169        172
   171        218
   173        206
   174         91
   175        220
   176        109
   177        905
   178        349
   179         91
   185        115
   189        128
   190        222
   191        321
   192         91
   193        356
   195        136
   197        120
   199         97
   201        120
   209         98
   213        123
   214        102
   215        382
   221        106
   227        107
   229         90
   235         91
   241         91
   251        101
   255         99
   271         96
   274         94
   291        154
   310         95
   330        415
   350        105