##TITLE=Library Entry 42911
##JCAMP-DX=Revision 4.10 
##DATA TYPE=MASS SPECTRUM
##SAMPLE DESCRIPTION=A.B.BARUA, DEP. BIOCHEM. BIOPHYS., IOWA STATE UNIV., AM
ES, USA
##NAMES=HP
##CAS NAME=4,4-Difluororetinoic acid (all-trans)
##MOLFORM=C20H26F2O2
##CAS REGISTRY NO=90660-20-1
##MP= -300
##BP= -300
##MW= 336
##$RETENTION INDEX=0
##$CONDENSED SPECTRUM=NO
##NPOINTS= 100
##XYDATA=(XY..XY) 1 
    55        335
    56        345
    57        345
    60        575
    61        468
    73        999
    74        131
    79        205
    83        136
    84        596
    85        335
    87        268
    91        606
    96        217
    97        733
    98        549
    99        340
   101        202
   105        468
   111        884
   113        260
   114        132
   115        239
   116        147
   117        255
   119        424
   125        500
   127        278
   128        224
   129        452
   130        184
   131        663
   132        258
   133        532
   138        151
   139        846
   140        394
   141        490
   142        220
   143        555
   144        208
   145        320
   146        200
   151        398
   152        378
   153        581
   154        183
   155        259
   156        257
   157        553
   158        249
   159        517
   160        162
   163        985
   164        496
   165        251
   166        186
   169        260
   170        119
   171        520
   172        158
   173        350
   174        154
   175        186
   176        286
   177        363
   178        119
   179        188
   180        161
   181        206
   183        261
   184        135
   185        301
   187        153
   193        473
   194        403
   195        304
   197        301
   199        279
   201        203
   207        182
   208        173
   209        214
   210        178
   211        167
   213        192
   215        342
   221        234
   222        201
   227        175
   236        335
   237        196
   242        141
   243        129
   251        173
   255        182
   291        135
   296        155
   316        467
   336        100