##TITLE=Library Entry 36171
##JCAMP-DX=Revision 4.10 
##DATA TYPE=MASS SPECTRUM
##SAMPLE DESCRIPTION=A.B.BARUA, DEP. BIOCHEM. BIOPHYS., IOWA STATE UNIV., AM
ES, USA
##NAMES=HP
##CAS NAME=4,4-Difluororetinol (all-trans)
##MOLFORM=C20H28F2O
##CAS REGISTRY NO=90660-21-2
##MP= -300
##BP= -300
##MW= 322
##$RETENTION INDEX=0
##$CONDENSED SPECTRUM=NO
##NPOINTS= 102
##XYDATA=(XY..XY) 1 
    55        483
    56        112
    57        398
    61        137
    67        201
    69        999
    70        148
    71        261
    73        175
    79        205
    80        142
    81        621
    82        220
    83        445
    84        121
    85        178
    87        105
    91        238
    92        127
    93        533
    94        250
    95        692
    96        333
    97        299
    98         99
    99        245
   105        494
   106        168
   107        691
   108        206
   109        447
   110        137
   111        264
   113        248
   117        216
   118        108
   119        748
   120        379
   121        439
   122        153
   123        263
   124        111
   125        241
   127        114
   129        159
   131        415
   132        404
   133        532
   134        127
   135        315
   136        178
   137        345
   138        130
   139        299
   140        105
   141        394
   143        268
   144        146
   145        652
   146        148
   147        296
   148        172
   149        343
   150        191
   151        215
   153        118
   155        144
   157        328
   158        107
   159        426
   160        127
   161        247
   162        115
   163        313
   164        117
   165        144
   167        117
   169        143
   171        294
   173        236
   175        173
   177        149
   178         99
   179        124
   183        185
   185        205
   187        116
   189         97
   191        119
   193        122
   195         99
   197        173
   199         92
   201         95
   209        107
   211        111
   213        225
   215        129
   291        666
   292        129
   304        214
   322        292