##TITLE=Library Entry 50317
##JCAMP-DX=Revision 4.10 
##DATA TYPE=MASS SPECTRUM
##SAMPLE DESCRIPTION=Chemical Concepts
##NAMES=HP
##CAS NAME=1-Norbornanecarboxylic acid, 7-oxo-, methyl ester
##MOLFORM=C9H12O3
##CAS REGISTRY NO=90673-79-3
##MP= -300
##BP= -300
##MW= 168
##$RETENTION INDEX=0
##$CONDENSED SPECTRUM=NO
##NPOINTS= 67
##XYDATA=(XY..XY) 1 
    26         24
    27        161
    28         31
    29         44
    31          8
    37          5
    38         17
    39        220
    40         85
    41        265
    42         20
    43         32
    45         19
    50         26
    51         57
    52         39
    53        179
    54         66
    55         77
    56          7
    57         10
    59         99
    61          5
    63          9
    65         38
    66         38
    67         48
    68         28
    69         35
    71         12
    72          4
    74         20
    77        100
    78         25
    79        477
    80        608
    81        999
    82         78
    83         18
    84          8
    85         10
    91         13
    93         45
    94          7
    95         14
    97         54
    98         10
    99          7
   105          5
   107         43
   108        274
   109        166
   110         16
   111         32
   112         24
   113          5
   125        119
   126         10
   136         24
   137        163
   138         14
   139         62
   140        336
   141         32
   153          4
   168        117
   169         13