##TITLE=Library Entry 60190
##JCAMP-DX=Revision 4.10 
##DATA TYPE=MASS SPECTRUM
##SAMPLE DESCRIPTION=Chemical Concepts
##NAMES=HP
##CAS NAME=3,5,7-Cycloheptatriene-1,3-dimethanol
##MOLFORM=C9H12O2
##CAS REGISTRY NO=90673-56-6
##MP= -300
##BP= -300
##MW= 152
##$RETENTION INDEX=0
##$CONDENSED SPECTRUM=NO
##NPOINTS= 83
##XYDATA=(XY..XY) 1 
    26         37
    27        290
    28         40
    29        143
    30          8
    31        213
    37         16
    38         63
    39        472
    40         69
    41        190
    42         15
    43         99
    44          8
    45          7
    47          6
    49          7
    50        101
    51        285
    52         86
    53        122
    54         16
    55        114
    56         10
    57         57
    58          9
    60          6
    61         17
    62         56
    63        153
    64         38
    65        263
    66         84
    67         66
    68         24
    69         11
    70          7
    73          7
    74         28
    75         36
    76         35
    77        887
    78        409
    79        395
    80         38
    81         35
    82          9
    83         12
    86          6
    87         10
    88          7
    89         69
    90         43
    91        999
    92        224
    93        198
    94         29
    95         36
    96          9
   101         11
   102         49
   103        696
   104        558
   105        746
   106        167
   107         62
   108          9
   115         72
   116         33
   117         50
   118         43
   119         65
   120         15
   121        361
   122         38
   131          8
   132          8
   133         98
   134        376
   135         42
   151         13
   152        339
   153         38