##TITLE=Library Entry 86299
##JCAMP-DX=Revision 4.10 
##DATA TYPE=MASS SPECTRUM
##SAMPLE DESCRIPTION=W.Jennings, T.Shibamoto
##NAMES=HP
##CAS NAME=2-Butanoyl-5-methylfuran
##MOLFORM=C9H12O2
##CAS REGISTRY NO=90673-55-5
##MP= -300
##BP= -300
##MW= 152
##$RETENTION INDEX=1192
##$CONDENSED SPECTRUM=NO
##NPOINTS= 28
##XYDATA=(XY..XY) 1 
    27         65
    29          7
    39          7
    41         43
    42         73
    43        134
    52         21
    53        261
    54         32
    55         42
    70          8
    71          8
    80          8
    81         61
    82        105
    95         42
   101          8
   108          8
   109        999
   110        105
   111          8
   123         21
   124        617
   125         62
   137        134
   138          9
   152        211
   153         21