##TITLE=Library Entry 79714
##JCAMP-DX=Revision 4.10 
##DATA TYPE=MASS SPECTRUM
##SAMPLE DESCRIPTION=Penn State Mass Spectrom.Center
##NAMES=HP
##CAS NAME=1-Benzoyl-4-chloropiperidine
##MOLFORM=C12H14ClNO
##CAS REGISTRY NO=90670-04-5
##MP= -300
##BP= -300
##MW= 223
##$RETENTION INDEX=0
##$CONDENSED SPECTRUM=NO
##NPOINTS= 73
##XYDATA=(XY..XY) 1 
    36         25
    38         13
    39         29
    41         42
    42         45
    43         45
    45          5
    50         29
    51        111
    52         18
    53         14
    54         12
    55         57
    56         29
    57         53
    60          8
    61          5
    65          9
    67         18
    68          8
    69         31
    70         12
    71         33
    73         27
    74          9
    75          9
    76         22
    77        487
    78         61
    79         12
    80         11
    81         18
    82         29
    83         22
    84         11
    85         20
    91         16
    93         10
    95         12
    97         19
    98          5
    99          5
   103          5
   104         17
   105        999
   106         91
   107         10
   109          5
   111          7
   113          3
   117          3
   118          7
   119          2
   121          3
   122          7
   132          4
   133          4
   134          6
   146          7
   147         11
   149         38
   174         12
   186         39
   187         28
   188         49
   189          5
   207          5
   209          2
   221         11
   222        446
   223         92
   224        149
   225         31