##TITLE=Library Entry 56751
##JCAMP-DX=Revision 4.10 
##DATA TYPE=MASS SPECTRUM
##SAMPLE DESCRIPTION=A.Pleshkova, Nesmeyanov Inst.Org.Elem.Cpds, Moscow
##NAMES=HP
##CAS NAME=N-Methoxy-N-methylamino-N,N-diethylaminomethane
##MOLFORM=C7H18N2O
##CAS REGISTRY NO=90691-20-6
##MP= -300
##BP= -300
##MW= 146
##$RETENTION INDEX=0
##$CONDENSED SPECTRUM=NO
##NPOINTS= 13
##XYDATA=(XY..XY) 1 
    30         40
    42         53
    43          5
    58         80
    59          7
    74         68
    75          5
    86        999
    87         40
   145         66
   146         97
   147          9
   148          1