##TITLE=Library Entry 27841
##JCAMP-DX=Revision 4.10 
##DATA TYPE=MASS SPECTRUM
##SAMPLE DESCRIPTION=Dennis Rohrbaugh, CBDCOM/ERDEC, Edgewood, MD
##NAMES=HP
##CAS NAME=S,S'-Bis(2-dimethylaminoethyl) methylphosphonodithioate
##MOLFORM=C9H23N2OPS2
##CAS REGISTRY NO=90723-34-5
##MP= -300
##BP= -300
##MW= 270
##$RETENTION INDEX=0
##$CONDENSED SPECTRUM=NO
##NPOINTS= 24
##XYDATA=(XY..XY) 1 
    30        141
    42        270
    43         98
    44        119
    45         26
    56         96
    57         37
    58        999
    59         45
    61         18
    70         46
    71        208
    72        128
    73         16
   102         12
   104          5
   105         10
   106          2
   167         60
   168          5
   169          2
   199         14
   200         13
   201          2