##TITLE=Library Entry 42543
##JCAMP-DX=Revision 4.10 
##DATA TYPE=MASS SPECTRUM
##SAMPLE DESCRIPTION=Chemical Concepts
##NAMES=HP
##CAS NAME=Malonic acid, bis(2-trimethylsilylethyl ester
##MOLFORM=C13H28O4Si2
##CAS REGISTRY NO=90744-45-9
##MP= -300
##BP= -300
##MW= 304
##$RETENTION INDEX=0
##$CONDENSED SPECTRUM=NO
##NPOINTS= 86
##XYDATA=(XY..XY) 1 
    27          3
    28          0
    29          7
    30          0
    31          4
    39          1
    41          2
    42          9
    43         45
    44         16
    45         51
    46          3
    47          8
    53          1
    55          4
    56          1
    57          5
    58         25
    59         28
    60          3
    61          8
    66         15
    67          1
    69          4
    70          1
    71          3
    72         41
    73        999
    74         81
    75        165
    76          9
    77          6
    83          0
    85         15
    86          2
    87          4
    88          5
    89          1
    90          0
    91          1
    99          6
   100          0
   101         37
   102          3
   103          1
   109          2
   115          3
   116         13
   117         15
   118          1
   119          1
   129          0
   131          4
   132          1
   133          4
   134          0
   141          1
   142          0
   143         13
   144          1
   145          0
   146          0
   147        290
   148         45
   149         24
   150          2
   159          8
   160          2
   161          3
   162          2
   189          3
   204         62
   205         11
   206          4
   217          0
   231          0
   233         16
   234          3
   235          1
   248          0
   249          4
   250          1
   261         18
   262          4
   263          1
   289          0