##TITLE=Library Entry 76194
##JCAMP-DX=Revision 4.10 
##DATA TYPE=MASS SPECTRUM
##SAMPLE DESCRIPTION=A.A.Kutin, Moscow, Russia
##NAMES=HP
##CAS NAME=Pyridazine, 3-chloro-6-phenyl-, 1-oxide
##MOLFORM=C10H7ClN2O
##CAS REGISTRY NO=90767-35-4
##MP= -300
##BP= -300
##MW= 206
##$RETENTION INDEX=0
##$CONDENSED SPECTRUM=NO
##NPOINTS= 137
##XYDATA=(XY..XY) 1 
    35         20
    36          6
    37         45
    38         64
    39        105
    40          6
    41          1
    43          3
    45          0
    47         22
    48         11
    49         55
    50        276
    51        283
    52        122
    53         16
    54          1
    55          1
    56          1
    57          0
    60        151
    61         65
    62        130
    63        162
    65         22
    66          1
    68         15
    69          3
    70          0
    71          1
    72         16
    73         69
    74        184
    75        150
    76        225
    77        137
    78         14
    79          4
    81         25
    82          8
    84         20
    85         35
    86         59
    87         74
    88         16
    89         16
    90          3
    91          2
    92          1
    93          2
    94          0
    95          1
    96          8
    97         23
    98         48
    99         42
   100         36
   102        999
   103         95
   104          8
   105          1
   106          1
   108          7
   109          5
   110          7
   111          5
   112          3
   113          7
   114          4
   115          7
   116          2
   117          0
   118          0
   119          1
   120          2
   121          5
   122          4
   123          7
   124          3
   126         75
   127         80
   128         10
   129          0
   132          1
   133          0
   134          1
   136         37
   138         13
   139          1
   140          3
   141          1
   142          0
   143          1
   144          0
   145          0
   147          0
   149          2
   150          0
   151          0
   152          1
   153          2
   154          1
   155          4
   156          0
   157          0
   159          1
   162        331
   163         38
   164         95
   165          9
   166          0
   171          5
   172          1
   173          0
   175          0
   176          1
   177          0
   178          1
   179          0
   180          0
   185          0
   186          0
   187          2
   188         13
   190        573
   191         81
   192        165
   193         18
   194          0
   196          0
   202          0
   204          1
   205          9
   206         16
   207          3
   208          5
   209          0