##TITLE=Library Entry 76618
##JCAMP-DX=Revision 4.10 
##DATA TYPE=MASS SPECTRUM
##SAMPLE DESCRIPTION=A.A.Kutin, Moscow, Russia
##NAMES=HP
##CAS NAME=1,4-Dicinnamoylbenzene
##MOLFORM=C24H18O2
##CAS REGISTRY NO=908-11-2
##MP= -300
##BP= -300
##MW= 338
##$RETENTION INDEX=0
##$CONDENSED SPECTRUM=NO
##NPOINTS= 131
##XYDATA=(XY..XY) 1 
    38          9
    39         54
    40         28
    41         16
    42          9
    43         85
    45         20
    50        123
    51        280
    52         42
    53         31
    55         19
    56          6
    57         13
    60         14
    62         14
    63         53
    64          7
    65         12
    69          5
    70          5
    71          7
    74         34
    75         86
    76        260
    77        746
    78         61
    79          6
    87          9
    88         10
    89         33
    91         28
   100          5
   101         33
   102        150
   103        999
   104        150
   105         80
   106          8
   111          2
   112          4
   113          6
   114          3
   115         13
   116          4
   117         21
   118          4
   119          6
   131        960
   132        105
   133         10
   134          0
   135          1
   137          1
   138          3
   139         13
   140          4
   141          4
   143          0
   145          2
   146          1
   147         17
   148          2
   149          5
   150          8
   151         19
   152         35
   153         16
   154         24
   155          8
   156          0
   157          1
   159          1
   160          2
   161          0
   162          0
   163          3
   164          4
   165         16
   166          3
   168        251
   169         79
   171          2
   172          0
   173          0
   174          0
   175          3
   176         29
   177         35
   178        241
   179         90
   180         13
   181          2
   182          0
   183          0
   187          1
   188          1
   189         11
   190          4
   191          8
   192          3
   193          0
   200          0
   201          0
   202          5
   203          9
   204          4
   205         20
   206         34
   207        178
   208         32
   209          3
   215          3
   216          0
   217          0
   218          2
   219          5
   220          1
   235         85
   236         12
   249         16
   250         17
   307          0
   309         17
   310          7
   311          1
   337        259
   338        240
   339         58
   340          8
   341          0