##TITLE=Library Entry 88374
##JCAMP-DX=Revision 4.10 
##DATA TYPE=MASS SPECTRUM
##SAMPLE DESCRIPTION=C. VERKOYEN,INST. HYG. ARBEITSMED.,KLINIK ESSEN, ESSEN,
W. GER.
##NAMES=HP
##CAS NAME=4,5-Dihydro-.beta.,.beta.,4,4-tetramethyl-1H-pyrazole-1-propanol
##MOLFORM=C10H20N2O
##CAS REGISTRY NO=90832-26-1
##MP= -300
##BP= -300
##MW= 184
##$RETENTION INDEX=0
##$CONDENSED SPECTRUM=NO
##NPOINTS= 19
##XYDATA=(XY..XY) 1 
    55         80
    56         70
    57         20
    68         10
    69         20
    70         10
    82         20
    83         80
    84         60
    97         20
    98        120
    99         10
   111        999
   112        100
   153         30
   154         10
   169         10
   184         90
   185         10