##TITLE=Library Entry 70580
##JCAMP-DX=Revision 4.10 
##DATA TYPE=MASS SPECTRUM
##SAMPLE DESCRIPTION=C. VERKOYEN,INST. HYG. ARBEITSMED.,KLINIK ESSEN, ESSEN,
W. GER.
##NAMES=HP
##CAS NAME=3,3,7,7-Tetramethyl-5-oxa-1,9-diazabicyclo[4.3.0]non-8-ene
##MOLFORM=C10H18N2O
##CAS REGISTRY NO=90832-25-0
##MP= -300
##BP= -300
##MW= 182
##$RETENTION INDEX=0
##$CONDENSED SPECTRUM=NO
##NPOINTS= 41
##XYDATA=(XY..XY) 1 
    53         20
    54         10
    55        180
    56        340
    57        190
    58         10
    59         10
    67         20
    68         50
    69        190
    70        280
    71         50
    72         20
    80         10
    81         10
    82         50
    83        280
    84         60
    85         20
    86         10
    95         20
    96         20
    97        999
    98        260
    99         40
   100         10
   109         20
   110         10
   111        120
   112         70
   113         40
   114         50
   125         30
   126         20
   127         40
   142         40
   152         50
   153         40
   167         10
   182        410
   183         50