##TITLE=Library Entry 842
##JCAMP-DX=Revision 4.10 
##DATA TYPE=MASS SPECTRUM
##SAMPLE DESCRIPTION=Chemical Concepts
##NAMES=HP
##CAS NAME=Cyclopropane-1,2-dicarboxylic acid, 3-(2,2-diphenylethenyl)-, die
thyl ester
##MOLFORM=C23H24O4
##CAS REGISTRY NO=90909-56-1
##MP= -300
##BP= -300
##MW= 364
##$RETENTION INDEX=0
##$CONDENSED SPECTRUM=NO
##NPOINTS= 186
##XYDATA=(XY..XY) 1 
    26         17
    27        176
    29        999
    30         18
    31         10
    38          1
    39         37
    41          7
    42          2
    43         13
    44          1
    45          9
    47          3
    50          6
    51         25
    52          6
    53          4
    54          3
    55         19
    57          2
    59          2
    62          2
    63         19
    64          1
    65         15
    66          0
    69          2
    70          1
    71          3
    73          0
    74          3
    75          5
    76          6
    77         28
    78          7
    79          8
    81          0
    82          3
    83          1
    84          2
    86          1
    87          5
    88          3
    89         13
    90          1
    91         71
    92          4
    94          1
    95          6
    97          5
    99         33
   100          3
   101         10
   102          8
   103         12
   105         15
   106          2
   107          4
   108          3
   112          4
   113          5
   114          4
   115         68
   117          9
   119          2
   123          1
   125          1
   126          3
   127         53
   128         17
   129         16
   130          1
   131          6
   132          1
   133          1
   135          1
   137          1
   138          1
   139         29
   140          7
   141         39
   142          7
   143          3
   144          1
   145          9
   150          4
   151          4
   152         13
   153          3
   154          1
   155          1
   156          1
   157          8
   158          1
   163          9
   164          5
   165         34
   166          8
   167          8
   168          3
   169          6
   171          1
   173         16
   174          3
   175          2
   176          9
   177          6
   178         12
   179          7
   180         10
   181          1
   183          1
   185          9
   186          1
   187          6
   188          6
   189         54
   190         28
   191        118
   192         80
   193          7
   200          4
   201         12
   202        184
   203        106
   204         75
   205         36
   206          7
   207          5
   213         19
   214         12
   215        195
   216        127
   217        554
   218        181
   219         44
   220          8
   221          1
   226          6
   227         31
   228         12
   229          6
   230          4
   231         20
   232          6
   233         14
   234          4
   235          4
   236          2
   237          4
   241          4
   243         13
   244        116
   245        417
   246         76
   247         13
   248          7
   249          4
   259          1
   260          2
   261        116
   262         48
   263         13
   264         21
   265          3
   271          2
   272         79
   273         41
   274          6
   275          1
   276         10
   277          6
   278          2
   289         34
   290        687
   291        183
   292         28
   293          3
   307          2
   318        111
   319         27
   320          5
   335          2
   364         71
   365         20
   366          3