##TITLE=Library Entry 88549
##JCAMP-DX=Revision 4.10 
##DATA TYPE=MASS SPECTRUM
##SAMPLE DESCRIPTION=V.G. Zaikin, TIPS RAS, Moscow, Russia
##NAMES=HP
##CAS NAME=2-Thiophenecarboxylic acid, pentyl ester
##MOLFORM=C10H14O2S
##CAS REGISTRY NO=90926-28-6
##MP= -300
##BP= -300
##MW= 198
##$RETENTION INDEX=0
##$CONDENSED SPECTRUM=NO
##NPOINTS= 57
##XYDATA=(XY..XY) 1 
    26         19
    27        101
    28          4
    29        115
    30          8
    31          8
    36          6
    37         16
    38         38
    39        307
    40         21
    41        137
    42         69
    43         79
    44         21
    45         49
    49          6
    50         15
    51         19
    52          8
    53         27
    54          3
    55          8
    56          9
    57         88
    58         27
    59          9
    66          7
    69         21
    70        101
    71          8
    77          7
    81         25
    82         35
    83         91
    84         25
    85         35
    87          3
    95          6
    97          3
   100          3
   109          3
   110          9
   111        999
   112         79
   113         53
   126          3
   128        548
   129        307
   130         48
   131         16
   141          3
   165          3
   169          6
   198         75
   199          6
   200          3