##TITLE=Library Entry 15321
##JCAMP-DX=Revision 4.10 
##DATA TYPE=MASS SPECTRUM
##SAMPLE DESCRIPTION=A. Brossi, LC, NIDDK, NIH, Bethesda, MD 20892
##NAMES=HP
##CAS NAME=Dihydroartemisinin, 6-deshydro-5-deshydroxy-3-desoxy-
##MOLFORM=C15H22O3
##CAS REGISTRY NO=90935-14-1
##MP= -300
##BP= -300
##MW= 250
##$RETENTION INDEX=0
##$CONDENSED SPECTRUM=NO
##NPOINTS= 171
##XYDATA=(XY..XY) 1 
    41        458
    43        862
    44        999
    45        109
    46         10
    47          1
    48         52
    49         24
    50         15
    51         46
    52         21
    53         86
    54         31
    55        234
    56         59
    57        111
    58         28
    59         16
    60         31
    61         15
    63         19
    65         50
    66         20
    67         94
    68         42
    69        111
    70         39
    71         90
    72          6
    73         30
    74          2
    75          4
    77        102
    78         31
    79        103
    80         23
    81         96
    82         52
    83         83
    84         52
    85         37
    86         13
    87          5
    88          2
    89          2
    91        107
    92         16
    93        132
    94         43
    95        155
    96         41
    97         93
    98         27
    99         20
   100          4
   101          1
   103         19
   104         15
   105         92
   106         40
   107         79
   108         43
   109         72
   110         16
   111         66
   112         17
   113          7
   114          1
   115         25
   116          1
   117         28
   118          1
   119         54
   120         20
   121         77
   122         75
   123         53
   124         30
   125         41
   126          5
   127          7
   128         10
   129         21
   130          3
   131         57
   132         13
   133         84
   134         36
   135         62
   136         48
   137         33
   138         20
   139         13
   140          1
   141         16
   142          2
   143         14
   144          4
   145         65
   146         14
   147        115
   148         38
   149         82
   150         13
   151         79
   152         20
   153         12
   154          1
   155          3
   156          4
   157         16
   159         29
   160         16
   161         75
   162         65
   163        201
   164        365
   165        163
   166         21
   167          2
   168          5
   169          7
   170          1
   171         10
   173          7
   174         23
   175         47
   176         15
   177         17
   179         65
   180         31
   182          4
   183          5
   184          1
   185          7
   187          1
   189         58
   190         27
   191         14
   192         18
   193         20
   194         17
   195          2
   197          1
   199          8
   201          5
   202          2
   203         17
   204          1
   205          6
   207         34
   208         34
   209          2
   210          1
   217         11
   218         14
   219          4
   221         18
   222         45
   223          1
   224          1
   227          1
   228          1
   231          2
   233          3
   235          5
   241          1
   243          1
   250        198
   251         50
   253          5