##TITLE=Library Entry 70505
##JCAMP-DX=Revision 4.10 
##DATA TYPE=MASS SPECTRUM
##SAMPLE DESCRIPTION=P.A. Leclercq, Lab. Instrum. Anal., Eindhoven Univ. Tec
hnol., Netherlands
##NAMES=HP
##CAS NAME=[1,1'-Bicyclohexyl]-4-carboxylic acid, 4'-pentyl-, 4-pentylphenyl
 ester
##MOLFORM=C29H46O2
##CAS REGISTRY NO=90937-43-2
##MP= -300
##BP= -300
##MW= 426
##$RETENTION INDEX=0
##$CONDENSED SPECTRUM=NO
##NPOINTS= 52
##XYDATA=(XY..XY) 1 
    41        470
    42         47
    43        146
    50         22
    53         70
    55        802
    56         48
    57        278
    63         20
    64         28
    67        457
    69        782
    70         42
    71         58
    75         36
    77         36
    79        137
    81        542
    83        759
    84         66
    90         44
    93         47
    95        340
    97        999
    98         75
   102         34
   107         27
   109        308
   111        505
   112         44
   113         27
   119         66
   120         23
   121         43
   123        277
   125        364
   126         34
   135         33
   137        307
   139        851
   140         92
   149         23
   151        188
   153        228
   154         23
   165        115
   167         22
   179         82
   235        532
   236         77
   263        370
   264         78