##TITLE=Library Entry 25775
##JCAMP-DX=Revision 4.10 
##DATA TYPE=MASS SPECTRUM
##SAMPLE DESCRIPTION=ASES Database, Dalian Institute, P.R. China
##NAMES=HP
##CAS NAME=2-tert-Butyl-3,4,5,6-tetrahydropyridine
##MOLFORM=C9H17N
##CAS REGISTRY NO=90949-17-0
##MP= -300
##BP= -300
##MW= 139
##$RETENTION INDEX=0
##$CONDENSED SPECTRUM=NO
##NPOINTS= 18
##XYDATA=(XY..XY) 1 
    41        287
    43        179
    55        307
    56        210
    57        999
    69        129
    70        308
    71         50
    82         80
    83        361
    84        160
    96         29
    97        150
    98        110
   112         39
   124        158
   138         30
   139         19