##TITLE=Library Entry 41514
##JCAMP-DX=Revision 4.10 
##DATA TYPE=MASS SPECTRUM
##SAMPLE DESCRIPTION=B.R. PETTIT, QUEEN CHARLOTTE'S MAT. HOSP., LONDON, U.K.
##NAMES=HP
##CAS NAME=5-Methyl-3-isoxazolepropanoic acid trimethylsilyl ester
##MOLFORM=C10H17NO3Si
##CAS REGISTRY NO=90965-77-8
##MP= -300
##BP= -300
##MW= 227
##$RETENTION INDEX=0
##$CONDENSED SPECTRUM=NO
##NPOINTS= 49
##XYDATA=(XY..XY) 1 
    41          6
    42         43
    43         24
    44         43
    45        210
    47        142
    51         12
    52         24
    53         12
    54         55
    55        197
    56         12
    58         49
    59         67
    61         80
    65         12
    66         12
    68         18
    70          6
    72         18
    73        999
    74        129
    75        790
    76         62
    77         80
    82        129
    93         92
    94         12
    95         43
    96         55
    99         12
   109        420
   110        253
   112         86
   129         55
   137         80
   138        438
   139         12
   147         18
   148          6
   149         12
   157         18
   168         12
   182        154
   184         37
   212        691
   213        105
   214         12
   227         67