##TITLE=Library Entry 69174
##JCAMP-DX=Revision 4.10 
##DATA TYPE=MASS SPECTRUM
##SAMPLE DESCRIPTION=Chemical Concepts
##NAMES=HP
##CAS NAME=9,9-Dimethyl-3,7-diazabicyclo[3.3.1]nonane-2,4,6,8-tetraone
##MOLFORM=C9H10N2O4
##CAS REGISTRY NO=90961-73-2
##MP= -300
##BP= -300
##MW= 210
##$RETENTION INDEX=0
##$CONDENSED SPECTRUM=NO
##NPOINTS= 117
##XYDATA=(XY..XY) 1 
    26         19
    27        286
    28         76
    29         86
    30          8
    31          2
    35         18
    36         18
    37         15
    38         51
    39        442
    40         71
    41        335
    42         76
    43         85
    44         69
    45          6
    46          1
    49          5
    50         45
    51         88
    52         92
    53        691
    54         77
    55        313
    56         26
    57          8
    58          5
    59          2
    60          1
    61          2
    62          5
    63         13
    64         12
    65         50
    66         67
    67        342
    68        136
    69        123
    70        447
    71         16
    72          3
    73          1
    74          1
    75          1
    76          2
    77          6
    78         10
    79         13
    80         41
    81        345
    82        531
    83        597
    84         30
    85         13
    86         21
    87          1
    91          2
    92          7
    93         10
    94         37
    95         96
    96        999
    97         60
    98         26
    99         17
   100          5
   101          1
   102          2
   103          0
   105          1
   106          2
   107         12
   108         31
   109        109
   110         45
   111        108
   112         46
   113          3
   120          1
   121          7
   122         11
   123         35
   124         35
   125         16
   126         35
   127          6
   128          8
   129          1
   134          4
   135          1
   136          1
   137          9
   138         23
   139         95
   140         12
   141          2
   149          2
   150          4
   151         23
   152         85
   153          8
   154          1
   164          6
   165         14
   166         26
   167        426
   168         28
   169          4
   181         10
   182          2
   192          2
   193          3
   209        205
   210        312
   211         34
   212          3