##TITLE=Library Entry 1050
##JCAMP-DX=Revision 4.10 
##DATA TYPE=MASS SPECTRUM
##SAMPLE DESCRIPTION=I.G. Zenkevich, A.A. Zhdanov Leningrad State Univ., Len
ingrad, USSR
##NAMES=HP
##CAS NAME=Diazene, 2-methoxy-1-methyl-, 1-oxide
##MOLFORM=C2H6N2O2
##CAS REGISTRY NO=90994-12-0
##MP= -300
##BP= -300
##MW= 90
##$RETENTION INDEX=0
##$CONDENSED SPECTRUM=NO
##NPOINTS= 13
##XYDATA=(XY..XY) 1 
    28         90
    29        130
    30        999
    31         70
    42         40
    43        150
    44         80
    45        920
    46         30
    60         40
    75        450
    90        560
    91         16