##TITLE=Library Entry 82821
##JCAMP-DX=Revision 4.10 
##DATA TYPE=MASS SPECTRUM
##SAMPLE DESCRIPTION=NIST Mass Spectrometry Data Center, 2011
##NAMES=HP
##CAS NAME=Benzhydrylamine
##MOLFORM=C13H13N
##CAS REGISTRY NO=91-00-9
##MP= -300
##BP= -300
##MW= 183
##$RETENTION INDEX=1589
##$CONDENSED SPECTRUM=NO
##NPOINTS= 97
##XYDATA=(XY..XY) 1 
    26          1
    27         10
    28         95
    29          3
    30          3
    37          1
    38          5
    39         30
    40          2
    41          3
    42          1
    49          2
    50         45
    51        136
    52         36
    53         13
    54          5
    55          1
    56          1
    61          2
    62          9
    63         27
    64          6
    65         12
    66          2
    67          1
    69          6
    70          3
    73          1
    74         15
    75         14
    76         28
    77        286
    78         59
    79        214
    80         15
    82         19
    85          1
    86          4
    87          6
    88          3
    89         18
    90         20
    93          1
    98          2
    99          2
   100          2
   101          3
   102          8
   104        373
   105        554
   106        999
   107         81
   108          3
   110          1
   111          1
   113          5
   114          3
   115         22
   116          4
   117          1
   125          1
   126          6
   127          8
   128         12
   129          3
   130          1
   137          1
   138          2
   139         16
   140          4
   141          3
   142          1
   143          1
   150          3
   151         10
   152         45
   153         12
   154          7
   155          5
   156          2
   162          1
   163         13
   164         17
   165        101
   166         38
   167         30
   168          6
   177          1
   178          1
   179          1
   180         23
   181          6
   182        125
   183        183
   184         26
   185          2