##TITLE=Library Entry 78864
##JCAMP-DX=Revision 4.10 
##DATA TYPE=MASS SPECTRUM
##SAMPLE DESCRIPTION=Tox21 Consortium/NIST Mass Spectrometry Data Center, 20
12
##NAMES=HP
##CAS NAME=Benzenemethanol, .alpha.-phenyl-
##MOLFORM=C13H12O
##CAS REGISTRY NO=91-01-0
##MP= -300
##BP= -300
##MW= 184
##$RETENTION INDEX=1653
##$CONDENSED SPECTRUM=NO
##NPOINTS= 93
##XYDATA=(XY..XY) 1 
    26          2
    27         12
    29          9
    37          2
    38          6
    39         33
    40          2
    41          1
    49          2
    50         53
    51        170
    52         37
    53         19
    54          1
    55          3
    56          1
    57          1
    61          2
    62         11
    63         30
    64          8
    65          9
    66          1
    67          1
    69          7
    74         22
    75         20
    76         34
    77        528
    78        372
    79        302
    80         18
    82         22
    85          2
    86          6
    87          8
    88          4
    89         18
    90          4
    91          9
    92          4
    98          4
    99          2
   100          1
   101          3
   102          8
   103          3
   105        999
   106        102
   107        116
   108          9
   109          1
   110          1
   111          2
   113          5
   114          3
   115         29
   116          3
   122          1
   125          1
   126          8
   127         11
   128         18
   129          8
   130          1
   137          2
   138          2
   139         19
   140          3
   141          6
   142          1
   150          3
   151         12
   152         52
   153         26
   154         10
   155         27
   156          4
   157          1
   162          2
   163         15
   164         19
   165        120
   166         34
   167         31
   168         12
   169          4
   181          8
   182         11
   183        141
   184        346
   185         45
   186          3