##TITLE=Library Entry 47065
##JCAMP-DX=Revision 4.10 
##DATA TYPE=MASS SPECTRUM
##SAMPLE DESCRIPTION=D.HENNEBERG, MAX-PLANCK INSTITUTE, MULHEIM, WEST GERMAN
Y
##NAMES=HP
##CAS NAME=Methanone, phenyl-2-pyridinyl-
##MOLFORM=C12H9NO
##CAS REGISTRY NO=91-02-1
##MP= -300
##BP= -300
##MW= 183
##$RETENTION INDEX=0
##$CONDENSED SPECTRUM=NO
##NPOINTS= 108
##XYDATA=(XY..XY) 1 
    26         31
    27         53
    28        103
    29          8
    30          2
    31          1
    34          1
    37          1
    38          4
    39         30
    40          5
    41          7
    42          2
    43          3
    44          2
    45          1
    47          0
    48          0
    49          2
    50         35
    51        319
    52         62
    53          8
    54          5
    55          1
    56          5
    57         14
    58          0
    59          0
    62          2
    63          8
    64          5
    65         22
    66         35
    67          5
    68          0
    69          1
    70          0
    71          1
    73          1
    74          2
    75         10
    76         50
    77        999
    78        183
    79         21
    80          2
    81          0
    84          0
    85          0
    86          1
    87          1
    88          1
    89          4
    90          1
    91          6
    92         10
    93        104
    94          7
    95          0
    99          0
   100          1
   101          8
   102         11
   103          6
   104          9
   105        794
   106         64
   107          4
   113          1
   114          1
   115          5
   116          1
   117          1
   118          0
   119          0
   125          1
   126         12
   127         48
   128         31
   129          5
   130          1
   133          1
   137          0
   138          0
   139          2
   140          3
   141          1
   149          0
   151          0
   152          5
   153         29
   154        203
   155        773
   156         95
   157          5
   164          0
   165          1
   166          3
   167         14
   168         40
   169         10
   170          1
   180          0
   181          6
   182        407
   183        301
   184         36