##TITLE=Library Entry 114885
##JCAMP-DX=Revision 4.10 
##DATA TYPE=MASS SPECTRUM
##SAMPLE DESCRIPTION=Japan AIST/NIMC Database- Spectrum MS-NW-3560
##NAMES=HP
##CAS NAME=Quinoxaline
##MOLFORM=C8H6N2
##CAS REGISTRY NO=91-19-0
##MP= -300
##BP= -300
##MW= 130
##$RETENTION INDEX=1229
##$CONDENSED SPECTRUM=NO
##NPOINTS= 53
##XYDATA=(XY..XY) 1 
    25          2
    26         20
    27         11
    28         11
    36          3
    37         23
    38         24
    39         17
    40          5
    41          1
    44          1
    48          2
    49         10
    50        170
    51         64
    52         46
    53          8
    60          2
    61          7
    62          8
    63         12
    64         18
    65         28
    72          1
    73          8
    74         38
    75         72
    76        457
    77         48
    78          8
    79          2
    81          1
    82          1
    86          1
    87          2
    88          2
    89          1
    90          4
    91          1
    99          4
   100          3
   101          3
   102         39
   103        537
   104         46
   105          2
   127          1
   128          1
   129         20
   130        999
   131        100
   132          5
   133          1