##TITLE=Library Entry 47129
##JCAMP-DX=Revision 4.10 
##DATA TYPE=MASS SPECTRUM
##SAMPLE DESCRIPTION=NIST Mass Spectrometry Data Center, 1990.
##NAMES=HP
##CAS NAME=Benzene, 1-methoxy-2-nitro-
##MOLFORM=C7H7NO3
##CAS REGISTRY NO=91-23-6
##MP= -300
##BP= -300
##MW= 153
##$RETENTION INDEX=1368
##$CONDENSED SPECTRUM=NO
##NPOINTS= 68
##XYDATA=(XY..XY) 1 
    14         13
    15         56
    16          7
    18          5
    25          5
    26         31
    27         43
    28         30
    29         35
    30        140
    31         33
    32          3
    36          7
    37         56
    38        155
    39        139
    40         15
    41         95
    42          6
    43          6
    44          5
    45          4
    46         19
    49         30
    50        256
    51        410
    52        167
    53         95
    54         11
    55         13
    60          7
    61         42
    62        112
    63        432
    64        406
    65        284
    66         29
    67         30
    68          5
    73         17
    74         80
    75         60
    76        113
    77        999
    78        312
    79        118
    80         69
    81          6
    92        584
    93        167
    94         32
    95        178
    96         22
   104          3
   106        890
   107         70
   108         14
   109          3
   120          3
   121          3
   123        383
   124         55
   125          3
   136          9
   137          6
   153        493
   154         45
   155          6