##TITLE=Library Entry 99888
##JCAMP-DX=Revision 4.10 
##DATA TYPE=MASS SPECTRUM
##SAMPLE DESCRIPTION=D.HENNEBERG, MAX-PLANCK INSTITUTE, MULHEIM, WEST GERMAN
Y
##NAMES=HP
##CAS NAME=1H-Indole-2,3-dione
##MOLFORM=C8H5NO2
##CAS REGISTRY NO=91-56-5
##MP= -300
##BP= -300
##MW= 147
##$RETENTION INDEX=1712
##$CONDENSED SPECTRUM=NO
##NPOINTS= 71
##XYDATA=(XY..XY) 1 
    26          6
    27         15
    28         16
    29          3
    33          0
    37         26
    38        118
    39        129
    40         22
    41         43
    42          1
    43          1
    44          1
    45          2
    46          2
    49          1
    50        123
    51         33
    52        113
    53         17
    54          2
    55          0
    59          8
    60          0
    61          5
    62         60
    63        350
    64        397
    65         96
    66          9
    67          4
    68          0
    70          0
    71          5
    72          0
    74         27
    75         36
    76         91
    77         14
    78          3
    79          0
    80          0
    87          1
    88          7
    89          9
    90        112
    91        216
    92        726
    93         52
    94          3
    96          1
    97          2
   102          0
   103          1
   104          8
   105          1
   106          0
   117          1
   118          6
   119        999
   120         79
   121          4
   122          0
   123          1
   133          2
   134          0
   143          0
   146          5
   147        389
   148         37
   149          4