##TITLE=Library Entry 89361
##JCAMP-DX=Revision 4.10 
##DATA TYPE=MASS SPECTRUM
##SAMPLE DESCRIPTION=RADIAN CORP
##NAMES=HP
##CAS NAME=Cyclohexanamine, N,N-diethyl-
##MOLFORM=C10H21N
##CAS REGISTRY NO=91-65-6
##MP= -300
##BP= -300
##MW= 155
##$RETENTION INDEX=1111
##$CONDENSED SPECTRUM=NO
##NPOINTS= 64
##XYDATA=(XY..XY) 1 
    15          3
    18          3
    26          2
    27         45
    28         67
    29         84
    30         29
    39         41
    40          7
    41        127
    42         90
    43         22
    44         80
    46          1
    51          4
    52          3
    53         32
    54         49
    55        131
    56        315
    57         24
    58        223
    59          8
    65          5
    66          3
    67         20
    68         20
    69         22
    70         72
    71        134
    72         58
    73          2
    77          8
    79         14
    80          6
    81         15
    82         22
    83         27
    84        130
    85         12
    86         34
    94          2
    95          1
    96         18
    97          3
    98         57
    99         60
   100          3
   108          1
   110         13
   111          3
   112        999
   113         81
   114          3
   124          2
   126         30
   127          2
   138          2
   140        128
   141         13
   153          1
   154         12
   155        167
   156         18