##TITLE=Library Entry 54084
##JCAMP-DX=Revision 4.10 
##DATA TYPE=MASS SPECTRUM
##SAMPLE DESCRIPTION=AAFS Toxicology Section MS DB Committee, U. Alberta, Ca
nada
##NAMES=HP
##CAS NAME=Antazoline
##MOLFORM=C17H19N3
##CAS REGISTRY NO=91-75-8
##MP= -300
##BP= -300
##MW= 265
##$RETENTION INDEX=2318
##$CONDENSED SPECTRUM=NO
##NPOINTS= 82
##XYDATA=(XY..XY) 1 
    39          4
    40          1
    41          3
    42          6
    43          2
    44          5
    50          2
    51         13
    52          2
    53          1
    54          9
    55         31
    56          5
    57          2
    63          5
    64          2
    65         33
    66          4
    68          1
    69          3
    71          2
    74          1
    75          1
    76          3
    77         72
    78         10
    79          3
    81          7
    82          4
    83          8
    84        999
    85         58
    86          2
    89          8
    90          5
    91        180
    92         16
    93          6
   102          1
   103          2
   104         37
   105         12
   106         17
   107          1
   115          1
   116          3
   117          4
   118          6
   119          1
   127          1
   128          1
   129          2
   130          2
   131          2
   132          4
   143          1
   145          4
   151          1
   152          4
   153          1
   154          1
   159          8
   160          1
   161          1
   165          2
   166          1
   167          1
   171          1
   172         10
   173          4
   174          3
   180         27
   181         10
   182         68
   183         12
   184          1
   186          1
   193          1
   194          3
   196          3
   265         10
   266          2