##TITLE=Library Entry 28802
##JCAMP-DX=Revision 4.10 
##DATA TYPE=MASS SPECTRUM
##SAMPLE DESCRIPTION=NIST Mass Spectrometry Data Center, 1998.
##NAMES=HP
##CAS NAME=Thenyldiamine
##MOLFORM=C14H19N3S
##CAS REGISTRY NO=91-79-2
##MP= -300
##BP= -300
##MW= 261
##$RETENTION INDEX=1999
##$CONDENSED SPECTRUM=NO
##NPOINTS= 148
##XYDATA=(XY..XY) 1 
    15          3
    26          1
    27          8
    28          1
    29          8
    30         28
    37          1
    38          3
    39         19
    40          3
    41          8
    42         87
    43         23
    44         16
    45         65
    46          2
    47          5
    49          1
    50          6
    51         42
    52         38
    53         62
    54          7
    55          4
    56         34
    57         28
    58        999
    59         45
    60          1
    62          1
    63          4
    64          3
    65          7
    66          5
    67          6
    68          1
    69         13
    70         19
    71        249
    72        259
    73         14
    75          1
    76          2
    77          3
    78         99
    79         94
    80         14
    81          2
    82          2
    83          2
    84          2
    85          3
    89          1
    90          1
    91          2
    92          5
    93         10
    94          5
    95          6
    96          1
    97        823
    98         59
    99         45
   100          3
   101          1
   102          1
   103          1
   104          1
   105         16
   106          8
   107         20
   108          2
   109          3
   110          5
   111          3
   112         18
   113          1
   114          1
   115          1
   116          1
   117          2
   118          3
   119         41
   120          6
   121          9
   122          2
   123          2
   124          3
   125          2
   128          1
   129          1
   130          3
   131          3
   132          1
   133          3
   134          3
   135          9
   136          2
   138          1
   140          1
   141          1
   142          1
   143          2
   144          1
   145          2
   146          1
   147          1
   148          1
   155          2
   156          3
   157         14
   158          2
   160          2
   161          1
   162          6
   163          5
   164          1
   167          1
   168          1
   169          6
   170          2
   172          1
   173          3
   174          4
   175          3
   176          1
   178          1
   186          1
   187          4
   188          1
   189         39
   190        109
   191        150
   192         22
   193          8
   194          1
   201          3
   203        123
   204         16
   205          7
   206          1
   215          2
   216          2
   217          6
   218          1
   261         27
   262          5
   263          2