##TITLE=Library Entry 77250
##JCAMP-DX=Revision 4.10 
##DATA TYPE=MASS SPECTRUM
##SAMPLE DESCRIPTION=E. SCHUMACHER INORG. CHEM. INST., UNIV., ZURICH, SWITZE
RLAND
##NAMES=HP
##CAS NAME=1,3,5-Triazine, hexahydro-1,3,5-triphenyl-
##MOLFORM=C21H21N3
##CAS REGISTRY NO=91-78-1
##MP= -300
##BP= -300
##MW= 315
##$RETENTION INDEX=0
##$CONDENSED SPECTRUM=NO
##NPOINTS= 16
##XYDATA=(XY..XY) 1 
    51         50
    65         51
    76         15
    77        330
    78         62
   104        999
   105        853
   106        112
   154          4
   182          4
   196          6
   209         49
   210         92
   211         45
   315         54
   316         11