##TITLE=Library Entry 64344
##JCAMP-DX=Revision 4.10 
##DATA TYPE=MASS SPECTRUM
##SAMPLE DESCRIPTION=Japan AIST/NIMC Database- Spectrum MS-NW- 402
##NAMES=HP
##CAS NAME=Benzenemethanamine, N-phenyl-N-(phenylmethyl)-
##MOLFORM=C20H19N
##CAS REGISTRY NO=91-73-6
##MP= -300
##BP= -300
##MW= 273
##$RETENTION INDEX=0
##$CONDENSED SPECTRUM=NO
##NPOINTS= 74
##XYDATA=(XY..XY) 1 
    27          5
    28          3
    38          2
    39         28
    40          2
    41          9
    50          6
    51         49
    52          6
    53          2
    62          2
    63         13
    64          5
    65         92
    66          4
    74          1
    75          3
    76          5
    77        164
    78         19
    79          4
    89         15
    90          7
    91        999
    92        107
    93          5
    97          6
    98          1
   102          1
   103          1
   104         83
   105         24
   106          6
   115          4
   116          1
   117          1
   118          2
   127          3
   128          3
   129          1
   139          1
   140          1
   141          1
   151          3
   152          9
   153          5
   154          6
   155          2
   165          9
   166          6
   167          8
   168          3
   169          1
   178          3
   179          9
   180         68
   181        145
   182        214
   183         32
   184          2
   193          1
   194         30
   195          5
   196        229
   197         35
   198          2
   202          2
   270          1
   271          1
   272         40
   273        542
   274        120
   275         11
   276          1