##TITLE=Library Entry 28980
##JCAMP-DX=Revision 4.10 
##DATA TYPE=MASS SPECTRUM
##SAMPLE DESCRIPTION=AAFS Toxicology Section MS DB Committee, U. Alberta, Ca
nada
##NAMES=HP
##CAS NAME=Thonzylamine
##MOLFORM=C16H22N4O
##CAS REGISTRY NO=91-85-0
##MP= -300
##BP= -300
##MW= 286
##$RETENTION INDEX=2203
##$CONDENSED SPECTRUM=NO
##NPOINTS= 112
##XYDATA=(XY..XY) 1 
    41         13
    42         42
    43         22
    44          8
    45         12
    50          2
    51         11
    52         12
    53         18
    54          6
    55         15
    56         19
    57         20
    58        999
    59         38
    60          8
    61          1
    62          1
    63          6
    64          3
    65         12
    66          3
    67          7
    68          4
    69         10
    70          9
    71        162
    72        251
    73         22
    74          1
    75          1
    76          2
    77         45
    78         57
    79         29
    80         27
    81          8
    82          2
    83          6
    84          3
    85          3
    87          2
    89         14
    90         10
    91         33
    92          4
    93          3
    94          4
    95          3
    96          3
    97          4
    98          4
    99          1
   103          2
   104          2
   105          3
   106         13
   107          5
   108         28
   109          3
   110          1
   115          2
   116          1
   117          1
   118          2
   119          2
   120         12
   121        620
   122         65
   123          4
   129          3
   130          1
   132          2
   133          2
   134          6
   135          3
   136          4
   137          1
   143          2
   147          1
   148          5
   149          2
   157          1
   158          1
   163          4
   164          1
   170          5
   171          1
   183          1
   184          8
   185          3
   198          2
   199          2
   200          2
   211          1
   212          2
   213          2
   214         43
   215         88
   216         90
   217         13
   218          1
   226          4
   227          1
   228         13
   229          3
   241          1
   242          2
   256          1
   286         62
   287         11
   288          1