##TITLE=Library Entry 59422
##JCAMP-DX=Revision 4.10 
##DATA TYPE=MASS SPECTRUM
##SAMPLE DESCRIPTION=Virginia Division of Forensic Science
##NAMES=HP
##CAS NAME=Tripelennamine
##MOLFORM=C16H21N3
##CAS REGISTRY NO=91-81-6
##MP= -300
##BP= -300
##MW= 255
##$RETENTION INDEX=1974
##$CONDENSED SPECTRUM=NO
##NPOINTS= 116
##XYDATA=(XY..XY) 1 
    15         14
    16          1
    17          1
    18          2
    19          1
    26          3
    27         18
    28         24
    29         15
    30         52
    31          1
    36          1
    37          1
    38          5
    39         51
    40          7
    41         26
    42        138
    43         31
    44         17
    45          7
    46          1
    50         12
    51         73
    52         55
    53         11
    54          6
    55          5
    56         39
    58        892
    59         32
    60          1
    61          1
    62          4
    63         24
    65        154
    66         13
    67          7
    68          1
    69          1
    71        163
    72        177
    73          8
    74          1
    75          3
    76          5
    77         17
    78        123
    79        140
    80         16
    81          1
    89         30
    91        999
    92         81
    93         16
    94          4
    95          2
    96          1
   102          2
   103          4
   104          6
   105         13
   106         38
   107         28
   108          2
   109          1
   113          1
   114          1
   115          3
   116          2
   117          5
   118         23
   119         57
   120          9
   121          6
   122          1
   125          1
   126          1
   127          3
   128          3
   129          1
   130          1
   131          2
   132          1
   133          2
   134          2
   154          5
   155          2
   156          1
   162          4
   163          3
   164          1
   166          2
   167          9
   168          9
   169          1
   180          3
   181         12
   183         88
   184        102
   185        157
   186         21
   187          1
   192          1
   193          1
   195         12
   197        264
   198         39
   199          2
   210          1
   211         10
   212          1
   253          1
   255         30
   256          5
   257          1