##TITLE=Library Entry 28803
##JCAMP-DX=Revision 4.10 
##DATA TYPE=MASS SPECTRUM
##SAMPLE DESCRIPTION=AAFS Toxicology Section MS DB Committee, U. Alberta, Ca
nada
##NAMES=HP
##CAS NAME=Methapyrilene
##MOLFORM=C14H19N3S
##CAS REGISTRY NO=91-80-5
##MP= -300
##BP= -300
##MW= 261
##$RETENTION INDEX=1983
##$CONDENSED SPECTRUM=NO
##NPOINTS= 159
##XYDATA=(XY..XY) 1 
    29         14
    30         71
    32          1
    34          1
    35          1
    37          1
    38          4
    39         24
    40          4
    41         10
    42        117
    43         31
    44         18
    45         78
    46          1
    47          5
    50          5
    51         40
    52         40
    53         70
    54          7
    55          3
    56         33
    57         26
    58        999
    59         38
    60          1
    61          1
    63          6
    64          3
    65          6
    66          5
    67          5
    68          1
    69         17
    70         17
    71        174
    72        216
    73         13
    74          1
    76          1
    77          3
    78         81
    79         76
    80         11
    81          1
    82          2
    83          1
    84          1
    85          2
    86          1
    89          1
    90          1
    91          1
    92          3
    93          7
    94          4
    95          4
    96          3
    97        616
    98         41
    99         27
   100          1
   101          1
   102          1
   104          1
   105          7
   106         10
   107         15
   108          2
   109          1
   110          1
   111          2
   112          4
   113          1
   114          1
   115          1
   116          1
   117          1
   118          1
   119         17
   120          3
   121          4
   122          1
   123          1
   124          2
   125          1
   126          1
   128          1
   129          1
   130          1
   131          1
   132          1
   133          1
   134          1
   135          2
   136          1
   137          1
   138          1
   139          1
   140          1
   141          1
   142          1
   143          1
   144          1
   145          1
   146          1
   147          1
   148          1
   149          1
   150          1
   154          1
   155          1
   156          1
   157          8
   158          1
   160          1
   161          1
   162          2
   163          2
   164          1
   165          1
   166          1
   168          1
   169          1
   170          1
   172          1
   173          1
   174          1
   175          1
   176          1
   177          1
   179          1
   180          1
   183          1
   186          1
   187          1
   188          1
   189         18
   190         35
   191         62
   192         10
   193          3
   194          1
   201          1
   202          1
   203         14
   204          2
   205          1
   206          1
   208          1
   209          1
   215          1
   216          1
   217          1
   218          1
   261         34
   262          7
   263          2