##TITLE=Library Entry 19090
##JCAMP-DX=Revision 4.10 
##DATA TYPE=MASS SPECTRUM
##SAMPLE DESCRIPTION=LAC, NIDDK, NIH, Bethesda, MD 20892
##NAMES=HP
##CAS NAME=3-Hydroxy-11-ketocholanic acid
##MOLFORM=C24H38O4
##CAS REGISTRY NO=910-28-1
##MP= -300
##BP= -300
##MW= 390
##$RETENTION INDEX=0
##$CONDENSED SPECTRUM=NO
##NPOINTS= 177
##XYDATA=(XY..XY) 1 
    41        783
    42        102
    43        667
    44         74
    45        287
    46          5
    50         33
    51         52
    53        234
    54         19
    55        999
    56         60
    57        192
    58          6
    59        132
    60        318
    61         21
    62         13
    63         55
    65         59
    66         33
    67        405
    68        141
    69        276
    70         30
    71         70
    72          5
    73         79
    74         43
    75         19
    76         13
    77        216
    78         20
    79        539
    80        105
    81        514
    82         73
    83        126
    84         24
    85         43
    86          6
    87         19
    89          5
    91        314
    92         17
    93        335
    94        116
    95        288
    96         52
    97         62
    98         13
    99         29
   101         35
   103         21
   104         19
   105        274
   106         92
   107        305
   108        201
   109        173
   110         24
   111         28
   115         54
   116         13
   117         65
   118        126
   119        116
   120         34
   121        209
   122         83
   123         91
   124         42
   125         34
   126         37
   127         95
   128         26
   129         32
   130         31
   131         82
   132          9
   133        117
   134         43
   135        113
   136         18
   137         32
   138         18
   140          5
   141         18
   142         10
   143         31
   144         20
   145         65
   146          5
   147        102
   148         20
   149         70
   150         10
   151         17
   155         59
   156          6
   157         35
   158          5
   159         56
   160         13
   161         63
   162         15
   163         35
   165          9
   169          5
   171         24
   172        100
   173         38
   174         14
   175         38
   176         18
   177         22
   179          9
   181         37
   183          5
   185         17
   187         30
   189         11
   191          5
   195         10
   197         18
   199         22
   201         20
   203          4
   205         10
   207          6
   211         21
   212         10
   213         43
   215         51
   217         18
   226         10
   229         16
   230          9
   231         24
   233         44
   235         38
   236         12
   241          4
   243          4
   246         18
   248         14
   249         42
   251         22
   253         44
   254          5
   255         21
   257          5
   259         27
   264         54
   265          9
   271         15
   273         17
   277        111
   278         23
   300          5
   313         12
   318        160
   319         40
   329          5
   339         19
   341          5
   343          5
   354         13
   356          5
   357         80
   358         22
   372        100
   373         45
   374         10
   375         22
   390         75
   391         18