##TITLE=Library Entry 22692
##JCAMP-DX=Revision 4.10 
##DATA TYPE=MASS SPECTRUM
##SAMPLE DESCRIPTION=Japan AIST/NIMC Database- Spectrum MS-IW-2555
##NAMES=HP
##CAS NAME=3,3'-Tetramethylenebis(2-oxo-1,3-oxazolidine)
##MOLFORM=C10H16N2O4
##CAS REGISTRY NO=91005-98-0
##MP= -300
##BP= -300
##MW= 228
##$RETENTION INDEX=0
##$CONDENSED SPECTRUM=NO
##NPOINTS= 111
##XYDATA=(XY..XY) 1 
    14          1
    15         25
    16          1
    26          9
    27         58
    28        177
    29        102
    30         58
    31          6
    38          2
    39         35
    40         11
    41        139
    42        127
    43         87
    44         62
    45          7
    47          1
    50          1
    51          3
    52          3
    53         15
    54         70
    55         87
    56        999
    57        244
    58        133
    59          6
    63          1
    65          1
    66          1
    67          7
    68         39
    69         76
    70        375
    71        205
    72         14
    73          3
    74          5
    77          1
    78          1
    79          2
    80          6
    81          5
    82         38
    83         84
    84        303
    85         25
    86         26
    87         71
    88         98
    89          3
    90          2
    91          1
    92          1
    93          1
    94          5
    95          6
    96         30
    97        747
    98         97
    99          8
   100        668
   101        105
   102          8
   103          1
   105          1
   108          1
   109          2
   110          3
   111          7
   112         11
   113         35
   114        100
   115         71
   116          5
   117          1
   118          1
   119          1
   122          1
   123          1
   124          1
   125          2
   126          7
   127          4
   128         63
   129         22
   130          3
   135          1
   138          1
   139          4
   140          9
   141          9
   142         28
   143          6
   146          6
   147          1
   149          3
   155          8
   156          3
   157          1
   163          2
   166          1
   169          8
   170          2
   183          7
   184         61
   185          8
   227          2
   228          3
   229          1