##TITLE=Library Entry 38373
##JCAMP-DX=Revision 4.10 
##DATA TYPE=MASS SPECTRUM
##SAMPLE DESCRIPTION=Chemical Concepts
##NAMES=HP
##CAS NAME=2-Nonen-1-ol, 2-methyl-
##MOLFORM=C10H20O
##CAS REGISTRY NO=91008-40-1
##MP= -300
##BP= -300
##MW= 156
##$RETENTION INDEX=0
##$CONDENSED SPECTRUM=NO
##NPOINTS= 72
##XYDATA=(XY..XY) 1 
    26          7
    27        172
    28         44
    29        276
    30         14
    31         75
    38          5
    39        152
    40         27
    41        425
    42         71
    43        587
    44         27
    45         41
    46          3
    50          5
    51         15
    52         10
    53         77
    54         43
    55        454
    56        117
    57        242
    58        243
    59         20
    61          7
    63          3
    65         16
    66         10
    67        127
    68        194
    69        374
    70         57
    71        999
    72         82
    73         13
    77         14
    78          3
    79         19
    80          6
    81        104
    82        117
    83        194
    84         38
    85        107
    86         55
    87          9
    91         11
    93          5
    94          3
    95        115
    96         51
    97         19
    98          6
    99         39
   100          6
   101          3
   109         42
   110          7
   111          2
   113         32
   114          5
   123         14
   124          7
   125         29
   126          4
   127          6
   138         50
   139          6
   141          5
   156        170
   157         17