##TITLE=Library Entry 47624
##JCAMP-DX=Revision 4.10 
##DATA TYPE=MASS SPECTRUM
##SAMPLE DESCRIPTION=Chemical Concepts
##NAMES=HP
##CAS NAME=3-Bromo-2-phenyl-2H-indazole
##MOLFORM=C13H9BrN2
##CAS REGISTRY NO=91002-55-0
##MP= -300
##BP= -300
##MW= 272
##$RETENTION INDEX=0
##$CONDENSED SPECTRUM=NO
##NPOINTS= 113
##XYDATA=(XY..XY) 1 
    26         36
    27        124
    28          5
    31         18
    37         16
    38         43
    39        107
    40          8
    41         16
    42          4
    43         13
    44          9
    49          6
    50        144
    51        526
    52         46
    53          3
    55          6
    56          9
    57         12
    61         13
    62         58
    63         93
    64         63
    65         84
    66          9
    69          4
    71          5
    73          5
    74         43
    75         67
    76         85
    77        999
    78         75
    79          3
    81          3
    82          3
    83         24
    84          3
    85          2
    86          6
    87         14
    88         45
    89         40
    90         84
    91         14
    92          2
    96         22
    97         16
    99          4
   100          4
   101          4
   102         23
   103         15
   104          4
   113          5
   114          8
   115         19
   116         41
   117         16
   118          3
   119          3
   123          3
   124          2
   126          2
   127          3
   128          7
   129          4
   136         42
   137         44
   138         14
   139         37
   140         37
   141         14
   142          6
   143          5
   149          7
   152          2
   153          6
   154          2
   155          6
   156          2
   157          4
   163          3
   164         36
   165         82
   166        226
   167         54
   168          6
   169          3
   170          2
   178          5
   190          2
   191         42
   192        396
   193        989
   194        147
   195         14
   196          2
   197          7
   198          3
   213          2
   229          2
   246          7
   247          6
   248          6
   249          5
   271          8
   272        770
   273        126
   274        760
   275        109
   276          8