##TITLE=Library Entry 60655
##JCAMP-DX=Revision 4.10 
##DATA TYPE=MASS SPECTRUM
##SAMPLE DESCRIPTION=NIST Mass Spectrometry Data Center, 2010
##NAMES=HP
##CAS NAME=N-(2-Hydroxy-propionyl)-4-methyl-benzenesulfonamide
##MOLFORM=C10H13NO4S
##CAS REGISTRY NO=91013-53-5
##MP= -300
##BP= -300
##MW= 243
##$RETENTION INDEX=2115
##$CONDENSED SPECTRUM=NO
##NPOINTS= 127
##XYDATA=(XY..XY) 1 
    15          4
    16          1
    17          1
    18          3
    19          6
    26          1
    27         20
    28          6
    29         15
    30          2
    31          1
    36          1
    37          1
    38          5
    39         52
    40          6
    41         18
    42          5
    43         37
    44         12
    45        280
    46          7
    47          2
    48          2
    49          1
    50         17
    51         34
    52         12
    53          7
    54          1
    55          4
    57          1
    58          1
    60          1
    61          3
    62         14
    63         61
    64         21
    65        256
    66         18
    67          3
    69         15
    71          2
    74          6
    75          6
    76          6
    77         34
    78         11
    79         24
    80         13
    81          2
    82          1
    83          1
    84          1
    85          2
    86          3
    87          4
    89         81
    90         43
    91        999
    92        549
    93         44
    94          2
    95          2
    96          1
    97          4
    98          1
   101          3
   102          1
   104          3
   105          3
   106         43
   107         72
   108        390
   109         32
   111          4
   112          1
   113          1
   120          3
   121          8
   122          2
   123          3
   124          4
   125          2
   131          1
   135          2
   137          1
   139         55
   140          7
   141          6
   142          1
   147          1
   150          3
   151          1
   152         17
   153          2
   155        493
   156        264
   157         52
   158         16
   159          2
   160          1
   161          1
   164          1
   167          1
   171         20
   172          2
   173          2
   174          1
   179        209
   180         25
   181          2
   182          1
   184         14
   185          2
   186          1
   197          6
   198        281
   199         31
   200         55
   201          5
   202          2
   203          1
   204          1
   226          1
   228          7
   229          1