##TITLE=Library Entry 85218
##JCAMP-DX=Revision 4.10 
##DATA TYPE=MASS SPECTRUM
##SAMPLE DESCRIPTION=Philip Morris R&D
##NAMES=HP
##CAS NAME=2-Isoamyl-6-methylpyrazine
##MOLFORM=C10H16N2
##CAS REGISTRY NO=91010-41-2
##MP= -300
##BP= -300
##MW= 164
##$RETENTION INDEX=1249
##$CONDENSED SPECTRUM=NO
##NPOINTS= 76
##XYDATA=(XY..XY) 1 
    37          2
    38         12
    39        117
    40         28
    41         63
    42         36
    43         20
    44          1
    45          0
    49          0
    50          2
    51          9
    52         17
    53         30
    54         15
    55         11
    56          3
    57          2
    59          0
    62          0
    63          1
    64          4
    65          6
    66         49
    67         13
    68          3
    69          0
    73          1
    75          0
    76          0
    77          3
    78          2
    79          4
    80          9
    81          7
    82          5
    83          0
    84          0
    91          1
    92          1
    93         10
    94         12
    95          4
    96          0
   103          0
   104          0
   105          1
   106          1
   107         39
   108        999
   109         76
   110          2
   118          0
   119          2
   120          2
   121        149
   122         28
   123          3
   131          0
   132          2
   133          6
   134          3
   135         12
   136          3
   145          1
   146          0
   147          4
   148          0
   149         63
   150          6
   151          0
   161          0
   162          0
   163         14
   164         10
   165          0