##TITLE=Library Entry 32072
##JCAMP-DX=Revision 4.10 
##DATA TYPE=MASS SPECTRUM
##SAMPLE DESCRIPTION=Chemical Concepts
##NAMES=HP
##CAS NAME=4,7-Methanoindan-2-one, 3a,4,7,7a-tetrahydro-
##MOLFORM=C10H12O
##CAS REGISTRY NO=91060-78-5
##MP= -300
##BP= -300
##MW= 148
##$RETENTION INDEX=0
##$CONDENSED SPECTRUM=NO
##NPOINTS= 83
##XYDATA=(XY..XY) 1 
    26          3
    27         33
    28          3
    29          4
    37          1
    38          6
    39         74
    40         26
    41         24
    42          3
    43          3
    44          9
    50          9
    51         26
    52         11
    53         24
    54         25
    55          8
    56          1
    57          3
    58          3
    59          2
    60          1
    61          2
    62          4
    63         13
    64          4
    65         54
    66        999
    67         78
    68          2
    69          2
    70          2
    71          1
    74          3
    75          1
    76          2
    77         41
    78         26
    79         32
    80          5
    81          5
    82          7
    83         23
    84          2
    89          3
    90          2
    91         61
    92         16
    93          5
    94          3
    95          2
    96          2
    97          1
    98          1
   102          2
   103         10
   104          5
   105         37
   106          9
   107          2
   108          1
   109          1
   110          1
   115          3
   116          1
   117          4
   118          1
   119          4
   120          4
   121          1
   122          1
   123          1
   127          1
   128          1
   129          1
   130          1
   131          1
   132          1
   133          2
   148         59
   149         11
   150          1