##TITLE=Library Entry 1899
##JCAMP-DX=Revision 4.10 
##DATA TYPE=MASS SPECTRUM
##SAMPLE DESCRIPTION=A.A.Kutin, Moscow, Russia
##NAMES=HP
##CAS NAME=Benzotriazole, 1-(3-aminopyridin-4-yl)-
##MOLFORM=C11H9N5
##CAS REGISTRY NO=91093-92-4
##MP= -300
##BP= -300
##MW= 211
##$RETENTION INDEX=0
##$CONDENSED SPECTRUM=NO
##NPOINTS= 53
##XYDATA=(XY..XY) 1 
    37         40
    39        999
    40        130
    41         47
    42          8
    49          2
    50        331
    52        238
    53        123
    54         20
    55          3
    61         30
    62         78
    63        255
    64        188
    65        304
    66        373
    67          7
    73          5
    74         92
    75        105
    76        118
    77         96
    78         75
    79         15
    87          5
    88         19
    89         81
    90         77
    91         57
    93         97
   100          4
   101         54
   102        116
   103        118
   104         18
   115          3
   117          7
   128        167
   129        770
   130         39
   140          3
   142          8
   143         12
   153          3
   155        321
   156        273
   157         36
   182        363
   183        499
   184         55
   211        245
   212         35