##TITLE=Library Entry 25077
##JCAMP-DX=Revision 4.10 
##DATA TYPE=MASS SPECTRUM
##SAMPLE DESCRIPTION=Chemical Concepts
##NAMES=HP
##CAS NAME=1,6-Cyclodecanediol
##MOLFORM=C10H20O2
##CAS REGISTRY NO=91108-69-9
##MP= -300
##BP= -300
##MW= 172
##$RETENTION INDEX=0
##$CONDENSED SPECTRUM=NO
##NPOINTS= 102
##XYDATA=(XY..XY) 1 
    26         11
    27        255
    28         89
    29        398
    30         37
    31        184
    38          5
    39        206
    40         54
    41        706
    42        234
    43        445
    44        281
    45        119
    46          6
    47         66
    48          7
    49         11
    50          4
    51         17
    52         10
    53        122
    54        399
    55        639
    56        251
    57        999
    58        253
    59         31
    60         14
    61          7
    62         64
    63         18
    65         36
    66        241
    67        913
    68        443
    69        656
    70        520
    71        241
    72         58
    73         29
    74          4
    75         10
    77         51
    78         44
    79        369
    80        515
    81        519
    82        867
    83        474
    84        368
    85        181
    86        114
    87         22
    88          5
    91         43
    92         17
    93        482
    94        404
    95        571
    96        104
    97        519
    98        521
    99         64
   100         20
   101          6
   105         10
   106          7
   107        301
   108        505
   109         94
   110        493
   111        425
   112        208
   113         54
   114          7
   115         44
   116          6
   121        257
   122         36
   123         36
   124          8
   125         88
   126         60
   127          9
   129          6
   130         32
   131          5
   135         45
   136        276
   137         54
   138          6
   139          8
   143         15
   144          1
   145          0
   153         10
   154         20
   155         59
   156          9
   157          1
   172          0