##TITLE=Library Entry 6741
##JCAMP-DX=Revision 4.10 
##DATA TYPE=MASS SPECTRUM
##SAMPLE DESCRIPTION=V.A.Korolev, Moscow, Russia
##NAMES=HP
##CAS NAME=5-Acetyl-4-hydroxy-3H-1,3-thiazine-2,6-dione
##MOLFORM=C6H5NO4S
##CAS REGISTRY NO=91114-97-5
##MP= -300
##BP= -300
##MW= 187
##$RETENTION INDEX=0
##$CONDENSED SPECTRUM=NO
##NPOINTS= 61
##XYDATA=(XY..XY) 1 
    33         20
    34          7
    36         11
    37         47
    38         59
    39         78
    40         93
    41        107
    42        207
    43        999
    44        272
    45         83
    46         15
    47         15
    48         17
    49          6
    50          5
    51          8
    52         17
    53         36
    54         17
    55         74
    56         37
    57         31
    58         13
    59         29
    60         66
    61         23
    62          2
    66         12
    67         44
    68         63
    69        261
    70         38
    71         89
    72         10
    73          8
    74          7
    77          4
    78          8
    82          6
    83          7
    84        187
    85        142
    86         14
    87          4
    88         31
    98          3
    99        237
   100         10
   110          1
   111          1
   112          9
   116          5
   127        217
   128          9
   129          1
   159         10
   187        134
   188          8
   189          3