##TITLE=Library Entry 63583
##JCAMP-DX=Revision 4.10 
##DATA TYPE=MASS SPECTRUM
##SAMPLE DESCRIPTION=Asinex Ltd, Moscow, Russia
##NAMES=HP
##CAS NAME=4H-1,2,4-Triazole-3-thiol, 4-benzyl-5-methyl-
##MOLFORM=C10H11N3S
##CAS REGISTRY NO=91129-84-9
##MP= -300
##BP= -300
##MW= 205
##$RETENTION INDEX=0
##$CONDENSED SPECTRUM=NO
##NPOINTS= 75
##XYDATA=(XY..XY) 1 
    33          6
    37          3
    38         19
    39         96
    40         65
    41         46
    42        107
    43          7
    44         14
    45         30
    46          4
    47          2
    48          1
    50         39
    51         85
    52         20
    53         16
    54          4
    55         36
    56         15
    57          9
    58         34
    59         46
    60         20
    61          2
    62         20
    63         64
    64         26
    65        176
    66          8
    69          5
    70          4
    72          2
    74          7
    75         12
    76         17
    77         79
    78         20
    79          9
    82          2
    84         15
    85          7
    86          1
    87          0
    89         59
    91        999
    92         62
    93          2
    96          0
    99          7
   102         18
   103         15
   104         40
   105          2
   106         19
   108          2
   109         24
   116          2
   117          2
   121         15
   122          3
   123          4
   128          6
   129          0
   131         15
   136          2
   159          1
   163          1
   172         94
   173         13
   203          1
   204         39
   205        568
   206         61
   207         28