##TITLE=Library Entry 15506
##JCAMP-DX=Revision 4.10 
##DATA TYPE=MASS SPECTRUM
##SAMPLE DESCRIPTION=Chemical Concepts
##NAMES=HP
##CAS NAME=1-(6-Purinyl)-2-pyrrolidinecarboxylic acid
##MOLFORM=C10H11N5O2
##CAS REGISTRY NO=91129-94-1
##MP= -300
##BP= -300
##MW= 233
##$RETENTION INDEX=0
##$CONDENSED SPECTRUM=NO
##NPOINTS= 68
##XYDATA=(XY..XY) 1 
    42        302
    43        172
    44        999
    51        267
    53        841
    54        184
    55         98
    56         19
    57         16
    58          6
    60          9
    62         15
    65        725
    66        428
    67        299
    68        225
    70        278
    71         16
    72          3
    73          6
    74          5
    77        124
    78         61
    79         63
    80         63
    81         26
    82          6
    86         19
    92        524
    93        372
    94        100
    95         18
    97          2
   103          5
   105         59
   106         41
   107         38
   108         29
   109          6
   119        658
   120        197
   121         67
   122          5
   132         29
   134        209
   135         43
   136         63
   137          3
   142          2
   144          9
   145         18
   146         37
   147         72
   148         30
   149          3
   157          3
   160        664
   161        328
   162         27
   171         26
   172         18
   173         26
   174          3
   185          9
   186         54
   188        405
   189        241
   190         26