##TITLE=Library Entry 63518
##JCAMP-DX=Revision 4.10 
##DATA TYPE=MASS SPECTRUM
##SAMPLE DESCRIPTION=Japan AIST/NIMC Database- Spectrum MS-IW-7754
##NAMES=HP
##CAS NAME=5-Benzyloxypyridazine 1-oxide
##MOLFORM=C11H10N2O2
##CAS REGISTRY NO=91138-03-3
##MP= -300
##BP= -300
##MW= 202
##$RETENTION INDEX=0
##$CONDENSED SPECTRUM=NO
##NPOINTS= 76
##XYDATA=(XY..XY) 1 
    26          5
    27         16
    28         20
    29          1
    30          3
    37          1
    38          8
    39         30
    40         10
    41         13
    42          5
    43          2
    44          8
    50          8
    51         25
    52          7
    53          2
    54          1
    55          1
    57          1
    62          3
    63         15
    64          7
    65        100
    66          7
    67          3
    68          3
    69          7
    74          2
    75          2
    76          2
    77         20
    78          5
    79          5
    81          1
    82          1
    83          1
    89         18
    90          9
    91        999
    92         82
    93          3
    96         14
    97          1
   101          4
   102          2
   103          3
   104          2
   105         13
   106         10
   107          4
   108          4
   115          2
   116          1
   117          3
   118          1
   127          1
   128          1
   129          2
   130          4
   131          2
   135          1
   147          3
   157         14
   158         15
   159          3
   167          1
   168          1
   172          3
   185         88
   186         45
   187          5
   201          2
   202        209
   203         28
   204          2