##TITLE=Library Entry 67118
##JCAMP-DX=Revision 4.10 
##DATA TYPE=MASS SPECTRUM
##SAMPLE DESCRIPTION=A.A.Kutin, Moscow, Russia
##NAMES=HP
##CAS NAME=1,7-Dimethyl-4-oxa-tricyclo[5.2.1.0(2,6)]decane-3,5,8-trione
##MOLFORM=C11H12O4
##CAS REGISTRY NO=91143-65-6
##MP= -300
##BP= -300
##MW= 208
##$RETENTION INDEX=0
##$CONDENSED SPECTRUM=NO
##NPOINTS= 102
##XYDATA=(XY..XY) 1 
    33          7
    34          0
    35          0
    36          3
    37          4
    39        207
    40         47
    41        118
    42         73
    43         15
    44         12
    45          8
    46          2
    50         25
    51         62
    52         35
    53         70
    54         18
    55         18
    56          4
    57          4
    58          0
    59          0
    61          1
    62          6
    63         18
    64          7
    65         56
    66         19
    67         33
    68          6
    69          6
    70          1
    71          2
    74          2
    75          2
    77        139
    78         51
    79        295
    80         24
    81         11
    82          8
    83          3
    84          1
    85          0
    86          0
    87          0
    89          3
    91        123
    92         26
    93        190
    94        999
    95         89
    96          4
    97          1
    98          2
    99          1
   100          0
   103          2
   105         11
   106          6
   107         32
   108         23
   109          8
   110          6
   111          2
   112          0
   114          0
   115          0
   117          0
   118          0
   119          2
   120          2
   121          3
   122          0
   123          1
   124          0
   125          0
   127          0
   134          7
   135         10
   136          4
   137          2
   138          3
   139          1
   142          1
   146          1
   147          1
   148          0
   152          1
   157          0
   161          0
   162          1
   163          0
   164          1
   165          1
   171          1
   175          0
   180          5
   181          0
   208         29
   209          3