##TITLE=Library Entry 740
##JCAMP-DX=Revision 4.10 
##DATA TYPE=MASS SPECTRUM
##SAMPLE DESCRIPTION=Japan AIST/NIMC Database- Spectrum MS-NW-7316
##NAMES=HP
##CAS NAME=Diethyl 1-(8-azido-1-naphthyl)-1H-1,2,3-triazole-4,5-dicarboxylat
e
##MOLFORM=C18H16N6O4
##CAS REGISTRY NO=91165-52-5
##MP= -300
##BP= -300
##MW= 380
##$RETENTION INDEX=0
##$CONDENSED SPECTRUM=NO
##NPOINTS= 351
##XYDATA=(XY..XY) 1 
    14          5
    15         14
    16          4
    17          2
    18          7
    24          1
    25          4
    26         34
    27        255
    28        280
    29        999
    30         24
    31         52
    32          2
    36          2
    37          4
    38         15
    39         89
    40          8
    41         11
    42          8
    43         44
    44        170
    45         48
    46         12
    47          2
    49          2
    50         63
    51         72
    52         30
    53         75
    54          6
    55          7
    56          4
    57          7
    61         11
    62         59
    63        167
    64         45
    65         21
    66          6
    67          4
    68         12
    69         24
    70          6
    71          3
    72          1
    73          7
    74         73
    75        122
    76        115
    77        107
    78         15
    79          3
    80          3
    81          5
    82          3
    83          9
    84          5
    85          5
    86         34
    87         75
    88         87
    89         59
    90         19
    91          7
    92          1
    93          7
    94          2
    95          2
    96          2
    97         22
    98         27
    99         66
   100         68
   101         87
   102         40
   103         22
   104          6
   105          3
   106          1
   107          2
   108          2
   109          3
   110          6
   111         14
   112         47
   113        142
   114         89
   115         38
   116          7
   117          9
   118          2
   119          3
   120          2
   121          2
   122          4
   123         12
   124         36
   125        231
   126        819
   127        226
   128         43
   129         14
   130          4
   131          2
   132          2
   133          2
   134          2
   135          4
   136          3
   137         11
   138         61
   139        206
   140        441
   141         79
   142          9
   143         11
   144          3
   145          4
   146          3
   147          3
   148          2
   149          6
   150         46
   151        293
   152        787
   153        459
   154        133
   155        617
   156        197
   157         22
   158          4
   159          2
   160          5
   161          3
   162          5
   163          6
   164         25
   165        110
   166        625
   167        546
   168        449
   169         67
   170         39
   171         11
   172          3
   173          4
   174          3
   175          4
   176          9
   177         50
   178        329
   179        761
   180        526
   181         91
   182         35
   183         44
   184         15
   185          4
   186          2
   187          5
   188          2
   189          6
   190          5
   191         11
   192         28
   193         42
   194         73
   195        119
   196        323
   197         48
   198         26
   199         23
   200          6
   201          4
   202          3
   203          4
   204          6
   205         71
   206        139
   207        264
   208        358
   209         57
   210          9
   211         17
   212          5
   213          2
   214          2
   215          3
   216          2
   217          8
   218          4
   219         10
   220          5
   221          9
   222         13
   223        149
   224         70
   225         12
   226         56
   227          9
   228          7
   229          5
   230          3
   231          3
   232          3
   233         13
   234         15
   235         25
   236         10
   237         47
   238         11
   239         42
   240         43
   241          9
   242          3
   243          3
   244          2
   245          9
   246          5
   247          6
   248          3
   249          6
   250         33
   251        221
   252        323
   253         55
   254         12
   255          7
   256          3
   257          3
   258          2
   259          2
   260          1
   261          7
   262          3
   263         10
   264          3
   265         41
   266         10
   267         32
   268         10
   269          3
   270          2
   271          2
   272          4
   273          4
   274          7
   275          5
   276          2
   277          4
   278         11
   279         29
   280        641
   281        121
   282         15
   283         16
   284          4
   285         12
   286          2
   287          2
   288          1
   289          7
   290          3
   291          9
   292          3
   293          5
   294          2
   295          8
   296          6
   297          3
   298          1
   299          1
   300         16
   301          5
   302          5
   303          4
   304          2
   305          2
   306          1
   307          4
   308          8
   309          4
   310          2
   311          3
   312          2
   313          6
   314          1
   315          1
   316          1
   317          2
   318          3
   319          7
   320          3
   321          4
   322          1
   323          4
   324         41
   325          9
   326          6
   327          2
   328         27
   329          6
   330          3
   331          3
   332          1
   333          1
   334          2
   335         44
   336         11
   337          4
   338          1
   339          6
   340          2
   341         11
   342          3
   343          1
   344          1
   345          1
   346          4
   347          3
   348          4
   349          3
   350          1
   351          2
   352        182
   353         41
   354          8
   355          2
   356          1
   357          2
   358          1
   359          2
   360          2
   361          2
   362          1
   363          5
   364          3
   365          8
   366          2
   367          1
   376          2
   377          1
   378          1
   379          1
   380        269
   381         64
   382         10
   383          2
   384          1