##TITLE=Library Entry 31
##JCAMP-DX=Revision 4.10 
##DATA TYPE=MASS SPECTRUM
##SAMPLE DESCRIPTION=Japan AIST/NIMC Database- Spectrum MS-NW-6303
##NAMES=HP
##CAS NAME=Tetramethyl 1,1'-(1,8-naphthylene)bis(1,2,3-triazole-4,5-dicarbox
ylate)
##MOLFORM=C22H18N6O8
##CAS REGISTRY NO=91165-61-6
##MP= -300
##BP= -300
##MW= 494
##$RETENTION INDEX=0
##$CONDENSED SPECTRUM=NO
##NPOINTS= 430
##XYDATA=(XY..XY) 1 
    12          2
    13          1
    14          7
    15        999
    16         11
    26          4
    27         30
    28        217
    29         65
    30         23
    31         71
    32         43
    33          1
    37          2
    38          8
    39         96
    40          6
    41          7
    42          9
    43         31
    44        105
    45         91
    46          3
    47          5
    49          2
    50         34
    51         57
    52         16
    53         21
    54          5
    55         14
    56         20
    57          5
    58          2
    59        804
    60         20
    61         15
    62         29
    63        105
    64         21
    65         12
    66          6
    67         17
    68          7
    69         19
    70          3
    72          8
    74         49
    75        175
    76         71
    77        110
    78         12
    81          7
    82         12
    83         74
    84         10
    85          7
    86         24
    87         56
    88         59
    89         25
    90          9
    91          3
    95          6
    96          5
    97          4
    98         17
    99         69
   100         55
   101         76
   102         41
   103          9
   105        260
   106         14
   108          4
   109          9
   110          8
   111         34
   112         29
   113         64
   114         69
   115         32
   116          9
   117         10
   120          2
   122          3
   123         12
   124         25
   125        259
   126        164
   127        125
   128         21
   129         34
   130          5
   131          3
   133         85
   134          9
   135          5
   136         11
   137         73
   138         83
   139        145
   140        221
   141         41
   142          7
   143          4
   144          4
   145          4
   147          3
   148          6
   149         15
   150         38
   151        168
   152        896
   153        238
   154         64
   155         26
   156          8
   157        129
   158         11
   159          5
   160          4
   161          3
   162         33
   163        112
   164        368
   165        204
   166        516
   167        161
   168         40
   169         11
   170          4
   171          3
   173         14
   174         33
   175        109
   176         78
   177         93
   178        162
   179         99
   180        100
   181        116
   182         41
   183         12
   184          4
   185         22
   186          4
   187          3
   188         11
   189         83
   190        169
   191        198
   192        132
   193        163
   194        126
   195         33
   196         13
   197         26
   198          7
   199          4
   200          9
   201         29
   202        125
   203        199
   204        380
   205        377
   206        158
   207        230
   208         60
   209         44
   210         12
   211          6
   212          7
   213         11
   214          5
   215         32
   216        118
   217        203
   218        345
   219        196
   220        100
   221         61
   222         32
   223         26
   224         12
   225         35
   226         14
   227          5
   228          4
   229         26
   230         38
   231        184
   232        201
   233        160
   234        136
   235         50
   236         24
   237         33
   238         19
   239          7
   240         53
   241         12
   242          6
   243         33
   244         72
   245        136
   246        114
   247        150
   248         91
   249        145
   250         63
   251         31
   252         17
   253         32
   254         26
   255          7
   256          4
   257         11
   258         76
   259        103
   260        110
   261        141
   262        118
   263        138
   264        118
   265         67
   266         22
   267          7
   268         64
   269         15
   270          8
   271         37
   272         36
   273         37
   274         64
   275         90
   276        120
   277        275
   278         93
   279         30
   280         78
   281         31
   282         53
   283         14
   284          7
   285         40
   286         12
   287         37
   288         50
   289         68
   290        306
   291        153
   292        109
   293         82
   294         31
   295          9
   296         60
   297         18
   298          8
   299          9
   300          4
   301         12
   302         20
   303        123
   304        109
   305        225
   306         79
   307        116
   308        194
   309         40
   310         14
   311          9
   312          4
   313          5
   315         11
   316         98
   317         81
   318         44
   319         92
   320        183
   321        204
   322         98
   323        131
   324         39
   325         11
   326          4
   327          4
   329          7
   330          9
   331         29
   332         77
   333         30
   334         21
   335        205
   336        301
   337        123
   338         24
   339          8
   340          4
   342          3
   343         10
   344          5
   345          8
   346         12
   347        129
   348        274
   349         84
   350         21
   351        511
   352        159
   353         22
   354          5
   355          2
   356          3
   357          3
   358          2
   360          5
   361         19
   362         20
   363        183
   364         66
   365         27
   366          8
   367          7
   368          4
   369          2
   370          3
   371          3
   373          3
   374         18
   375         49
   376         14
   377          9
   378         46
   379        738
   380        288
   381         89
   382         19
   383          5
   384          1
   385          1
   387          2
   388          2
   389          2
   390          2
   391         24
   392          6
   393          9
   394         17
   395          9
   396          4
   397          2
   398          1
   399          1
   400          2
   401          1
   402          1
   403          3
   404          2
   405          2
   406         70
   407        128
   408         21
   409          6
   410         11
   411          3
   412          2
   413          1
   415          1
   417          1
   418          1
   419          1
   420          1
   421          2
   422         15
   423          8
   424          2
   426          1
   427          1
   430          1
   431          1
   432          1
   433          1
   434          5
   435        115
   436         23
   437          9
   438         25
   439          7
   440          5
   441          2
   444          1
   446          1
   449          2
   450          1
   452          1
   453          1
   454          1
   455          1
   457          1
   458          1
   459          1
   461          1
   462          1
   463         46
   464          9
   465          3
   466         59
   467         10
   468          4
   469          2
   471          1
   472          1
   473          1
   474          1
   475          2
   476          2
   477          1
   478          2
   479          1
   488          2
   489          2
   490          3
   491          2
   492          4
   493          4
   494        675
   495        198
   496         23
   497          3