##TITLE=Library Entry 861
##JCAMP-DX=Revision 4.10 
##DATA TYPE=MASS SPECTRUM
##SAMPLE DESCRIPTION=Japan AIST/NIMC Database- Spectrum MS-NW-6301
##NAMES=HP
##CAS NAME=1-(4,5-Bis(ethoxycarbonyl)-1H-1,2,3-triazol-1-yl)-8-(4-ethoxycarb
onyl-1H-1,2,3-triazol-1-yl)naphthalene
##MOLFORM=C23H22N6O6
##CAS REGISTRY NO=91165-72-9
##MP= -300
##BP= -300
##MW= 478
##$RETENTION INDEX=0
##$CONDENSED SPECTRUM=NO
##NPOINTS= 380
##XYDATA=(XY..XY) 1 
    12          2
    13          2
    14          5
    15         14
    16          3
    17          1
    18          3
    25          4
    26         22
    27        196
    28         87
    29        999
    30         24
    31         52
    32          2
    37          1
    38          4
    39         26
    40          4
    41         22
    42          7
    43         26
    44         36
    45         34
    46          9
    47          2
    49          1
    50         15
    51         24
    52         15
    53         41
    54          4
    55         14
    56          8
    57         25
    58          1
    59          2
    60          1
    61          3
    62         14
    63         48
    64         11
    65          9
    66          3
    67          4
    68          5
    69         32
    70          8
    71          9
    72          2
    73          4
    74         24
    75         54
    76         34
    77         55
    78          9
    79          2
    80          2
    81          4
    82          8
    83          8
    84          3
    85          5
    86         14
    87         43
    88         29
    89         14
    90          6
    91          2
    92          1
    93          3
    94          1
    95          3
    96          5
    97          9
    98          9
    99         35
   100         23
   101         35
   102         19
   103          8
   104          5
   105          4
   107          1
   108          1
   109          3
   110          6
   111         10
   112         15
   113         40
   114         39
   115         26
   116          7
   117          2
   118          1
   119          2
   120          1
   121          2
   122          3
   123          6
   124         10
   125        111
   126        106
   127        122
   128         20
   129          5
   130          3
   131          3
   132          2
   133          1
   134          1
   135          2
   136          5
   137         40
   138         52
   139         86
   140        134
   141         24
   142          5
   143          4
   144          1
   145          1
   146          1
   147          1
   148          2
   149         77
   150         43
   151         87
   152        500
   153        241
   154         53
   155         18
   156          4
   157          2
   159          2
   160          2
   161          2
   162          9
   163         20
   164        245
   165        122
   166        293
   167        121
   168         58
   169         13
   170          6
   171          3
   172          1
   174          4
   175         30
   176         71
   177        110
   178        116
   179        113
   180        121
   181         31
   182         15
   183          9
   184          6
   185          2
   188          3
   189         14
   190         24
   191        123
   192        198
   193        118
   194         35
   195         20
   196         35
   197         10
   198          4
   199          2
   201          6
   202         50
   203        220
   204        370
   205        385
   206        142
   207        121
   208         90
   209         21
   210         11
   211          6
   212          2
   213          2
   214          2
   215          2
   216         12
   217         22
   218         58
   219        178
   220        145
   221        111
   222         24
   223         15
   224          9
   225          5
   226          5
   228          4
   229         22
   230         41
   231        189
   232        301
   233        145
   234        109
   235         37
   236         47
   237         39
   238         26
   239         19
   240          8
   241          4
   242          3
   243          3
   244          3
   245         22
   246         17
   247        270
   248        144
   249        442
   250        101
   251         21
   252         22
   253          9
   254          4
   257          4
   258        112
   259         95
   260         58
   261         31
   262         16
   263         35
   264         66
   265         48
   266         12
   267          7
   268          8
   269          4
   270          2
   271          3
   272          3
   273          5
   274         92
   275        109
   276        214
   277        258
   278         94
   279         30
   280         21
   281          7
   282          3
   283          2
   284          2
   285          3
   286          5
   287          6
   288          5
   289         12
   290          9
   291         23
   292         56
   293         96
   294         26
   295          7
   296          5
   297          2
   298          3
   300          2
   301          3
   302         34
   303         42
   304        174
   305        104
   306         26
   307          9
   308          6
   309          4
   310          6
   311          3
   312          2
   314          2
   315          1
   316          1
   317          5
   318          3
   319         16
   320         51
   321        129
   322         38
   323          8
   324          6
   325          3
   326          1
   327          1
   328          1
   330          3
   331          9
   332         17
   333          9
   334          5
   335          6
   336          6
   337          7
   338          3
   339          2
   340          2
   341          1
   342          1
   343          1
   344          1
   345          1
   346          1
   347         14
   348         25
   349        196
   350        129
   351         46
   352          8
   353          3
   354          1
   357          1
   358          1
   359          1
   360          2
   361          4
   362          1
   363          2
   365          9
   366          4
   367          2
   372          1
   373          1
   374          1
   375          1
   376         46
   377         60
   378         21
   379          6
   380          3
   381          1
   388          1
   393          6
   394          7
   395          2
   396          2
   402          1
   404          5
   405         54
   406         18
   407          6
   408          1
   412          1
   418          1
   421          4
   422         16
   423          7
   424          3
   425          1
   429          1
   431          1
   433         23
   434          6
   435          2
   436          1
   439          1
   444          1
   446          1
   449          2
   450         18
   451          6
   452          4
   453          1
   463          1
   476          2
   477          3
   478        615
   479        186
   480         36
   481          5
   482          1