##TITLE=Library Entry 27291
##JCAMP-DX=Revision 4.10 
##DATA TYPE=MASS SPECTRUM
##SAMPLE DESCRIPTION=Japan AIST/NIMC Database- Spectrum MS-NW-7249
##NAMES=HP
##CAS NAME=Di-tert-butyl 1-(1-naphthyl)-1H-1,2,3-triazole-4,5-dicarboxylate
##MOLFORM=C22H25N3O4
##CAS REGISTRY NO=91165-88-7
##MP= -300
##BP= -300
##MW= 395
##$RETENTION INDEX=0
##$CONDENSED SPECTRUM=NO
##NPOINTS= 191
##XYDATA=(XY..XY) 1 
    14          1
    15          5
    16          3
    17          1
    18          3
    25          1
    26          6
    27         35
    28         38
    29        154
    30          3
    31          3
    37          4
    38          8
    39         75
    40         14
    41        297
    42         12
    43         16
    44        100
    45          2
    49          6
    50         14
    51         21
    52          5
    53         11
    54          4
    55         49
    56         84
    57        999
    58         47
    59         21
    60          1
    61          1
    62          6
    63         16
    64          2
    65          2
    67          1
    68          1
    69         11
    70          5
    71          4
    73          5
    74          8
    75         17
    76          8
    77         34
    78          3
    79          1
    81          2
    82          9
    83          9
    84          3
    85          2
    86          4
    87          8
    88          5
    89          7
    90          1
    91          1
    95          2
    96          4
    97          7
    98          3
    99          4
   100          3
   101         20
   102          3
   103          1
   105          1
   109          1
   110          1
   111          1
   112          3
   113          6
   114          8
   115         18
   116          5
   117          1
   123          1
   125          4
   126         38
   127        190
   128         28
   129          2
   135          2
   137          5
   138         19
   139         34
   140         27
   141          6
   142          4
   143         97
   144         13
   145          1
   147          2
   149          2
   151          1
   152          3
   153         33
   154         56
   155         15
   156          2
   162          1
   163          2
   164         43
   165        103
   166         72
   167         92
   168         15
   169         18
   170          3
   171          1
   176          1
   177          2
   178          1
   179          1
   180          3
   181         27
   182         17
   183         28
   184          5
   185          1
   186          1
   191          1
   192          4
   193        291
   194         58
   195         12
   196          2
   197          1
   198          1
   199          1
   205          1
   206          2
   207          2
   208          2
   209         13
   210         17
   211        572
   212         90
   213          9
   214          1
   217          1
   220          6
   221          3
   222          5
   223          1
   227         23
   228          4
   229          1
   234          1
   237          6
   238          5
   239          5
   240          2
   245          1
   249          1
   252         17
   253          5
   255         56
   256          9
   257          2
   265          4
   266        112
   267         34
   268          6
   269          1
   281          1
   282          1
   283          5
   284          6
   285          1
   295          6
   296          1
   311          1
   322         17
   323          4
   324          7
   325          1
   338          1
   339          8
   340          2
   341          1
   355          1
   380          4
   381          1
   395        106
   396         25
   397          5