##TITLE=Library Entry 862
##JCAMP-DX=Revision 4.10 
##DATA TYPE=MASS SPECTRUM
##SAMPLE DESCRIPTION=Japan AIST/NIMC Database- Spectrum MS-NW-6302
##NAMES=HP
##CAS NAME=Diethyl 1-(8-(5-ethoxycarbonyl-1,2,3-triazol-1-yl)-1-naphthyl)-1,
2,3-triazole-4,5-dicarboxylate
##MOLFORM=C23H22N6O6
##CAS REGISTRY NO=91165-74-1
##MP= -300
##BP= -300
##MW= 478
##$RETENTION INDEX=0
##$CONDENSED SPECTRUM=NO
##NPOINTS= 355
##XYDATA=(XY..XY) 1 
    14          4
    15         16
    16          3
    17          1
    18          3
    25          2
    26         15
    27        189
    28         36
    29        999
    30         25
    31         22
    37          2
    38          3
    39         25
    40          4
    41          9
    42          4
    43         21
    44         20
    45         17
    46          3
    47          1
    50         13
    51         28
    52         13
    53         34
    54          2
    55          6
    56          3
    57          5
    59          2
    61          2
    62         13
    63         44
    64         10
    65          7
    66          2
    67          2
    68          4
    69         20
    70          3
    71          5
    73          6
    74         26
    75         67
    76         40
    77         59
    78          6
    79          1
    80          1
    81          3
    82          4
    83          3
    84          2
    85          2
    86         12
    87         42
    88         32
    89         16
    90          6
    91          2
    93          1
    95          3
    96          3
    97         10
    98          9
    99         40
   100         21
   101         40
   102         25
   103         20
   104          2
   105          1
   107          1
   109          2
   110          3
   111          9
   112         13
   113         38
   114         35
   115         24
   116          7
   117          1
   118          1
   122          2
   123          6
   124         12
   125        135
   126        108
   127        116
   128         18
   129          3
   130          2
   131          2
   132          1
   133          1
   135          2
   136          4
   137         35
   138         43
   139         82
   140        136
   141         24
   142          4
   143          4
   144          2
   145          1
   146          1
   147          2
   148          2
   149         16
   150         43
   151        102
   152        566
   153        253
   154         50
   155         12
   156          4
   157          2
   158          2
   159          2
   160          1
   161          1
   162          7
   163         19
   164        243
   165        122
   166        289
   167        117
   168         66
   169         14
   170          4
   171          2
   172          2
   173          2
   174          4
   175         32
   176         66
   177        115
   178        113
   179        133
   180        105
   181         34
   182         16
   183          6
   184          4
   185          2
   186          2
   187          2
   188          2
   189         15
   190         23
   191        125
   192        205
   193        113
   194         36
   195         20
   196         55
   197         10
   198          3
   199          2
   200          2
   201          6
   202         42
   203        222
   204        344
   205        356
   206        124
   207        105
   208         71
   209         19
   210         10
   211          5
   212          3
   213          2
   214          2
   215          3
   216          9
   217         23
   218         54
   219        175
   220        160
   221        104
   222         30
   223         12
   224         12
   225          5
   226          5
   227          2
   228          2
   229         16
   230         33
   231        124
   232        239
   233        113
   234         88
   235         26
   236         33
   237         39
   238         28
   239         33
   240         10
   241          3
   242          2
   243          3
   244          4
   245         17
   246         19
   247        231
   248        159
   249        411
   250        105
   251         23
   252         24
   253          7
   254          4
   255          2
   256          3
   257          4
   258         63
   259         59
   260         47
   261         35
   262         19
   263         27
   264         42
   265         74
   266         19
   267          8
   268         11
   269          5
   270          3
   271          3
   272          2
   273          4
   274         73
   275        202
   276        247
   277        256
   278         92
   279         27
   280         16
   281          6
   282          3
   283          2
   284          2
   285          3
   286         10
   287          7
   288          4
   289         13
   290          9
   291         17
   292         58
   293        156
   294         38
   295          9
   296          7
   297          3
   298          3
   299          3
   300          2
   301          4
   302         14
   303         33
   304        187
   305         88
   306         24
   307          7
   308          3
   309          3
   310          4
   311          2
   312          1
   313          2
   314          1
   315          1
   316          1
   317          5
   318          3
   319         15
   320         64
   321        240
   322         66
   323         12
   324          8
   325          3
   326          2
   327          1
   328          2
   329          1
   330          3
   331         10
   332         16
   333         30
   334         12
   335          8
   336          4
   337          4
   338          3
   339          2
   341          1
   344          1
   345          1
   346          1
   347          9
   348          9
   349        273
   350        103
   351         34
   352          7
   353          1
   355          2
   359          1
   361          2
   363          2
   364          2
   365          7
   366          4
   367          1
   368          1
   376         21
   377         32
   378         12
   379          3
   380          1
   393          9
   394          8
   395          2
   404          3
   405         53
   406         16
   407          4
   408          1
   421          3
   422          9
   423          3
   424          2
   433         30
   434          9
   435          2
   442          1
   449          1
   450         21
   451          7
   452          2
   463          2
   474          2
   476          2
   477          3
   478        873
   479        243
   480         47
   481          7