##TITLE=Library Entry 33029
##JCAMP-DX=Revision 4.10 
##DATA TYPE=MASS SPECTRUM
##SAMPLE DESCRIPTION=Chemical Concepts
##NAMES=HP
##CAS NAME=2,6,6-Trimethylundeca-1,3-dien-9-yn-5-one
##MOLFORM=C14H20O
##CAS REGISTRY NO=91186-49-1
##MP= -300
##BP= -300
##MW= 204
##$RETENTION INDEX=0
##$CONDENSED SPECTRUM=NO
##NPOINTS= 139
##XYDATA=(XY..XY) 1 
    25          3
    26         26
    27        198
    28        115
    29         98
    30          4
    31         37
    35          3
    36          6
    37          7
    38         19
    39        262
    40         62
    41        615
    42         44
    43        265
    44         27
    45         17
    47          7
    48          3
    49         35
    50         24
    51         69
    52         42
    53        244
    54         29
    55        289
    56         64
    57         44
    58         12
    59         22
    60          2
    61          2
    62          6
    63         21
    64          7
    65        116
    66         48
    67        999
    68         80
    69        125
    70         26
    71         21
    72          4
    73          4
    74          9
    75          3
    76          3
    77         88
    78         24
    79        111
    80         25
    81        212
    82         28
    83         24
    84         45
    85         15
    86         13
    87          2
    88          2
    89          4
    91         99
    92         25
    93         86
    94         42
    95        920
    96        230
    97         44
    98         11
    99          4
   101          7
   102          3
   103         10
   104          6
   105        128
   106         30
   107         61
   108         28
   109        156
   110         20
   111         10
   112          7
   113          3
   114          2
   115         11
   116          5
   117         12
   118          9
   119         59
   120        122
   121         47
   122         13
   123        245
   124         24
   125          8
   126          2
   127          4
   128          7
   129          6
   130          3
   131         10
   132         12
   133         30
   134         17
   135         16
   136          6
   137         15
   138        340
   139         39
   140          6
   141         11
   142          4
   143          4
   144          3
   145          8
   146         11
   147         15
   148        129
   149         25
   150          4
   159          8
   160          3
   161         37
   162          9
   163         12
   164          3
   171          7
   173          3
   174          2
   175          7
   176          5
   186          2
   187          5
   189         31
   190          5
   202          1
   203          3
   204          7
   205          4