##TITLE=Library Entry 11991
##JCAMP-DX=Revision 4.10 
##DATA TYPE=MASS SPECTRUM
##SAMPLE DESCRIPTION=H. Fales, LC, NHLBI, NIH, Bethesda, MD 20892
##NAMES=HP
##CAS NAME=o-Aminophenyl mercapturic acid
##MOLFORM=C11H14N2O3S
##CAS REGISTRY NO=91181-80-5
##MP= -300
##BP= -300
##MW= 254
##$RETENTION INDEX=0
##$CONDENSED SPECTRUM=NO
##NPOINTS= 151
##XYDATA=(XY..XY) 1 
    41         85
    42        263
    43        999
    44        362
    45        249
    46         24
    47         17
    48          5
    49         12
    50         19
    51         43
    52         60
    53        109
    54         31
    55         30
    56         49
    57         27
    58         15
    59         36
    60         56
    61         11
    62         19
    63         54
    64         38
    65        158
    66         47
    67         28
    68         12
    69         50
    70         64
    71         28
    72          8
    73         17
    74         65
    75         12
    76         15
    77         80
    78         46
    79         20
    80        432
    81         68
    82         16
    83         11
    84        267
    85         41
    86         28
    87         15
    88        145
    89         10
    90         19
    91         44
    92         48
    93        164
    94        574
    95         62
    96         51
    97        119
    98         30
    99         18
   100          6
   101          1
   102          5
   103          2
   104         27
   105         20
   106         53
   107          9
   108         18
   109         66
   110         17
   111         30
   112         41
   113          5
   115          3
   116          9
   117         42
   118         14
   119         16
   120          6
   121         22
   122         21
   123         21
   124        425
   125        897
   126         83
   127         43
   128          4
   129          7
   130        951
   131         55
   132         18
   133         23
   134          6
   135         10
   136        713
   137         71
   138        287
   139         43
   140         17
   141          5
   144          5
   145          2
   146          1
   147          4
   148         24
   149        206
   150        142
   151         34
   152         11
   153          5
   155          1
   157          2
   159          6
   160          4
   161          2
   162          5
   163          2
   164          6
   165         17
   166          6
   167          6
   168          4
   172          1
   176         11
   177         27
   178         36
   179          7
   180          5
   182         10
   183          3
   193          4
   194          8
   195        133
   196         17
   197          8
   198          1
   207          4
   208          6
   209          4
   210          1
   211          2
   212          3
   222          1
   226         12
   236         10
   237          1
   248          1
   254        929
   255        130
   256         53
   257          8