##TITLE=Library Entry 72044
##JCAMP-DX=Revision 4.10 
##DATA TYPE=MASS SPECTRUM
##SAMPLE DESCRIPTION=Div. of Experiment Therapeutics WRAIR, WRAMC, Washingto
n DC 20307
##NAMES=HP
##CAS NAME=7-Chloro-3-[2,4-dichlorophenyl]-1,3,4,10-tetrahydro-10-hydroxy-1-
[(4-methylpiperazin-1-yl)imino]-9(2H)-acridinone
##MOLFORM=C24H23Cl3N4O2
##CAS REGISTRY NO=91189-88-7
##MP= -300
##BP= -300
##MW= 504
##$RETENTION INDEX=0
##$CONDENSED SPECTRUM=NO
##NPOINTS= 227
##XYDATA=(XY..XY) 1 
    42        495
    43        331
    44        231
    45        113
    47         51
    48          4
    52         23
    53         24
    54         56
    55         88
    56        569
    57        124
    58        526
    59         10
    60         36
    61         11
    62          4
    63         26
    64          5
    65         21
    66          8
    67         22
    68         22
    69         46
    70        209
    71        126
    72         44
    73         21
    74         11
    75         33
    76         13
    77         24
    78         44
    79          7
    80         30
    81         19
    82         22
    83         41
    87          6
    88         32
    89         23
    90         10
    91         15
    92          8
    93         11
    94          2
    95         59
    96         28
    97        111
    98        482
    99        999
   100        189
   101         29
   102         16
   103          4
   104          6
   105         10
   106         22
   107          6
   108          2
   109          9
   110         17
   111         20
   112         14
   113         21
   114         16
   115         31
   116          5
   117         12
   118         12
   119         10
   120          7
   121          6
   122          4
   123         13
   124         25
   125         16
   126         17
   127         24
   128         14
   129          7
   130          4
   131          4
   132          2
   133          6
   134          3
   135         10
   136         16
   137         22
   138         16
   139         13
   140         10
   141          9
   142          5
   143          5
   144          3
   145          7
   146          6
   147          4
   148         14
   149         23
   150         12
   151          8
   152          7
   153         18
   154          6
   155         11
   156          3
   157          2
   159         30
   160          3
   161         24
   162          9
   163         13
   164         18
   165          6
   166         10
   167          5
   168          4
   169          2
   170          1
   171         13
   172         13
   173         12
   174         11
   175         11
   176          6
   177          7
   178          6
   179          5
   180          6
   181          4
   182          4
   183          5
   185          3
   186          2
   187          3
   188          6
   189          4
   190          5
   191          4
   192          5
   193          2
   195          6
   196          5
   197          2
   198          3
   199          5
   200          1
   201          7
   203          9
   204          4
   205          5
   206          4
   208          6
   209          5
   210          4
   211          7
   213          4
   214          1
   215          2
   216          3
   217          5
   218          5
   219         16
   220          3
   221          7
   222          1
   224          1
   226          1
   228          3
   230          6
   231          4
   232          5
   238          3
   240          1
   242          1
   243          4
   244          5
   245          5
   246          4
   248          2
   250          1
   252          7
   253          4
   255          1
   262          4
   278          1
   289          1
   292          1
   318          4
   353          9
   354          7
   355         10
   356          5
   357          3
   362          1
   371          1
   372          3
   373          1
   386          1
   387          1
   388          2
   389          5
   390          7
   391         17
   392          8
   393         14
   394          4
   395          5
   404          1
   405          1
   406          4
   407          6
   408          3
   409          5
   418          3
   420          3
   488          7
   490          7
   491          1
   504         26
   505          6
   506         24
   507          6
   508          7
   509          1