##TITLE=Library Entry 9635
##JCAMP-DX=Revision 4.10 
##DATA TYPE=MASS SPECTRUM
##SAMPLE DESCRIPTION=Philip Morris R&D
##NAMES=HP
##CAS NAME=R-(+)-Methyl-3-isopropyl-6-oxoheptanoate
##MOLFORM=C11H20O3
##CAS REGISTRY NO=91201-40-0
##MP= -300
##BP= -300
##MW= 200
##$RETENTION INDEX=0
##$CONDENSED SPECTRUM=NO
##NPOINTS= 69
##XYDATA=(XY..XY) 1 
    38         10
    39        150
    40         22
    41        295
    42         48
    43        999
    44         43
    45         20
    50          8
    51         15
    52          5
    53         47
    54         14
    55        258
    56         23
    57         22
    58         85
    59        115
    65          8
    67         44
    68         11
    69        211
    70         21
    71         95
    72          7
    73         24
    74         55
    75          6
    77          9
    79         25
    81         57
    82         24
    83        303
    84         26
    85         13
    87        112
    88          2
    91          7
    93         30
    95         14
    97         89
    98         11
    99          4
   100          4
   101         38
   107         32
   108         42
   109        201
   110         39
   111        179
   112         11
   113          2
   115         54
   116          2
   122          4
   123         65
   124          5
   125         52
   126         22
   127         27
   129          8
   130          5
   142         51
   143        106
   144          4
   151          4
   153         12
   157          8
   169          3