##TITLE=Library Entry 83120
##JCAMP-DX=Revision 4.10 
##DATA TYPE=MASS SPECTRUM
##SAMPLE DESCRIPTION=A.A.Kutin, Moscow, Russia
##NAMES=HP
##CAS NAME=Ethanol, 2-(4-aminobenzyl)(2-hydroxyethyl)amino-
##MOLFORM=C11H18N2O2
##CAS REGISTRY NO=91216-41-0
##MP= -300
##BP= -300
##MW= 210
##$RETENTION INDEX=0
##$CONDENSED SPECTRUM=NO
##NPOINTS= 113
##XYDATA=(XY..XY) 1 
    34          0
    36          3
    37          0
    38          2
    39         13
    40          7
    41         12
    42         45
    43         17
    44         12
    45         27
    46          0
    50          3
    51         12
    52         13
    53         11
    54          8
    55          3
    56         23
    57          3
    58          1
    59          0
    60          0
    61          0
    62          1
    63          5
    64          2
    65         10
    66          6
    67          3
    68          0
    69          0
    70          1
    71          0
    72          1
    74         42
    75          2
    76          2
    77         55
    78         29
    79         25
    80          8
    81          1
    82          0
    83          0
    84          0
    85          0
    86          1
    87          0
    88          1
    89          6
    90          3
    91          4
    92          4
    93          6
    94          3
    95          0
    96          0
    97          0
    98          0
    99          0
   100          5
   101          0
   102          1
   104         21
   106        999
   107         81
   108          3
   109          0
   112          0
   113          0
   116          1
   117          1
   118          5
   119          5
   120          6
   121          2
   122          2
   123          0
   124          0
   129          0
   130          0
   131          1
   132          2
   133          4
   134          2
   135          9
   136          1
   137          0
   144          0
   145          0
   146          0
   147          1
   148          0
   149          0
   151          0
   164          3
   165          7
   166          1
   167          0
   171          0
   173          0
   177          3
   178          3
   179        139
   180         16
   181          1
   191          0
   208          0
   209          1
   210         18
   211          3
   212          0