##TITLE=Library Entry 33947
##JCAMP-DX=Revision 4.10 
##DATA TYPE=MASS SPECTRUM
##SAMPLE DESCRIPTION=Chemical Concepts
##NAMES=HP
##CAS NAME=Heptanoic acid, 2-vinyl-, ethyl ester
##MOLFORM=C11H20O2
##CAS REGISTRY NO=91213-09-1
##MP= -300
##BP= -300
##MW= 184
##$RETENTION INDEX=0
##$CONDENSED SPECTRUM=NO
##NPOINTS= 89
##XYDATA=(XY..XY) 1 
    26         16
    27        238
    28         48
    29        691
    30         16
    31         10
    32         13
    37          1
    38          7
    39        170
    40         22
    41        471
    42         63
    43        160
    44          6
    45         21
    47          1
    50          3
    51         12
    52          9
    53         74
    54        161
    55        567
    56         81
    57         94
    58          5
    59          3
    60          3
    61          3
    63          2
    64          2
    65         14
    66          7
    67         86
    68         85
    69        999
    70        107
    71         18
    72          6
    73         29
    74          2
    77         10
    78          2
    79         13
    80          4
    81         43
    82         15
    83         35
    84         20
    85        102
    86        217
    87         39
    88         23
    89          3
    91          2
    93          1
    94          1
    95         17
    96         18
    97          8
    98          2
    99         48
   100          9
   101         26
   102          6
   109         18
   110         11
   111        108
   112         13
   113        239
   114        324
   115         55
   116         24
   117          2
   123          1
   127        223
   128         26
   129          5
   138          2
   139         18
   140          1
   141          8
   142          1
   143          0
   155          2
   156          1
   169          3
   184         28
   185          3