##TITLE=Library Entry 79548
##JCAMP-DX=Revision 4.10 
##DATA TYPE=MASS SPECTRUM
##SAMPLE DESCRIPTION=A.A.Kutin, Moscow, Russia
##NAMES=HP
##CAS NAME=Pent-2-ene-1,5-dione, 1-(4-bromophenyl)-3,5-diphenyl-
##MOLFORM=C23H17BrO2
##CAS REGISTRY NO=91232-60-9
##MP= -300
##BP= -300
##MW= 404
##$RETENTION INDEX=0
##$CONDENSED SPECTRUM=NO
##NPOINTS= 218
##XYDATA=(XY..XY) 1 
    33          3
    34          0
    36          0
    37          1
    38          3
    39         15
    40         14
    41          2
    42          0
    43          2
    44          7
    45          0
    48          0
    50         41
    51         69
    52          6
    53          2
    55          1
    56          0
    57          1
    60          0
    61          0
    62          4
    63         15
    64          4
    65         13
    66          1
    67          0
    69          1
    70          0
    71          0
    74         15
    75         50
    76         91
    77        347
    78         26
    79          3
    80          5
    81          3
    82          7
    83          1
    85          0
    86          1
    87          3
    88          5
    89         19
    90          7
    91         25
    92          2
    94          1
    95          3
    96          2
    97          0
    98          0
    99          0
   100          1
   101          6
   102         14
   105        999
   106         72
   107          5
   108          0
   109          0
   110          1
   111          1
   113          6
   115        116
   116         20
   117          2
   118          1
   119          2
   120          0
   121          0
   122          0
   123          0
   124          0
   125          1
   126          3
   127          2
   128          2
   129          3
   130          0
   131          4
   132          1
   137          1
   138          2
   139          5
   140          1
   141          1
   143          8
   144          3
   145          1
   149          2
   150          2
   151          3
   152          5
   153         11
   155        104
   156         13
   157         95
   158          5
   163          4
   164          3
   165         12
   166          2
   167          0
   169          2
   171          3
   176          4
   177          2
   178         10
   179          2
   180          3
   183        345
   185        339
   186         22
   187          3
   188          3
   189         17
   190          9
   191         36
   192         28
   193         15
   194          4
   195          1
   200          2
   201          3
   202         16
   203         16
   204         56
   205         23
   206          4
   207         10
   208          2
   209          0
   215          0
   217          0
   218          3
   219          7
   220         56
   221        138
   222         23
   223          2
   224          0
   231          1
   232          0
   233          0
   234          0
   235          2
   236          0
   247          1
   248          1
   249          5
   250          1
   251          0
   252          0
   265          0
   269          1
   270          0
   271          1
   272          1
   273          0
   276          1
   277          1
   278          1
   279          1
   280          1
   282         13
   283          3
   284         11
   285          5
   286          1
   287          2
   288          0
   289          0
   296          1
   298         11
   299         31
   300         13
   301         28
   302          5
   303          0
   306          0
   307          1
   308          8
   309          4
   310          1
   311          2
   312          0
   313          1
   315          1
   323          0
   325          4
   326          3
   327          3
   329          3
   330          1
   332          0
   359          1
   360          1
   361          0
   375          0
   376          0
   377          0
   378          0
   385          0
   386          2
   387         27
   388         11
   389         25
   390          7
   391          1
   402          2
   404         37
   405         11
   406         30
   407          7
   408          1