##TITLE=Library Entry 54021
##JCAMP-DX=Revision 4.10 
##DATA TYPE=MASS SPECTRUM
##SAMPLE DESCRIPTION=Institute of Organic Chemistry, Novosibirsk, USSR 1988
##NAMES=HP
##CAS NAME=14-Benzyl-7,12-dimethyl-1,4-dioxa-7,12-diazacyclotetradecane-2,6,
13-trione
##MOLFORM=C19H26N2O5
##CAS REGISTRY NO=91234-76-3
##MP= -300
##BP= -300
##MW= 362
##$RETENTION INDEX=0
##$CONDENSED SPECTRUM=NO
##NPOINTS= 68
##XYDATA=(XY..XY) 1 
    55        146
    56         61
    57        435
    58        112
    69         66
    70        307
    71        156
    72         66
    82         61
    83        692
    84        999
    85        138
    86        156
    91        207
    92         64
    96         61
    97        105
    98        135
    99         53
   100         87
   101         43
   102         51
   103        107
   104         71
   105         53
   111         71
   112        130
   113        107
   114         84
   115         61
   124        115
   125         61
   130         61
   131        461
   132        102
   141         56
   142         87
   143         74
   156         64
   157         51
   160         64
   161         61
   162         56
   172         84
   173         38
   174        110
   187         48
   188         99
   202        123
   213        184
   214         48
   215        176
   216         61
   227         40
   231        169
   232         33
   243         28
   245        105
   246         28
   271         30
   273        146
   274         30
   303         94
   304        189
   305         43
   334         30
   362         64
   363         20