##TITLE=Library Entry 100435
##JCAMP-DX=Revision 4.10 
##DATA TYPE=MASS SPECTRUM
##SAMPLE DESCRIPTION=A.A.Kutin, Moscow, Russia
##NAMES=HP
##CAS NAME=Pent-2-ene-1,5-dione, 1-(4-chlorophenyl)-5-(4-methylphenyl)-3-phe
nyl-
##MOLFORM=C24H19ClO2
##CAS REGISTRY NO=91232-48-3
##MP= -300
##BP= -300
##MW= 374
##$RETENTION INDEX=0
##$CONDENSED SPECTRUM=NO
##NPOINTS= 241
##XYDATA=(XY..XY) 1 
    33          2
    34          0
    35          1
    36          4
    37          1
    38          4
    39         27
    40         11
    41          9
    42          1
    43          2
    44          6
    45          0
    50         16
    51         22
    52          3
    53          2
    54          0
    55          1
    56          0
    57          1
    59          0
    60          0
    61          1
    62          4
    63         20
    65        107
    66          6
    67          0
    69          1
    70          0
    71          0
    72          0
    73          2
    74          8
    75         48
    76         20
    77         22
    78          3
    79          2
    81          0
    82          1
    83          0
    84          1
    85          3
    86          1
    87          3
    89         37
    91        322
    92         21
    93          1
    94          2
    95          1
    96          0
    97          0
    98          0
    99          1
   100          1
   101          4
   102          7
   103          6
   104         11
   105         31
   106          3
   107          1
   108          0
   111        190
   112         18
   113         57
   114         11
   115         70
   116         16
   119        999
   120         80
   121          5
   122          0
   123          0
   125          7
   126          3
   127          6
   128          6
   129         12
   130          1
   131          3
   132          1
   133          0
   134          0
   135          2
   136          3
   139        565
   140         50
   141        171
   142         12
   143          3
   144          2
   145          1
   146          0
   147          0
   149          8
   150          2
   151          4
   152          3
   153          1
   154          0
   156          0
   157          4
   158          0
   159          0
   160          1
   161          1
   162          0
   163          2
   164          2
   165          8
   166          1
   167          0
   171          1
   174          0
   176          2
   177          3
   178          9
   179          4
   180          0
   187          1
   189         15
   190          7
   191         24
   192         14
   193          2
   194          0
   199          0
   200          1
   201          3
   202         14
   203          7
   204          3
   205          5
   206          3
   207         12
   208          2
   209          0
   212          1
   213          0
   214          0
   215          2
   216          2
   217          6
   218         44
   219         23
   220         15
   221          9
   222          1
   223          0
   225          2
   226          1
   227          3
   228          1
   229          1
   230          0
   231          1
   232          1
   233          2
   235        186
   236         31
   237          4
   238         12
   239          3
   240          4
   241          3
   242          0
   243          0
   245          0
   246          0
   247          0
   249          1
   250          0
   251          0
   252          1
   253          1
   254         16
   255         40
   256         12
   257         12
   258          2
   261          0
   262          0
   263          4
   264          1
   265          1
   267          0
   269          2
   270          0
   271          1
   276          0
   277          0
   278          1
   279          0
   280          0
   281          2
   282          2
   283          4
   284          1
   285          1
   291          0
   292          0
   293          0
   294          0
   295          0
   297          0
   321          0
   322          1
   323          0
   328          0
   329          1
   330          0
   331          0
   337          0
   339          0
   341          0
   342          0
   344          0
   345          0
   346          1
   347          0
   348          0
   354          1
   355          2
   357         43
   358         13
   359         14
   360          4
   361          1
   371          2
   372          3
   374         62
   375         16
   376         19
   377          6
   378          1
   379          1
   380          0