##TITLE=Library Entry 12922
##JCAMP-DX=Revision 4.10 
##DATA TYPE=MASS SPECTRUM
##SAMPLE DESCRIPTION=V.A.Korolev, Moscow, Russia
##NAMES=HP
##CAS NAME=3,4-Diethyl 2-amino-5-methylfuran-3,4-dicarboxylate
##MOLFORM=C11H15NO5
##CAS REGISTRY NO=91248-60-1
##MP= -300
##BP= -300
##MW= 241
##$RETENTION INDEX=0
##$CONDENSED SPECTRUM=NO
##NPOINTS= 69
##XYDATA=(XY..XY) 1 
    37          3
    38         14
    39         55
    40         24
    41         44
    42         54
    43        999
    44        174
    45         60
    47         20
    49          5
    50         56
    51        172
    52        403
    53        220
    54         77
    55         33
    56          6
    61         10
    65         12
    66         77
    67         71
    68        127
    69         40
    70         25
    71         15
    77         35
    78         37
    79         99
    80        121
    81         67
    82          8
    83          9
    93          4
    94         45
    95        236
    96         74
    97        124
    98         24
    99         13
   107         16
   108          4
   111          6
   113          5
   121         22
   122         79
   123        290
   124        101
   125         54
   139         29
   140         37
   141         11
   142          6
   149        408
   150         78
   151         41
   152         31
   153          4
   166         60
   167        710
   168        136
   169         10
   194          8
   195        336
   196        196
   197         15
   212          5
   241        186
   242         24