##TITLE=Library Entry 23519
##JCAMP-DX=Revision 4.10 
##DATA TYPE=MASS SPECTRUM
##SAMPLE DESCRIPTION=Chemical Concepts
##NAMES=HP
##CAS NAME=Cyclohexanemethanol, 4-t-butyl-2-hydroxy-
##MOLFORM=C11H22O2
##CAS REGISTRY NO=91243-08-2
##MP= -300
##BP= -300
##MW= 186
##$RETENTION INDEX=0
##$CONDENSED SPECTRUM=NO
##NPOINTS= 112
##XYDATA=(XY..XY) 1 
    26          3
    27         93
    28         22
    29        230
    30          8
    31         72
    38          3
    39         99
    40         20
    41        513
    42         55
    43        240
    44         20
    45         23
    46          1
    47          4
    49          2
    50          5
    51         12
    52          6
    53         61
    54         37
    55        323
    56        191
    57        999
    58         50
    59         12
    60          4
    61          4
    62          2
    63          3
    64          2
    65         19
    66         43
    67        189
    68         88
    69        150
    70         75
    71         45
    72          3
    73          9
    74         17
    75          3
    76          5
    77         47
    78         22
    79        237
    80         50
    81        198
    82         42
    83        103
    84         59
    85         13
    86          2
    87          9
    89          1
    91         42
    92         32
    93        201
    94        304
    95        174
    96         22
    97         55
    98         10
    99          6
   100          2
   101          1
   102          1
   103          1
   104          4
   105          7
   106          3
   107         44
   108          7
   109         36
   110         42
   111        259
   112        152
   113         47
   114          5
   115          2
   119          3
   120          1
   121          5
   122          4
   123         10
   124         67
   125         14
   126          3
   127          1
   128          3
   129         18
   130          5
   131          4
   135         56
   136          7
   137          6
   138          2
   139          5
   140          4
   141          1
   149          4
   150         21
   151          4
   153         40
   154          4
   167          4
   168        138
   169         19
   170          2
   185          2
   187          2