##TITLE=Library Entry 92800
##JCAMP-DX=Revision 4.10 
##DATA TYPE=MASS SPECTRUM
##SAMPLE DESCRIPTION=Japan AIST/NIMC Database- Spectrum MS-IW-6234
##NAMES=HP
##CAS NAME=2,2,3-Trimethyl-6-semicarbazonoheptanoic acid
##MOLFORM=C11H21N3O3
##CAS REGISTRY NO=91242-29-4
##MP= -300
##BP= -300
##MW= 243
##$RETENTION INDEX=0
##$CONDENSED SPECTRUM=NO
##NPOINTS= 161
##XYDATA=(XY..XY) 1 
    15          4
    16          9
    17         19
    18          2
    26          4
    27         27
    28         24
    29         26
    30         25
    31         15
    37          1
    38          5
    39         42
    40         21
    41        136
    42         82
    43         72
    44         53
    45         11
    46          1
    50          3
    51          7
    52          6
    53         22
    54         20
    55        142
    56         28
    57         55
    58         10
    59         23
    60          4
    61          9
    62          1
    63          2
    64          1
    65          8
    66          6
    67         26
    68         24
    69         51
    70         49
    71         48
    72        340
    73         48
    74         69
    75          9
    76          7
    77         11
    78          5
    79         21
    80          9
    81         47
    82         21
    83         59
    84         17
    85         95
    86         10
    87          6
    88         18
    89          2
    90          1
    91         14
    92          4
    93         13
    94         15
    95         16
    96        107
    97         50
    98        155
    99         62
   100        237
   101         15
   102          3
   103          2
   104          2
   105          9
   106          7
   107         13
   108         11
   109         14
   110          7
   111         71
   112         15
   113         35
   114          7
   115        999
   116         61
   117          6
   118          2
   119          3
   120          5
   121          9
   122         15
   123         22
   124         10
   125          7
   126          4
   127          2
   128         98
   129          9
   130          2
   131          3
   132          4
   133          2
   134          5
   135          9
   136          5
   137          6
   138          7
   139         84
   140         10
   141          4
   142          2
   143          1
   144          1
   145          2
   146          3
   147          3
   148          2
   149         13
   150          8
   151          4
   152          2
   153          3
   154          7
   155          5
   156        150
   157         13
   158          1
   163          1
   164          8
   165          8
   166          2
   167          9
   168          2
   169          2
   179          1
   180          1
   181          4
   182         11
   183          4
   184          5
   185          2
   186          1
   196          1
   197          1
   198          6
   199          2
   207          2
   208          1
   209          1
   211          2
   213          1
   214          4
   215          1
   225          1
   226          3
   227          1
   243         21
   244         14
   245          2