##TITLE=Library Entry 34514
##JCAMP-DX=Revision 4.10 
##DATA TYPE=MASS SPECTRUM
##SAMPLE DESCRIPTION=Chemical Concepts
##NAMES=HP
##CAS NAME=Cyclopentane, 1,2-dipropyl-
##MOLFORM=C11H22
##CAS REGISTRY NO=91242-57-8
##MP= -300
##BP= -300
##MW= 154
##$RETENTION INDEX=0
##$CONDENSED SPECTRUM=NO
##NPOINTS= 86
##XYDATA=(XY..XY) 1 
    24         36
    25         35
    27        372
    28         24
    29        367
    30          9
    31         23
    37          3
    38          9
    39        269
    40          9
    41        843
    42        231
    43        333
    44          9
    45          9
    46          2
    49          2
    50          9
    51         34
    52         17
    53        112
    54         92
    55        782
    56        376
    57        144
    58          8
    59          8
    62          3
    63          8
    64          3
    65         35
    66         36
    67        318
    68         89
    69        999
    70        297
    71         54
    72          3
    74          4
    75          3
    76          1
    77         37
    78          9
    79         53
    80         10
    81         88
    82         87
    83        190
    84        239
    85         43
    86          3
    87          1
    89          2
    91         17
    92          3
    93          8
    94          3
    95         21
    96         41
    97        151
    98         92
    99          9
   103          3
   105          3
   107          3
   108          3
   109         87
   110        227
   111        843
   112        147
   113         10
   114          1
   115          1
   121          2
   123         10
   124         12
   125         90
   126         79
   127          9
   131          1
   139          2
   151          3
   153          3
   154        146
   155         16