##TITLE=Library Entry 49216
##JCAMP-DX=Revision 4.10 
##DATA TYPE=MASS SPECTRUM
##SAMPLE DESCRIPTION=Chemical Concepts
##NAMES=HP
##CAS NAME=2-Naphthol, 1,2,3,4,4a,5,6,7-octahydro-4a-methyl-
##MOLFORM=C11H18O
##CAS REGISTRY NO=91253-94-0
##MP= -300
##BP= -300
##MW= 166
##$RETENTION INDEX=0
##$CONDENSED SPECTRUM=NO
##NPOINTS= 113
##XYDATA=(XY..XY) 1 
    26         16
    27        126
    28         17
    29        109
    30          5
    31         45
    37         14
    38         20
    39        201
    40         31
    41        309
    42         22
    43        111
    44         11
    45         20
    49          8
    50        103
    51        283
    52         64
    53        115
    54         30
    55        211
    56         32
    57         47
    58         13
    59          9
    60          6
    61         10
    62         25
    63         56
    64         15
    65        115
    66         36
    67        325
    68         62
    69         68
    70         51
    71         58
    72          5
    73          7
    74         28
    75         23
    76         19
    77        670
    78        119
    79        999
    80        104
    81        239
    82         51
    83         65
    84         46
    85         13
    86          8
    87          6
    89         47
    90         69
    91        479
    92         83
    93        281
    94         96
    95        197
    96        263
    97         96
    98         14
    99          7
   103         16
   104         10
   105        413
   106         92
   107        693
   108        898
   109        455
   110         90
   111         62
   112         32
   113          5
   114          3
   115         21
   116          5
   117         18
   118          9
   119         79
   120         50
   121         45
   122         89
   123         80
   124         24
   125         83
   126         17
   127         17
   128          7
   131         25
   132          8
   133        309
   134         26
   135         50
   136         29
   137         26
   138         14
   139          6
   141         10
   146          8
   147         22
   148        191
   149          2
   150         51
   151         96
   152         10
   163          2
   164          5
   165         33
   166        121
   167         19