##TITLE=Library Entry 67816
##JCAMP-DX=Revision 4.10 
##DATA TYPE=MASS SPECTRUM
##SAMPLE DESCRIPTION=Chemical Concepts
##NAMES=HP
##CAS NAME=2-Bornanol, 2-methyl-
##MOLFORM=C11H20O
##CAS REGISTRY NO=91278-70-5
##MP= -300
##BP= -300
##MW= 168
##$RETENTION INDEX=0
##$CONDENSED SPECTRUM=NO
##NPOINTS= 90
##XYDATA=(XY..XY) 1 
    26          3
    27         59
    28          2
    29         74
    30          3
    31         11
    39         80
    40         18
    41        178
    42         29
    43        297
    44         23
    45         20
    50          3
    51         15
    52          8
    53         61
    54         16
    55        167
    56         22
    57         77
    58         33
    59        108
    60         13
    61          4
    65         27
    66         12
    67        134
    68         38
    69        186
    70         36
    71         55
    72         13
    73          6
    77         52
    78         12
    79         68
    80         45
    81        124
    82         47
    83        107
    84        127
    85        154
    86         64
    87         10
    91         57
    92         11
    93        108
    94         46
    95        999
    96        147
    97         80
    98         27
    99         12
   102         12
   103          5
   104          4
   105         19
   106         38
   107        210
   108        295
   109        102
   110        273
   111        145
   112         19
   113         12
   114          4
   115          3
   117          2
   119          9
   120          4
   121         58
   122         24
   123         41
   124         17
   125         61
   126          8
   127          4
   135        180
   136         20
   137          6
   139          6
   149          7
   150        124
   151         37
   152         11
   153         36
   154          4
   168        118
   169         14