##TITLE=Library Entry 55982
##JCAMP-DX=Revision 4.10 
##DATA TYPE=MASS SPECTRUM
##SAMPLE DESCRIPTION=Japan AIST/NIMC Database- Spectrum MS-IW-6845
##NAMES=HP
##CAS NAME=N-Isovaleryl-dl-leucine
##MOLFORM=C11H21NO3
##CAS REGISTRY NO=91280-21-6
##MP= -300
##BP= -300
##MW= 215
##$RETENTION INDEX=0
##$CONDENSED SPECTRUM=NO
##NPOINTS= 129
##XYDATA=(XY..XY) 1 
    15          4
    17         18
    18          2
    26          1
    27         47
    28         34
    29         81
    30        122
    31          3
    38          1
    39         35
    40          7
    41        171
    42         38
    43        185
    44        184
    45          8
    46          2
    51          1
    52          1
    53          9
    54         13
    55         41
    56         49
    57        373
    58         18
    59         66
    60          9
    65          1
    66          1
    67          7
    68          9
    69         48
    70         89
    71         14
    72          6
    73         21
    74         37
    75         26
    76         29
    77          1
    79          1
    80          1
    81          3
    82          4
    83         16
    84         48
    85        311
    86        999
    87         66
    88         37
    89          9
    90          1
    91          1
    93          1
    94          1
    95          4
    96         10
    97          9
    98         10
    99         60
   100         21
   101         19
   102         45
   103          3
   109          1
   110         38
   111          6
   112         41
   113         41
   114         14
   115         10
   116         44
   117        167
   118          8
   119          1
   124          1
   125          1
   126          8
   127         86
   128         76
   129          9
   130         37
   131         11
   132         38
   133          3
   137          1
   138          1
   139          1
   140          1
   141        199
   142         16
   143          2
   144          3
   145          2
   149          1
   151          1
   152          1
   153          1
   154         63
   155         90
   156         11
   157          1
   158         19
   159        276
   160         22
   161          3
   168          2
   169          2
   170         90
   171         23
   172         17
   173        100
   174          9
   175          1
   179          1
   182          4
   183          1
   188          1
   193          1
   196          1
   197          9
   198          3
   200         14
   201          2
   214          2
   215         24
   216          9
   217          1