##TITLE=Library Entry 6268
##JCAMP-DX=Revision 4.10 
##DATA TYPE=MASS SPECTRUM
##SAMPLE DESCRIPTION=Chemical Concepts
##NAMES=HP
##CAS NAME=1-Propanesulfonic acid, ethyl ester
##MOLFORM=C5H12O3S
##CAS REGISTRY NO=91284-43-4
##MP= -300
##BP= -300
##MW= 152
##$RETENTION INDEX=0
##$CONDENSED SPECTRUM=NO
##NPOINTS= 79
##XYDATA=(XY..XY) 1 
    13          1
    14          3
    15         23
    16          2
    18          2
    19          1
    26         28
    27        215
    28         39
    29        169
    30         23
    31         28
    34          1
    35          1
    36          1
    37          7
    38          8
    39        157
    40         36
    41        419
    42        185
    43        999
    44         36
    45        118
    46         23
    47          9
    48         13
    49          4
    50          3
    54          1
    55         14
    57          2
    58          3
    59         30
    60          1
    63          7
    64          9
    65         40
    66         16
    67          3
    68          3
    69          2
    73         22
    78          9
    79          3
    80          2
    81          4
    82          6
    83        298
    84          3
    85         10
    89          1
    91          2
    92          1
    93         14
    94         10
    95          4
    96         40
    97          6
   106          2
   107         74
   108         16
   109         13
   110          3
   111         99
   112          4
   113          4
   116          1
   120          1
   123          2
   124        139
   125         48
   126          9
   127          2
   128          1
   137         40
   138          2
   139          4
   151          2