##TITLE=Library Entry 88498
##JCAMP-DX=Revision 4.10 
##DATA TYPE=MASS SPECTRUM
##SAMPLE DESCRIPTION=NIST Mass Spectrometry Data Center, 2010
##NAMES=HP
##CAS NAME=Caryophyllenyl alcohol
##MOLFORM=C15H26O
##CAS REGISTRY NO=913176-41-7
##MP= -300
##BP= -300
##MW= 222
##$RETENTION INDEX=0
##$CONDENSED SPECTRUM=NO
##NPOINTS= 118
##XYDATA=(XY..XY) 1 
    27         19
    28          4
    29         29
    30          1
    31          4
    38          1
    39         49
    40         11
    41        177
    42         16
    43         78
    44          3
    45          4
    50          1
    51          9
    52          5
    53         54
    54         17
    55        224
    56         31
    57         23
    58          7
    59         70
    60          3
    62          1
    63          2
    64          1
    65         24
    66         10
    67        105
    68         35
    69        173
    70         32
    71         20
    72          3
    73          1
    74          1
    75          1
    77         46
    78          9
    79         70
    80         18
    81        208
    82         44
    83         76
    84         14
    85          9
    86          1
    89          1
    91         42
    92         10
    93         72
    94         29
    95        166
    96         57
    97         46
    98         14
    99          2
   103          3
   104          1
   105         40
   106         12
   107         48
   108         53
   109        117
   110         40
   111        999
   112         79
   113          5
   115          3
   116          1
   117          4
   118          1
   119         33
   120         14
   121        142
   123        293
   124         32
   129          1
   130          1
   131          2
   132          1
   133         28
   134         10
   135         75
   136         24
   137         28
   138         14
   139          8
   148         11
   149         56
   150         58
   151         39
   152          8
   153          2
   154          1
   161        156
   162         26
   164         37
   165         33
   166         30
   167          8
   168          1
   175         30
   176          6
   178          1
   179         77
   180         11
   181          1
   189         32
   190          5
   193          1
   204         63
   205         11
   206          1
   207         40
   208          6
   209          1