##TITLE=Library Entry 69205
##JCAMP-DX=Revision 4.10 
##DATA TYPE=MASS SPECTRUM
##SAMPLE DESCRIPTION=P. VAINIOTALO, DEPT. CHEM., UNIV. JOENSUU, JOENSUU, FIN
LAND
##NAMES=HP
##CAS NAME=1-Methyl-cyclohexyl propionate
##MOLFORM=C10H18O2
##CAS REGISTRY NO=91328-37-9
##MP= -300
##BP= -300
##MW= 170
##$RETENTION INDEX=0
##$CONDENSED SPECTRUM=NO
##NPOINTS= 33
##XYDATA=(XY..XY) 1 
    18         60
    27        132
    29        345
    39        108
    40         31
    41        153
    42         31
    43        226
    44         30
    53         67
    54         93
    55        530
    56         55
    57        942
    58         88
    59         23
    67        195
    68        205
    69         44
    71        112
    72         49
    77         21
    79         38
    81        843
    82         63
    85         24
    95        128
    96        999
    97        414
    98         47
    99         99
   113         51
   114         77