##TITLE=Library Entry 83106
##JCAMP-DX=Revision 4.10 
##DATA TYPE=MASS SPECTRUM
##SAMPLE DESCRIPTION=Japan AIST/NIMC Database- Spectrum MS-IW-5236
##NAMES=HP
##CAS NAME=Urea, 1-(dimethylcarbamoylmethyl)-1-phenyl-
##MOLFORM=C11H15N3O2
##CAS REGISTRY NO=91337-96-1
##MP= -300
##BP= -300
##MW= 221
##$RETENTION INDEX=0
##$CONDENSED SPECTRUM=NO
##NPOINTS= 86
##XYDATA=(XY..XY) 1 
    15          8
    17          7
    18          1
    26          2
    27          8
    28         22
    29          5
    30          9
    37          2
    38          6
    39         15
    40          3
    41          4
    42         26
    43         53
    44         60
    45         27
    46          5
    49          1
    50         19
    51         67
    52         34
    53          5
    54          1
    55          1
    56          4
    57          3
    58         18
    59          1
    62          2
    63          9
    64          7
    65          9
    66          2
    69          1
    70         12
    71          2
    72         44
    73          5
    74          8
    75          4
    76          9
    77        201
    78         37
    79         43
    80          3
    83          3
    86          1
    87          1
    89          4
    90          2
    91          5
    92          2
    93          6
    97          1
    98          4
    99          4
   101          1
   103          3
   104        178
   105        278
   106        999
   107         80
   108          3
   111          2
   112          1
   113          2
   117          1
   118          1
   119          4
   120          2
   132          1
   133          3
   147          2
   149         10
   150          1
   176        363
   177         41
   178        247
   179         29
   180          2
   188          1
   202          1
   203         24
   204          3
   221          2