##TITLE=Library Entry 46634
##JCAMP-DX=Revision 4.10 
##DATA TYPE=MASS SPECTRUM
##SAMPLE DESCRIPTION=Asinex Ltd, Moscow, Russia
##NAMES=HP
##CAS NAME=Benzenamine, 2-bromo-4,6-dinitro-N-phenyl-
##MOLFORM=C12H8BrN3O4
##CAS REGISTRY NO=91330-95-9
##MP= -300
##BP= -300
##MW= 337
##$RETENTION INDEX=0
##$CONDENSED SPECTRUM=NO
##NPOINTS= 229
##XYDATA=(XY..XY) 1 
    33          5
    34          6
    36          7
    37         38
    38         83
    39        285
    40        113
    41         43
    42         27
    43         29
    44         60
    46        158
    47          1
    48          3
    50        257
    51        768
    52        161
    53         56
    54         11
    55         27
    56         15
    57         14
    58          1
    61         93
    62        262
    63        255
    64        133
    65        167
    66         37
    67         10
    68         35
    69        128
    70         13
    71          4
    73         35
    74        198
    75        123
    76        180
    77        999
    78        122
    79         53
    80         68
    81         60
    82         81
    83         94
    84          5
    85          9
    86         40
    87         84
    88        162
    89        149
    90         47
    91         39
    92         50
    93         28
    94         16
    95          6
    96          1
    97          5
    98         17
    99         22
   100         23
   101         35
   102         36
   103         44
   104         39
   105         13
   106         10
   107          6
   108          6
   109          9
   110         13
   111         23
   112         23
   113         86
   114         69
   115         64
   116         59
   117         30
   118         13
   119         30
   120         62
   121         19
   122         11
   123         13
   124         14
   125         18
   126         50
   127         73
   128        100
   129         29
   130         13
   131          9
   132          5
   133          2
   134          2
   135          3
   136          8
   137         90
   138        180
   139        726
   140        359
   141        100
   142         26
   143         48
   144         24
   145          9
   147          7
   149          0
   150         14
   151         33
   152         48
   153        112
   154        241
   155         67
   156         47
   157         13
   158         14
   159          4
   160         11
   161          0
   162         12
   164        311
   165        357
   166        590
   167        223
   168         39
   169         10
   170         10
   171          5
   172          4
   173          2
   174          1
   177          6
   178         29
   179         50
   180         23
   181         38
   182        158
   183         38
   184         10
   185          2
   193          5
   194         17
   195        185
   196         29
   197          8
   198          3
   199          1
   205          5
   206          3
   207          1
   208          6
   209          5
   210          4
   211         17
   212         51
   213          6
   218          0
   219          1
   220          1
   221          1
   222          2
   223          3
   224          1
   231          0
   232         52
   233         17
   234         58
   235         21
   236         13
   237         10
   238          0
   239          0
   241          0
   242          3
   243         13
   244         66
   245        138
   246        119
   247        121
   248         61
   249          8
   250          2
   251          0
   255          1
   257         22
   258         18
   259         23
   260         57
   262         64
   263         11
   264         11
   265          1
   271          0
   273         12
   274         89
   275         22
   276         89
   277         12
   278          1
   283          3
   285          3
   290         10
   291         13
   292         24
   293         15
   294         11
   303          5
   304          4
   305          5
   307         30
   308          6
   309         21
   310          4
   319          1
   320         20
   321         10
   322         18
   323          7
   324          0
   332          1
   333          3
   335         19
   337        719
   338        128
   339        667
   340         85
   341          9