##TITLE=Library Entry 27053
##JCAMP-DX=Revision 4.10 
##DATA TYPE=MASS SPECTRUM
##SAMPLE DESCRIPTION=Japan AIST/NIMC Database- Spectrum MS-IW-4106
##NAMES=HP
##CAS NAME=2,3-Pentanedione 2-mono((3-ethyl-4-methyl-5-isoxazolyl)hydrazone)
##MOLFORM=C11H17N3O2
##CAS REGISTRY NO=91341-82-1
##MP= -300
##BP= -300
##MW= 223
##$RETENTION INDEX=0
##$CONDENSED SPECTRUM=NO
##NPOINTS= 104
##XYDATA=(XY..XY) 1 
    14          1
    15         25
    26         18
    27        113
    28        113
    29        500
    30         24
    31          1
    37          1
    38          3
    39         62
    40         17
    41        143
    42        361
    43        319
    44         15
    45          3
    50          1
    51          4
    52         14
    53         33
    54         44
    55         54
    56        118
    57        999
    58         49
    59          3
    64          1
    65          7
    66         18
    67         57
    68         45
    69         38
    70         28
    71         24
    72          3
    77          6
    78          1
    79          3
    80         23
    81         19
    82        667
    83         58
    84         15
    85         16
    86          1
    93          3
    94         24
    95         15
    96          7
    97         22
    98         70
    99         10
   100          4
   107          2
   108          4
   109         15
   110         86
   111         47
   112         65
   113         15
   114          3
   121          1
   122          1
   123          5
   124         15
   125         99
   126        159
   127         14
   128          1
   135          1
   136          4
   137          6
   138          9
   139          9
   140          3
   141          1
   149          4
   150          2
   151          2
   152         18
   153          6
   154          4
   164          2
   165          6
   166        784
   167         83
   168         23
   169          2
   170          3
   179          1
   180         94
   181         11
   182          3
   194          7
   195          1
   196          1
   208          4
   221          1
   222          2
   223        357
   224         62
   225          8
   226          1