##TITLE=Library Entry 71626
##JCAMP-DX=Revision 4.10 
##DATA TYPE=MASS SPECTRUM
##SAMPLE DESCRIPTION=Chemical Concepts
##NAMES=HP
##CAS NAME=N-(5-Methyl-3-isoxazolyl)phthalimide
##MOLFORM=C12H8N2O3
##CAS REGISTRY NO=91377-59-2
##MP= -300
##BP= -300
##MW= 228
##$RETENTION INDEX=0
##$CONDENSED SPECTRUM=NO
##NPOINTS= 107
##XYDATA=(XY..XY) 1 
    33          3
    34          2
    37         89
    38        143
    39        621
    41        196
    43        673
    45         46
    50        484
    51        196
    52         86
    53         76
    55        526
    57         22
    58         17
    60          5
    61         15
    62         18
    63         59
    65        580
    66         82
    67         95
    68         36
    69         22
    70         14
    71         11
    73         30
    74        131
    75        114
    76        399
    77        115
    78         16
    79          5
    80          3
    81          6
    83         27
    85         17
    86          3
    87          2
    88          5
    90         42
    91         13
    93        270
    95          4
    98        999
   100         24
   102         51
   104        328
   105         74
   106          7
   107          2
   108          1
   111          2
   112          4
   113          2
   114          2
   115          4
   116          2
   117          4
   118          3
   119          9
   121        144
   122         17
   123          3
   125          9
   128          6
   130         35
   131          7
   132         22
   133          3
   135          2
   136          2
   139          1
   141          1
   143          2
   144          3
   145          3
   146          5
   149        769
   150         61
   151          8
   152          2
   155          2
   156          1
   158         47
   159          8
   160          4
   165          1
   166          1
   169          1
   170          2
   171          6
   173         11
   174          6
   175          2
   185         10
   186          5
   187          3
   195          2
   199          6
   201         58
   202          7
   203          2
   204          2
   228         67
   229          9
   230          2