##TITLE=Library Entry 83316
##JCAMP-DX=Revision 4.10 
##DATA TYPE=MASS SPECTRUM
##SAMPLE DESCRIPTION=NO NAME
##NAMES=HP
##CAS NAME=6-Benzoyloxy-1,4,8,11-tetrathiacyclotetradecane
##MOLFORM=C17H24O2S4
##CAS REGISTRY NO=91375-65-4
##MP= -300
##BP= -300
##MW= 388
##$RETENTION INDEX=0
##$CONDENSED SPECTRUM=NO
##NPOINTS= 16
##XYDATA=(XY..XY) 1 
    60         90
    61         40
    73         90
    74         90
   105        410
   106        999
   107        290
   122        240
   133        540
   134        740
   135        260
   266        480
   267         60
   388        800
   389        200
   390        160