##TITLE=Library Entry 31261
##JCAMP-DX=Revision 4.10 
##DATA TYPE=MASS SPECTRUM
##SAMPLE DESCRIPTION=NO NAME
##NAMES=HP
##CAS NAME=6-Bromo-1,4,8,11-tetrathiacyclotetradecane
##MOLFORM=C10H19BrS4
##CAS REGISTRY NO=91375-66-5
##MP= -300
##BP= -300
##MW= 346
##$RETENTION INDEX=0
##$CONDENSED SPECTRUM=NO
##NPOINTS= 16
##XYDATA=(XY..XY) 1 
    60        230
    61        999
    73        820
    74        210
   106        650
   107        320
   119        430
   133        730
   134        380
   135        250
   183        140
   267        130
   303        320
   346         60
   347         10
   348         60