##TITLE=Library Entry 91085
##JCAMP-DX=Revision 4.10 
##DATA TYPE=MASS SPECTRUM
##SAMPLE DESCRIPTION=Tox21 Consortium/NIST Mass Spectrometry Data Center, 20
12
##NAMES=HP
##CAS NAME=Ropinirole
##MOLFORM=C16H24N2O
##CAS REGISTRY NO=91374-21-9
##MP= -300
##BP= -300
##MW= 260
##$RETENTION INDEX=0
##$CONDENSED SPECTRUM=NO
##NPOINTS= 120
##XYDATA=(XY..XY) 1 
    26          1
    27         11
    28          5
    29          3
    30         26
    39          7
    40          1
    41         39
    42         48
    43         54
    44         13
    45          2
    50          1
    51          5
    52          3
    53          2
    54          3
    55          2
    56          7
    57          5
    58          3
    59          1
    62          1
    63          4
    64          2
    65          8
    66          2
    67          1
    68          2
    70         14
    71          2
    72         60
    73         12
    74          1
    75          3
    76          3
    77         15
    78          5
    79          4
    80          2
    82          1
    84         15
    85          2
    86         59
    87          5
    88          1
    89          7
    90          7
    91         22
    92          4
    93          1
    94          1
    98          2
    99          1
   100          2
   101          6
   102          5
   103         12
   104          8
   105          7
   106          2
   112         14
   114        999
   115         97
   116         13
   117         22
   118          8
   119          3
   120          1
   127          1
   128          4
   129          2
   130         37
   131         15
   132         31
   133          5
   134          1
   141          1
   142          2
   143          2
   144          3
   145          6
   146         23
   147          6
   148          1
   154          1
   155          1
   156          1
   157          1
   158          3
   159          9
   160         54
   161          6
   162          1
   170          1
   171          2
   172          2
   173          1
   174          3
   175          1
   185          1
   186          2
   187          3
   188          1
   189          1
   200          1
   201          4
   202          1
   203          1
   216          1
   217          1
   218          1
   229          5
   230          1
   231         16
   232          3
   245          1
   258          2
   259          3
   260          1