##TITLE=Library Entry 63254
##JCAMP-DX=Revision 4.10 
##DATA TYPE=MASS SPECTRUM
##SAMPLE DESCRIPTION=TNO Volatile Compounds in Food - Chemical Concepts
##NAMES=HP
##CAS NAME=Pyrazine, (2-phenylethyl)-
##MOLFORM=C12H12N2
##CAS REGISTRY NO=91391-83-2
##MP= -300
##BP= -300
##MW= 184
##$RETENTION INDEX=1552
##$CONDENSED SPECTRUM=NO
##NPOINTS= 85
##XYDATA=(XY..XY) 1 
    26         22
    27         13
    28          9
    31          1
    32          2
    33          5
    38         16
    39         77
    40         17
    41         18
    42         10
    45          4
    50         17
    51         49
    52         35
    53         29
    54          1
    56          2
    57          1
    62          4
    63         27
    64         11
    65        117
    66          9
    67          3
    68          3
    69          9
    72          1
    73          2
    74          4
    76          5
    77         35
    78         25
    79         12
    80         30
    81         10
    84          2
    87          3
    89         10
    90          7
    91        999
    92         70
    93          3
    97          3
    98          1
   100          3
   101          2
   102          4
   103         13
   104          4
   105         10
   106         29
   107        111
   108          9
   114          5
   115         18
   116         10
   117          2
   118          1
   119          3
   120          2
   127          7
   128         14
   129          5
   130          2
   131          4
   132          1
   137          1
   138          2
   145          1
   146          1
   154          5
   155          4
   156         12
   157          8
   159          1
   168         29
   169         76
   170          6
   171          5
   180          4
   181         15
   183        661
   184        842
   185         68