##TITLE=Library Entry 72929
##JCAMP-DX=Revision 4.10 
##DATA TYPE=MASS SPECTRUM
##SAMPLE DESCRIPTION=Patti Price, Georgia Bureau of Investigation, Decatur,
 Georgia
##NAMES=HP
##CAS NAME=Methacycline
##MOLFORM=C22H22N2O8
##CAS REGISTRY NO=914-00-1
##MP= -300
##BP= -300
##MW= 442
##$RETENTION INDEX=0
##$CONDENSED SPECTRUM=NO
##NPOINTS= 186
##XYDATA=(XY..XY) 1 
    42        213
    44        442
    46        530
    51         19
    52         30
    53         12
    58        489
    59          3
    63         48
    65         19
    66         19
    68         14
    70         95
    72        186
    75         13
    76         28
    77         37
    78         25
    80         19
    82         69
    84         29
    86         22
    88         18
    89         44
    91         14
    94         23
    96          4
    98        273
    99         15
   100        999
   101         56
   102         13
   103         22
   107          2
   108         20
   114         33
   115        284
   116         61
   117         13
   123         22
   124         28
   125          2
   126        122
   127        210
   128        111
   131         18
   137         21
   138         30
   139         44
   140         23
   141         20
   142         25
   144         96
   145         55
   147         22
   150         29
   151         82
   152        184
   153        124
   154         66
   155         77
   156         56
   157         19
   160         20
   163         33
   164         27
   165         36
   166         22
   167         11
   168         75
   169         69
   170        188
   171         56
   172        397
   173        196
   174         58
   175         22
   176         20
   178         25
   179         40
   180         80
   181         66
   182         34
   183         29
   184         32
   186          3
   187         29
   193         17
   194         46
   195         42
   196         90
   197         75
   198         79
   199        313
   200        389
   201        406
   202        110
   203         29
   206         32
   207         36
   208        115
   209         39
   210         48
   211         52
   212         61
   213        210
   214         33
   215         18
   218         18
   221         18
   222         22
   223         28
   224         87
   225         90
   226         45
   228         39
   229        165
   230         52
   231         27
   237         29
   238         46
   239         63
   240         48
   241          1
   242         27
   244         21
   245         17
   250         23
   251         19
   252         20
   253         22
   254         65
   255         18
   256         11
   257         22
   265         33
   266         67
   267         32
   268         20
   271        279
   272         44
   278         31
   279         22
   280         22
   281         22
   282         31
   294         22
   306         31
   307         33
   308         32
   311         20
   312         21
   318         22
   323         37
   324         24
   328         60
   329         75
   330         22
   333         19
   334         61
   335         43
   336         68
   337         18
   340         22
   346         18
   351         53
   352         41
   353         24
   362         52
   363         29
   364         57
   369         19
   378         25
   379         37
   380         65
   381         64
   382         27
   397         25
   399         30
   407         50
   408         52
   424         63
   425         89
   426         25
   442        181
   443         57