##TITLE=Library Entry 52156
##JCAMP-DX=Revision 4.10 
##DATA TYPE=MASS SPECTRUM
##SAMPLE DESCRIPTION=Chemical Concepts
##NAMES=HP
##CAS NAME=3-Methyl-but-2-enoic acid, 1,7,7-trimethyl-bicyclo[2.2.1]hept-2-y
l ester
##MOLFORM=C15H24O2
##CAS REGISTRY NO=91404-82-9
##MP= -300
##BP= -300
##MW= 236
##$RETENTION INDEX=0
##$CONDENSED SPECTRUM=NO
##NPOINTS= 73
##XYDATA=(XY..XY) 1 
    26          0
    27         30
    28         11
    29         62
    30          0
    31          2
    37          0
    38          1
    39         38
    40          6
    41         79
    42          4
    43         24
    44          0
    45          1
    50          0
    51          4
    52          2
    53         28
    54          6
    55        126
    56          5
    57          7
    58          0
    59          1
    63          0
    65          4
    66          1
    67         23
    68          7
    69         39
    70          1
    71          2
    77         11
    78          2
    79         14
    80          9
    81         31
    82         13
    83        999
    84         45
    85          6
    91          9
    92          8
    93         38
    94          6
    95         24
    96          1
    97          7
    98          0
   100          0
   101          0
   105          2
   107          8
   108         33
   109         65
   110          9
   111          3
   119          0
   121         18
   122          1
   125          2
   127          3
   135          6
   136         43
   137         14
   138          0
   152          1
   153         17
   154          1
   236         38
   237          5
   238          0