##TITLE=Library Entry 80728
##JCAMP-DX=Revision 4.10 
##DATA TYPE=MASS SPECTRUM
##SAMPLE DESCRIPTION=Japan AIST/NIMC Database- Spectrum MS-NW-7622
##NAMES=HP
##CAS NAME=(R,R)-(+)-N,N'-Bis(.alpha.-methylbenzyl)sulfamide
##MOLFORM=C16H20N2O2S
##CAS REGISTRY NO=91410-68-3
##MP= -300
##BP= -300
##MW= 304
##$RETENTION INDEX=0
##$CONDENSED SPECTRUM=NO
##NPOINTS= 154
##XYDATA=(XY..XY) 1 
    14          2
    15         26
    16          1
    17          3
    18         11
    26          6
    27         68
    28         93
    29          3
    30          5
    32          4
    34          1
    36          1
    37          7
    38         13
    39         67
    40          8
    41         23
    42        224
    43         27
    44        102
    45          3
    46          2
    47          1
    48         26
    49          5
    50         54
    51        177
    52         45
    53         22
    54          5
    55          3
    56          1
    57          2
    58          1
    59          1
    60          1
    61          5
    62          9
    63         27
    64         25
    65         42
    66          8
    67          4
    68          2
    69          3
    70          1
    71          1
    73          4
    74         12
    75         14
    76         28
    77        371
    78        140
    79        228
    80         17
    81          2
    82          1
    83          1
    85          1
    86          1
    87          3
    89         12
    90          5
    91         93
    92         23
    93         14
    94          4
    95          1
    97          2
    98          1
   101          2
   102          9
   103        102
   104        326
   105        999
   106        712
   107         56
   108          3
   109          1
   111          1
   115          1
   116          2
   117          7
   118         39
   119         76
   120        297
   121         31
   122          5
   123         11
   124          1
   125          1
   126          1
   128          1
   129          1
   130          1
   132          1
   137         18
   138          2
   141          1
   144          3
   147          1
   148          1
   150          1
   152          3
   153          1
   154          1
   155          1
   162          3
   163          1
   165          2
   166          1
   167          2
   168         26
   169          3
   170          5
   179          1
   180          1
   181          3
   182          3
   183          1
   184          2
   185        333
   186         31
   187         17
   188          2
   193          1
   194          1
   195          1
   196          3
   197          1
   199        141
   200         17
   201          8
   202          1
   208          1
   209          1
   210         26
   211          5
   213          1
   222          1
   227          4
   273          5
   274          1
   275          3
   276          1
   287          1
   288          1
   289        404
   290         75
   291         25
   292          4
   293          1
   304          3