##TITLE=Library Entry 85437
##JCAMP-DX=Revision 4.10 
##DATA TYPE=MASS SPECTRUM
##SAMPLE DESCRIPTION=Div. of Experiment Therapeutics WRAIR, WRAMC, Washingto
n DC 20307
##NAMES=HP
##CAS NAME=1,2-Bis[4-pyridine N-oxide]ethane
##MOLFORM=C12H12N2O2
##CAS REGISTRY NO=91446-43-4
##MP= -300
##BP= -300
##MW= 216
##$RETENTION INDEX=0
##$CONDENSED SPECTRUM=NO
##NPOINTS= 71
##XYDATA=(XY..XY) 1 
    41         11
    42          4
    43          3
    44          2
    50         19
    51         50
    52         34
    53         26
    54          5
    55          5
    58          1
    62          7
    63         26
    64         20
    65         36
    66          6
    74          3
    75          5
    76          6
    77         18
    78         17
    79          7
    89          8
    90          4
    91        122
    92         38
    93          5
   102          4
   103          8
   104          4
   105          1
   106          4
   108        999
   109         69
   110          5
   115         11
   116          2
   121          2
   122          2
   125          4
   126          5
   127          6
   128          5
   129          2
   130          1
   138          1
   139          4
   140          3
   141         20
   142          7
   151          1
   152          1
   153          3
   154          4
   155          2
   165          6
   166          4
   167          3
   168          1
   179          2
   184         20
   185          2
   198          9
   199          1
   200         92
   201         14
   214          1
   215          2
   216        214
   217         32
   218          2