##TITLE=Library Entry 15540
##JCAMP-DX=Revision 4.10 
##DATA TYPE=MASS SPECTRUM
##SAMPLE DESCRIPTION=OGDEN BioServices Corp., NCI, Rockville, MD 20852
##NAMES=HP
##CAS NAME=6(2H)-Pyrazolo[3,4,5-d,e]anthracenone, 5-[2-(methylamino)ethylami
no]-2-[2-(2-hydroxyethylamino)ethyl]-7,10-dihydroxy-
##MOLFORM=C21H25N5O4
##CAS REGISTRY NO=91441-48-4
##MP= -300
##BP= -300
##MW= 411
##$RETENTION INDEX=0
##$CONDENSED SPECTRUM=NO
##NPOINTS= 96
##XYDATA=(XY..XY) 1 
    42        129
    43         93
    44        999
    45         69
    47          7
    53          5
    54         10
    55         33
    56        179
    57         45
    58         59
    67          8
    69         17
    70         17
    71         14
    72          1
    74        165
    75          9
    77          7
    78          2
    79         80
    80        134
    81         67
    82        128
    83          9
    84         14
    85          7
    86         14
    88         40
    91          2
    95          3
    97          7
   102          1
   111          1
   113          3
   126          3
   127          8
   138          3
   139         13
   140          8
   141          4
   151          3
   152          6
   153          9
   154          8
   155          4
   164          4
   165          3
   166          5
   167          9
   168          8
   169          3
   179         12
   180          4
   181          3
   192          1
   194          3
   195          3
   196          1
   207          7
   208          3
   209          1
   222          1
   235          3
   236         14
   237          3
   248          1
   249          5
   250          8
   251          8
   252          3
   264          7
   265         15
   266         12
   267          1
   274          3
   275          1
   276         24
   277          9
   278         11
   279         20
   280         97
   281         41
   282          9
   292         12
   293         21
   294        116
   295         60
   296         11
   306         11
   337         14
   338          5
   367         17
   368         53
   369         12
   411         15