##TITLE=Library Entry 18662
##JCAMP-DX=Revision 4.10 
##DATA TYPE=MASS SPECTRUM
##SAMPLE DESCRIPTION=N.Klyuev, Institute of Ecology & Evolution, RAS, Moscow
##NAMES=HP
##CAS NAME=5-Amino-3-azido-1,2,4-triazine-6-carbonitrile
##MOLFORM=C4H2N8
##CAS REGISTRY NO=91459-47-1
##MP= -300
##BP= -300
##MW= 162
##$RETENTION INDEX=0
##$CONDENSED SPECTRUM=NO
##NPOINTS= 12
##XYDATA=(XY..XY) 1 
    52         69
    53        940
    54        999
    55         51
    66        299
    67         67
    68        419
    69         60
    79        231
   108         79
   162        292
   163         13