##TITLE=Library Entry 65916
##JCAMP-DX=Revision 4.10 
##DATA TYPE=MASS SPECTRUM
##SAMPLE DESCRIPTION=Institute of Organic Chemistry, Novosibirsk, USSR 1988
##NAMES=HP
##CAS NAME=(2,2-Dichlorovinyl)dimethylchlorosilane
##MOLFORM=C4H7Cl3Si
##CAS REGISTRY NO=91455-15-1
##MP= -300
##BP= -300
##MW= 188
##$RETENTION INDEX=0
##$CONDENSED SPECTRUM=NO
##NPOINTS= 29
##XYDATA=(XY..XY) 1 
    60         45
    63        499
    64         52
    65        193
    93        999
    94         71
    95        356
   112         45
   113        239
   114         18
   115        164
   116         14
   117         30
   123        114
   125         73
   133         52
   135         50
   137        167
   139         90
   153         76
   155         26
   173        365
   174         52
   175        361
   176         18
   177        124
   188        150
   190        148
   192         50