##TITLE=Library Entry 2477
##JCAMP-DX=Revision 4.10 
##DATA TYPE=MASS SPECTRUM
##SAMPLE DESCRIPTION=L.E. Slivon, Battelle Columbus Laboratories, Columbus,
 Ohio 43201
##NAMES=HP
##CAS NAME=1-Decanol, 5,9-dimethyl-
##MOLFORM=C12H26O
##CAS REGISTRY NO=91482-38-1
##MP= -300
##BP= -300
##MW= 186
##$RETENTION INDEX=0
##$CONDENSED SPECTRUM=NO
##NPOINTS= 52
##XYDATA=(XY..XY) 1 
    40         59
    41        999
    42        274
    43        879
    44         83
    45         49
    50         21
    51         10
    53        109
    54         39
    55        440
    56        243
    57        711
    58        119
    59        862
    60         43
    65         29
    67         75
    68         45
    69        382
    70        133
    71        434
    72        107
    73         63
    77         25
    79         27
    81         93
    82         15
    83        442
    84         75
    85         71
    93         19
    95         49
    96         17
    97        113
    98         33
    99         61
   105         19
   109         15
   110         17
   111         47
   112         69
   113         37
   123         15
   126         35
   127         17
   129         14
   137         19
   139         19
   155         21
   157        115
   168         19