##TITLE=Library Entry 98069
##JCAMP-DX=Revision 4.10 
##DATA TYPE=MASS SPECTRUM
##SAMPLE DESCRIPTION=Chuck Anderson, Aldrich Chemical Co.
##NAMES=HP
##CAS NAME=Ethyl (phenylacetoxy)acetate
##MOLFORM=C12H14O4
##CAS REGISTRY NO=91497-39-1
##MP= -300
##BP= -300
##MW= 222
##$RETENTION INDEX=0
##$CONDENSED SPECTRUM=NO
##NPOINTS= 53
##XYDATA=(XY..XY) 1 
    14          1
    15          4
    17          0
    18          0
    26          4
    27         26
    28         11
    29         80
    30          5
    31         35
    38          4
    39         33
    40          3
    41         15
    42         13
    43          9
    44          5
    45         13
    46          1
    50          6
    51         15
    52          5
    59         49
    60          0
    62          6
    63         25
    64          6
    65        109
    66          5
    74          0
    75          5
    77          5
    78          2
    79          4
    87         17
    89         44
    90         32
    91        909
    92         64
    93          3
   103         32
   104          5
   105         14
   107          6
   118        999
   119        145
   120         10
   131          4
   149         11
   150          1
   177         29
   178          2
   222          7