##TITLE=Library Entry 7170
##JCAMP-DX=Revision 4.10 
##DATA TYPE=MASS SPECTRUM
##SAMPLE DESCRIPTION=LAC, NIDDK, NIH, Bethesda, MD 20892
##NAMES=HP
##CAS NAME=Pregnan-3,11-diol-20-one
##MOLFORM=C21H34O3
##CAS REGISTRY NO=914930-15-7
##MP= -300
##BP= -300
##MW= 334
##$RETENTION INDEX=0
##$CONDENSED SPECTRUM=NO
##NPOINTS= 216
##XYDATA=(XY..XY) 1 
    41        194
    43        999
    45         30
    47          4
    49          9
    51          7
    53         67
    55        218
    57        103
    58          5
    59          3
    61          1
    63          1
    65         27
    67        136
    68          8
    69         55
    71         83
    72          2
    73          2
    75          0
    77         62
    79        109
    81        129
    82          5
    83         40
    84         57
    85         35
    86          4
    89          0
    91         94
    92          7
    93        119
    94         11
    95        116
    96          8
    97         22
    98          3
    99          5
   100          0
   102          0
   103          7
   105         86
   106         28
   107         77
   108         25
   109         30
   110          5
   111         10
   112          1
   113          1
   115         10
   116          1
   117         25
   118          9
   119         33
   120         20
   121         32
   122         12
   123         15
   124         19
   125         10
   126          1
   127          0
   128          6
   129          7
   130          3
   131         28
   132         17
   133         38
   134         13
   135         25
   136          7
   137         12
   138          5
   139          2
   141          2
   142          4
   143         15
   144          3
   145         44
   146         14
   147         41
   149         19
   150          1
   151          5
   152          3
   153          1
   155          5
   156          2
   157         14
   158          6
   159         18
   160          2
   161         20
   163         14
   164          4
   165          4
   166          1
   167          1
   169          3
   170          1
   171          8
   172          6
   173         15
   174          5
   175          9
   176          3
   177          4
   178         33
   179          2
   181          1
   183          4
   184          1
   185         10
   186          5
   187          9
   188          1
   189          6
   190         11
   191          7
   192          2
   193          2
   194          3
   195          2
   196          0
   197          3
   198          0
   199          7
   200          1
   201          3
   202          2
   203          4
   204          4
   205          2
   206          1
   207          1
   209          2
   211          3
   212          1
   213         21
   214          5
   215         12
   216          3
   217          4
   218          5
   219          1
   221          1
   223          1
   224          0
   225          4
   226          1
   227          7
   228          6
   229          4
   230          2
   231          5
   232          3
   233          3
   234          0
   235          0
   237          0
   238          1
   239          2
   240          2
   241          2
   242          1
   243          4
   244          2
   245          2
   246          8
   247          2
   249          3
   250          0
   251          1
   253          2
   254          0
   255         21
   256          5
   257          7
   258          7
   259          2
   264          4
   265          6
   266          1
   269          2
   270          1
   271          8
   272          1
   273         10
   274          2
   275          0
   276          2
   277          0
   280          2
   281          1
   283         13
   284          3
   285          0
   287          2
   288          1
   297          1
   298         29
   299         10
   301         13
   302          2
   314          2
   315          1
   316         54
   317         14
   318          2
   319          0
   332          0
   333          0
   334          3
   335          0