##TITLE=Library Entry 14951
##JCAMP-DX=Revision 4.10 
##DATA TYPE=MASS SPECTRUM
##SAMPLE DESCRIPTION=LAC, NIDDK, NIH, Bethesda, MD 20892
##NAMES=HP
##CAS NAME=.beta.-Sitosterol acetate
##MOLFORM=C31H52O2
##CAS REGISTRY NO=915-05-9
##MP= -300
##BP= -300
##MW= 456
##$RETENTION INDEX=3364
##$CONDENSED SPECTRUM=NO
##NPOINTS= 232
##XYDATA=(XY..XY) 1 
    41        182
    43        999
    44         28
    45         10
    49          2
    50          1
    51          3
    53         28
    55        235
    57        205
    58          6
    59          6
    61         12
    63          1
    65         13
    67         83
    69        112
    71         87
    72          4
    73          1
    77         28
    79         85
    81        189
    82         16
    83         45
    85         95
    91        128
    92          1
    93        153
    94         29
    95        122
    96         10
    97         24
    98          3
    99          8
   100          1
   101          1
   103         10
   105        177
   106         44
   107         87
   108         25
   109         44
   110          6
   111         19
   112          4
   113          7
   115         17
   117         52
   118         17
   119         56
   120         60
   121         74
   122         19
   123         29
   124          4
   125          8
   127         10
   128         11
   129         24
   130         13
   131         70
   132          1
   133        116
   134         26
   135         51
   136         11
   137         12
   138          2
   139          2
   141         14
   143         81
   144          1
   145        187
   146         60
   147        157
   148         25
   149         21
   150          3
   151          5
   153          4
   154          2
   155         15
   157         45
   158         28
   159         51
   160         30
   161         45
   162         12
   163         28
   164          4
   165          5
   167          4
   168          1
   169          5
   170          2
   171         20
   172          8
   173         27
   174         12
   175         18
   176          6
   177         19
   178          2
   179          2
   180          1
   181          2
   183          8
   185         24
   186          6
   187         14
   188          3
   189          5
   191         10
   192          1
   193          2
   195          2
   197         13
   199         22
   200          7
   201         12
   202          2
   203          3
   205          5
   207          3
   209          1
   211          8
   213         66
   214         18
   215         11
   216          3
   217          2
   219          2
   220          1
   221          4
   223          1
   225          4
   226          7
   227         12
   228         11
   229          8
   230          1
   231          1
   233          6
   234          8
   235          3
   237          1
   239          6
   240          2
   241          6
   242          2
   243          1
   244          1
   245          2
   247          5
   248          1
   251          1
   252          1
   253         11
   254         11
   255         61
   256         16
   257          3
   259          2
   260          1
   261          1
   263          1
   265          1
   267          2
   268          3
   269          2
   270          5
   271          3
   272          3
   273         10
   274          8
   275         44
   276         10
   277          1
   281          2
   282          2
   283         15
   284          5
   285          2
   286          6
   287          9
   288         51
   289         11
   291          2
   295          1
   296          6
   297          3
   298         30
   299          7
   300          3
   301          1
   302          3
   303          2
   310          1
   311          1
   312          4
   313          2
   314          6
   315          1
   316          1
   326          2
   328          3
   329          1
   338          1
   339          1
   340          1
   342          2
   344          1
   352          1
   353          3
   354         16
   355          4
   356          1
   367          6
   368          7
   369          1
   380          2
   381         60
   382         23
   383          4
   394          3
   395         20
   396        577
   397        191
   398          8
   399         20
   413          4