##TITLE=Library Entry 3195
##JCAMP-DX=Revision 4.10 
##DATA TYPE=MASS SPECTRUM
##SAMPLE DESCRIPTION=Chemical Concepts
##NAMES=HP
##CAS NAME=Cyclopropane, hexylidene-
##MOLFORM=C9H16
##CAS REGISTRY NO=91509-06-7
##MP= -300
##BP= -300
##MW= 124
##$RETENTION INDEX=0
##$CONDENSED SPECTRUM=NO
##NPOINTS= 88
##XYDATA=(XY..XY) 1 
    26         23
    27        278
    28         47
    29        269
    30          4
    31          3
    36          0
    37          7
    38         24
    39        385
    40         97
    41        999
    42        122
    43        129
    44          5
    45          8
    46          1
    49          3
    50         36
    51         69
    52         54
    53        265
    54        202
    55        423
    56        109
    57         49
    58          2
    59          4
    60          2
    61          5
    62         10
    63         24
    64          6
    65        112
    66         56
    67        988
    68        659
    69        540
    70         60
    71         10
    72          5
    73          2
    74          4
    75          2
    76          2
    77         68
    78         35
    79        162
    80         40
    81        642
    82        116
    83         28
    84          4
    85          1
    86          1
    87          1
    88          4
    89          2
    90          0
    91         71
    92         34
    93         37
    94          7
    95        338
    96         45
    97          3
    98          0
    99          3
   100          0
   101          1
   103          0
   105          2
   106          2
   107          6
   108          1
   109         54
   110          6
   111          0
   112          0
   113          1
   115          0
   117          1
   119          0
   120          0
   121          0
   122          1
   123          2
   124          1