##TITLE=Library Entry 59168
##JCAMP-DX=Revision 4.10 
##DATA TYPE=MASS SPECTRUM
##SAMPLE DESCRIPTION=Chemical Concepts
##NAMES=HP
##CAS NAME=1,3-Dioxolane-4-ethanol, .alpha.,2,2-trimethyl-5-[(phenylmethoxy)
methyl]-, acetate, [4R-[4.alpha.(R*),5.beta.]]-
##MOLFORM=C18H26O5
##CAS REGISTRY NO=91527-01-4
##MP= -300
##BP= -300
##MW= 322
##$RETENTION INDEX=0
##$CONDENSED SPECTRUM=NO
##NPOINTS= 108
##XYDATA=(XY..XY) 1 
    27         11
    28          8
    29         11
    31          9
    39         23
    40          3
    41         33
    42          9
    43        411
    44         11
    45          6
    50          2
    51         11
    52          3
    53          5
    54         15
    55         42
    56          8
    57         16
    58          6
    59         63
    60          3
    61         15
    63          8
    64          2
    65         50
    66          3
    67          5
    68          2
    69         28
    70          9
    71         13
    72          5
    73          7
    77         13
    78          4
    79         13
    80          6
    81         10
    82          4
    83        152
    84         23
    85         30
    86          3
    87          7
    89         10
    90         12
    91        999
    92         82
    93          4
    94          3
    95          3
    97         47
    98         51
    99         13
   100          4
   101         27
   103          3
   104         27
   105         20
   106          7
   107         33
   108          9
   111          2
   112         12
   113         22
   114          8
   115         11
   117          2
   118         11
   119         24
   120          4
   121          2
   126          2
   127          5
   129          3
   131          4
   133          5
   134          9
   140          3
   141         50
   142          5
   143        218
   144         17
   145          9
   154          9
   157         17
   158          8
   159          4
   162         98
   163         11
   171          3
   173          3
   175          8
   186          2
   201          3
   203          2
   204         12
   205          3
   210          8
   211          1
   221          4
   264          6
   265          2
   307         81
   308         14
   309          2
   322          1