##TITLE=Library Entry 62074
##JCAMP-DX=Revision 4.10 
##DATA TYPE=MASS SPECTRUM
##SAMPLE DESCRIPTION=Chemical Concepts
##NAMES=HP
##CAS NAME=2,2-Dimethyl-1,3-dioxolane, 4-(2-methyl-1,3-dithian-2-yl)methyl-5
-benzyloxymethyl-
##MOLFORM=C19H28O3S2
##CAS REGISTRY NO=91526-98-6
##MP= -300
##BP= -300
##MW= 368
##$RETENTION INDEX=0
##$CONDENSED SPECTRUM=NO
##NPOINTS= 150
##XYDATA=(XY..XY) 1 
    27          9
    28          3
    29         12
    31          5
    39         17
    40          3
    41         54
    42          4
    43         80
    44          4
    45         27
    46          8
    47         14
    51          6
    53         12
    55         28
    56          6
    57         12
    58          5
    59         87
    60          6
    61         15
    63          6
    65         41
    66          3
    67          8
    69         10
    71         17
    72          3
    73         42
    74         39
    75         24
    76          4
    77         14
    78          4
    79         14
    81         11
    82          4
    83         36
    84          4
    85         30
    86          7
    87         17
    88          4
    89         13
    90         10
    91        999
    92         93
    93          6
    95         25
    96         13
    97         23
    98         10
    99         23
   100         15
   101         25
   102          4
   103          4
   104         11
   105         25
   106         46
   107         75
   108         10
   109          7
   111         16
   112          4
   113         26
   114         14
   115         48
   116          5
   117         10
   118          3
   119         12
   121          4
   123          3
   125          3
   127         28
   128         23
   129         34
   130          8
   131         11
   132          6
   133        620
   134         48
   135         58
   136          4
   137          6
   138          3
   139          4
   141          3
   143         11
   145         22
   146         10
   147         96
   148         40
   149          9
   150          5
   151          3
   153          8
   154          3
   155          9
   157          3
   159         11
   160          6
   161         12
   162          7
   163         10
   165          4
   169          3
   171          6
   173          7
   175          7
   177          5
   185          7
   186          4
   187          6
   189         26
   190          4
   191          7
   193          3
   197          4
   201          4
   202          7
   203         31
   204          9
   205         15
   206          5
   218          3
   219          9
   220         69
   221         17
   235         40
   236          6
   237          5
   247          7
   260          5
   261         27
   262         10
   263          3
   277          7
   293         20
   294          4
   310          3
   353         45
   354         11
   355          6
   368         89
   369         20
   370         10
   371          3