##TITLE=Library Entry 59131
##JCAMP-DX=Revision 4.10 
##DATA TYPE=MASS SPECTRUM
##SAMPLE DESCRIPTION=Chemical Concepts
##NAMES=HP
##CAS NAME=1-[5-(Benzyloxymethyl)-2,2-dimethyl[1,3]dioxolan-4-yl]propan-2-on
e
##MOLFORM=C16H22O4
##CAS REGISTRY NO=91526-99-7
##MP= -300
##BP= -300
##MW= 278
##$RETENTION INDEX=0
##$CONDENSED SPECTRUM=NO
##NPOINTS= 150
##XYDATA=(XY..XY) 1 
    25         10
    26         45
    27         68
    28         69
    29         57
    30         17
    31         24
    36          2
    37         15
    38         22
    39        102
    40         23
    41         71
    42         48
    43        815
    44         35
    45         16
    48          2
    49          9
    50         49
    51         76
    52         30
    53         29
    54         45
    55         13
    56         31
    58         79
    59        102
    60         12
    61         10
    62         13
    63         37
    64         11
    65        116
    66         10
    67          8
    68          6
    69         15
    70         20
    71         60
    72         15
    73          9
    74         19
    75         10
    76         15
    77        110
    78         80
    79         53
    80          6
    81         22
    82         14
    83         29
    84          9
    85         74
    86         29
    87         14
    88          3
    89         37
    90         29
    91        999
    92        170
    93         11
    94          3
    95         41
    96         22
    97         33
    98         12
    99        388
   100         38
   101         20
   102         11
   103         13
   104         33
   105         94
   106         64
   107         69
   108         29
   109          4
   110          2
   111         11
   112          7
   113         21
   114         72
   115         47
   116         14
   117         12
   118          4
   119          5
   120          5
   121         14
   122          2
   127         14
   128         16
   129         50
   130          9
   131          9
   132          5
   133          6
   134          5
   139         25
   140          2
   141          7
   142          4
   143         11
   144         24
   145         67
   146          8
   147          3
   148          2
   149          3
   152          3
   153          2
   154          5
   155          3
   156          2
   157         78
   158          8
   159          5
   160          2
   161          3
   162        189
   163         25
   164          2
   165          6
   166          2
   167          5
   168          2
   169          6
   170          3
   171          5
   172          6
   173         63
   174          9
   178          7
   179          5
   180          4
   181          2
   182          5
   190          2
   191          2
   202          3
   203         63
   204         11
   219          2
   220          5
   221          2
   243          1
   260          2
   263          5
   278          0