##TITLE=Library Entry 8216
##JCAMP-DX=Revision 4.10 
##DATA TYPE=MASS SPECTRUM
##SAMPLE DESCRIPTION=Chemical Concepts
##NAMES=HP
##CAS NAME=Acetic acid, 2-(5-hydroxymethyl-2,2-dimethyl-[1,3]dioxolan-4-yl)-
1-methylethyl ester
##MOLFORM=C11H20O5
##CAS REGISTRY NO=91527-02-5
##MP= -300
##BP= -300
##MW= 232
##$RETENTION INDEX=0
##$CONDENSED SPECTRUM=NO
##NPOINTS= 70
##XYDATA=(XY..XY) 1 
    26          2
    27         32
    28         26
    29         31
    31         48
    39         30
    40          6
    41         89
    42         30
    43        999
    44         37
    45         26
    53          9
    54         13
    55         77
    56          7
    57         40
    58         19
    59        485
    60         18
    61         54
    67         15
    68          4
    69        109
    70         29
    71         51
    72         17
    73         27
    74          4
    77          2
    79         18
    81          6
    82          2
    83        141
    84         19
    85         65
    86          7
    87         15
    91          2
    95          3
    96          4
    97        281
    98         17
    99         23
   100          7
   101         34
   102          4
   103          4
   112         19
   113         21
   114         29
   115         74
   116          5
   117          2
   127         14
   131         55
   132          3
   141         36
   142          4
   143        119
   144          8
   154          5
   157         19
   159          4
   172          1
   175          3
   201          3
   217        241
   218         26
   219          4