##TITLE=Library Entry 63141
##JCAMP-DX=Revision 4.10 
##DATA TYPE=MASS SPECTRUM
##SAMPLE DESCRIPTION=Chemical Concepts
##NAMES=HP
##CAS NAME=4-(Benzyloxymethyl)-5-bromomethyl-2,2-dimethyl[1,3]dioxolane
##MOLFORM=C14H19BrO3
##CAS REGISTRY NO=91526-97-5
##MP= -300
##BP= -300
##MW= 314
##$RETENTION INDEX=0
##$CONDENSED SPECTRUM=NO
##NPOINTS= 176
##XYDATA=(XY..XY) 1 
    26          3
    27         29
    29         10
    31         18
    38          3
    39         36
    40          5
    41         49
    42          8
    43        211
    44          8
    45          6
    50          6
    51         22
    52          7
    53         11
    54          5
    55         10
    56          4
    57         15
    58          6
    59        138
    60          6
    61          4
    62          2
    63         14
    64          5
    65         93
    66          6
    67          2
    68          2
    69          6
    70          5
    71         22
    72          3
    73          5
    74          1
    75          2
    76          3
    77         32
    78          9
    79         28
    80          3
    81          1
    82          3
    83          4
    84          2
    85         78
    86          7
    87          2
    88          1
    89         21
    90         16
    91        999
    92         96
    93          5
    94          1
    95          5
    96          1
    97          2
    98          0
    99         15
   100          3
   101         13
   102          2
   103          2
   104         13
   105         27
   106          6
   107        119
   108         11
   109         26
   111          1
   112          1
   113         18
   114          2
   115          8
   116          2
   117          4
   118          1
   119          3
   120          2
   121          4
   122          1
   123          5
   125          4
   126          1
   127          2
   128          3
   129         26
   130          4
   131         17
   132          2
   133         10
   134          4
   135         93
   136          4
   137         86
   138          3
   139          1
   140          1
   141          3
   142          1
   143          2
   144          1
   145          2
   146          1
   147         30
   148          4
   151          5
   152          1
   153          4
   156          0
   157          1
   158          1
   159         20
   160          3
   163          4
   165          3
   167          2
   168          1
   169          2
   170          1
   171          2
   175          8
   176          5
   177        246
   178         32
   179          4
   181          2
   182          1
   183          2
   184          1
   185          2
   186          2
   187          1
   191          3
   192          1
   193        122
   194          9
   195        115
   196          9
   197          1
   198          1
   199          1
   200          1
   205          1
   206          0
   207          1
   208          1
   209          2
   210          1
   211          1
   212          1
   213          1
   221          4
   222          1
   253          1
   255          1
   256          8
   257          2
   258          8
   259          1
   287          2
   288          1
   289          2
   290          1
   299         71
   300         11
   301         70
   302         11
   303          1
   313          1
   314          2
   315          2
   316          2