##TITLE=Library Entry 8200
##JCAMP-DX=Revision 4.10 
##DATA TYPE=MASS SPECTRUM
##SAMPLE DESCRIPTION=Chemical Concepts
##NAMES=HP
##CAS NAME=2-Propenoic acid, 3-[5-(2-hydroxypropyl)-2,2-dimethyl-1,3-dioxola
n-4-yl]-, [4R-[4.alpha.(E),5.beta.(R*)]]-
##MOLFORM=C11H18O5
##CAS REGISTRY NO=91526-96-4
##MP= -300
##BP= -300
##MW= 230
##$RETENTION INDEX=0
##$CONDENSED SPECTRUM=NO
##NPOINTS= 135
##XYDATA=(XY..XY) 1 
    25          2
    26         21
    27        112
    28         32
    29        120
    30          5
    31         80
    36          3
    37          6
    38         13
    39        143
    40         28
    41        165
    42         62
    43        999
    44         50
    45        206
    46          5
    47          4
    50          3
    51          9
    52          4
    53         29
    54         18
    55        117
    56         43
    57         80
    58        121
    59        905
    60         38
    61         40
    62          4
    63          5
    65         21
    66         13
    67         52
    68         27
    69         62
    70         18
    71         78
    72         29
    73         41
    74         10
    75         15
    76          3
    77         12
    78          3
    79         12
    80          4
    81         83
    82         37
    83         58
    84        612
    85        160
    86         21
    87         31
    88          4
    89          8
    91         14
    92          2
    93         20
    94          7
    95         40
    96         11
    97        105
    98         17
    99        197
   100         18
   101         33
   102         13
   103         10
   104         16
   105          4
   107          4
   108          3
   109         52
   110         58
   111         56
   112         31
   113         76
   114         19
   115         17
   116          2
   117          5
   119         10
   121          5
   122          2
   123          6
   124          3
   125          7
   126          5
   127         18
   128         34
   129         64
   130         11
   131          8
   135          2
   136          2
   137        106
   138         10
   139         19
   140          2
   141          9
   142         97
   143         11
   144          3
   145         13
   146          3
   147          8
   149          3
   152          2
   153          7
   154          5
   155        128
   156         14
   157         22
   158          3
   159          8
   160          2
   169          3
   170          2
   171         21
   172          8
   173         14
   174          5
   175          5
   176          2
   187          2
   188          5
   189          3
   197         43
   198          7
   215        145
   216         17
   217          3