##TITLE=Library Entry 100349
##JCAMP-DX=Revision 4.10 
##DATA TYPE=MASS SPECTRUM
##SAMPLE DESCRIPTION=Chemical Concepts
##NAMES=HP
##CAS NAME=Spiro[3.5]nona-5,7-dien-1-one, 5,9,9-trimethyl-
##MOLFORM=C12H16O
##CAS REGISTRY NO=91531-36-1
##MP= -300
##BP= -300
##MW= 176
##$RETENTION INDEX=0
##$CONDENSED SPECTRUM=NO
##NPOINTS= 66
##XYDATA=(XY..XY) 1 
    27         70
    28          9
    29         24
    30         11
    38         10
    39        103
    40         19
    41         95
    42         22
    43         18
    44          9
    50         22
    51         71
    52         28
    53         51
    55         28
    56         18
    57         31
    58          8
    59          9
    62         11
    63         43
    64         20
    65         70
    66         15
    67         12
    71         13
    74          9
    75         14
    76         11
    77        137
    78         49
    79         82
    80         10
    89         17
    91        156
    92         27
    93         26
   102         16
   103         67
   104         37
   105        331
   106         44
   107         17
   115         65
   116         28
   117         64
   118         31
   119        999
   120        224
   121         29
   128         13
   129         10
   131         21
   132          8
   133        210
   134        615
   135         72
   147         10
   148          8
   149          1
   161         10
   162          1
   176         23
   177          3
   178          0