##TITLE=Library Entry 3738
##JCAMP-DX=Revision 4.10 
##DATA TYPE=MASS SPECTRUM
##SAMPLE DESCRIPTION=Chemical Concepts
##NAMES=HP
##CAS NAME=1-(1-Methoxycyclopropyl)-3-methylbut-2-en-1-ol
##MOLFORM=C9H16O2
##CAS REGISTRY NO=91531-44-1
##MP= -300
##BP= -300
##MW= 156
##$RETENTION INDEX=0
##$CONDENSED SPECTRUM=NO
##NPOINTS= 92
##XYDATA=(XY..XY) 1 
    26         38
    27        354
    28        115
    29        420
    30         19
    31         95
    33         42
    37         11
    38         35
    39        459
    40         85
    41        999
    42        140
    43        302
    44         27
    45         80
    50         34
    51         79
    52         33
    53        200
    54         46
    55        396
    56         88
    57        264
    58         28
    59        178
    60         15
    62         10
    63         26
    64          7
    65         96
    66         31
    67        532
    68         89
    69        312
    70        486
    71        184
    72        114
    73         78
    74         40
    75          8
    77         81
    78         20
    79         90
    80         29
    81        218
    82        183
    83        234
    84         31
    85        656
    86         46
    87        563
    88         66
    89         10
    91         81
    92         14
    93         46
    94         14
    95        206
    96        113
    97         79
    98         22
    99         28
   100         61
   101         19
   105         20
   106         10
   107         30
   108         25
   109        135
   110         18
   111         21
   112        316
   113        296
   114         21
   115          8
   121          7
   122          8
   123        114
   124         62
   125         32
   126          8
   127        176
   128        239
   129         18
   137         10
   138         32
   139         16
   141         35
   142          5
   156         11
   157          2