##TITLE=Library Entry 49178
##JCAMP-DX=Revision 4.10 
##DATA TYPE=MASS SPECTRUM
##SAMPLE DESCRIPTION=Chemical Concepts
##NAMES=HP
##CAS NAME=6,6-Dimethylcycloocta-2,4-dienone
##MOLFORM=C10H14O
##CAS REGISTRY NO=91531-51-0
##MP= -300
##BP= -300
##MW= 150
##$RETENTION INDEX=0
##$CONDENSED SPECTRUM=NO
##NPOINTS= 92
##XYDATA=(XY..XY) 1 
    26         23
    27        220
    28         24
    29        120
    37          7
    38         27
    39        303
    40         61
    41        290
    42         28
    43         86
    44          8
    45         15
    46         12
    49         17
    50         55
    51        157
    52         80
    53        173
    54         38
    55        165
    56         45
    57         52
    58          6
    59          7
    60         16
    61          6
    62         14
    63         45
    64         14
    65        128
    66        166
    67        189
    68         45
    69         52
    70         15
    71         22
    73          7
    74         11
    75         14
    76          8
    77        372
    78        138
    79        999
    80        146
    81        138
    82         89
    83         33
    84         12
    85         13
    86          8
    89         12
    90          9
    91        363
    92         68
    93        636
    94        629
    95        440
    96         65
    97         16
    98          5
    99          6
   103         15
   104          8
   105         72
   106         83
   107        849
   108        696
   109         99
   110         16
   111          8
   115         15
   116          5
   117         28
   119         11
   120          6
   121         52
   122        233
   123         38
   124         13
   125          5
   129          5
   131          7
   132         27
   133         11
   135        106
   136         13
   137          6
   149         35
   150        129
   151         24
   152          5