##TITLE=Library Entry 100093
##JCAMP-DX=Revision 4.10 
##DATA TYPE=MASS SPECTRUM
##SAMPLE DESCRIPTION=Chemical Concepts
##NAMES=HP
##CAS NAME=1,1,3a-Trimethyl-1a,3a,5,6-tetrahydro-1H-cyclopropa[c]pentalen-4-
one
##MOLFORM=C12H16O
##CAS REGISTRY NO=91531-54-3
##MP= -300
##BP= -300
##MW= 176
##$RETENTION INDEX=0
##$CONDENSED SPECTRUM=NO
##NPOINTS= 89
##XYDATA=(XY..XY) 1 
    26         13
    27        162
    28         45
    29         47
    38         22
    39        279
    40         42
    41        254
    42         46
    43         52
    50         47
    51        152
    52         63
    53        131
    54         14
    55         78
    56         44
    57         15
    58         14
    59         12
    62         24
    63         88
    64         36
    65        163
    66         30
    67         40
    68          8
    69         22
    71          9
    74         16
    75         23
    76         18
    77        299
    78        124
    79        179
    80         28
    81         19
    83          7
    87          8
    89         34
    90         16
    91        469
    92        131
    93         88
    94         14
    95         14
    96          7
   101          8
   102         28
   103        121
   104         61
   105        746
   107         54
   108         11
   109         11
   115        112
   116         47
   117        123
   118         57
   119        999
   120        627
   121        131
   122         14
   123         13
   127          9
   128         23
   129         18
   131         43
   132         18
   133        401
   134        730
   135        103
   136          7
   137          7
   141          9
   142          7
   143         17
   146          8
   147         29
   148         56
   149         10
   157         10
   158         19
   159         10
   161        126
   162         17
   175          7
   176        119
   177         18