##TITLE=Library Entry 60251
##JCAMP-DX=Revision 4.10 
##DATA TYPE=MASS SPECTRUM
##SAMPLE DESCRIPTION=Chemical Concepts
##NAMES=HP
##CAS NAME=1,2,3a,3b,6,7-Hexahydrocyclopenta[1,3]cyclopropa[1,2]benzen-3-one
##MOLFORM=C10H12O
##CAS REGISTRY NO=91531-55-4
##MP= -300
##BP= -300
##MW= 148
##$RETENTION INDEX=0
##$CONDENSED SPECTRUM=NO
##NPOINTS= 99
##XYDATA=(XY..XY) 1 
    26         16
    27        126
    28         19
    29         12
    30          0
    31          0
    37          7
    38         26
    39        242
    40         32
    41         78
    42         13
    43          9
    44          1
    45          3
    46          1
    49          2
    50         44
    51        112
    52         44
    53         49
    54          8
    55         18
    56          6
    57          6
    58          8
    59          6
    61          5
    62         20
    63         62
    65        142
    66         55
    67         15
    68          2
    69          3
    70          1
    71          2
    73          1
    74          8
    75          7
    76          7
    77        137
    78        498
    79        148
    80         13
    81          3
    82          1
    83          2
    84          3
    85          1
    86          3
    87          3
    88          1
    89         24
    90         12
    91        999
    92        187
    93         20
    94          2
    95          2
    96          0
    97          1
    98          0
    99          0
   100          0
   101          0
   102          4
   103         31
   104         26
   105        191
   106        483
   107         34
   108          2
   109          0
   110          0
   111          0
   112          0
   113          0
   114          0
   115         16
   116          3
   117         10
   118          2
   119         24
   120         80
   121          7
   122          0
   127          1
   128          2
   129          4
   130          8
   131          2
   132          0
   133         22
   134          2
   141          2
   147          9
   148        120
   149         12