##TITLE=Library Entry 51705
##JCAMP-DX=Revision 4.10 
##DATA TYPE=MASS SPECTRUM
##SAMPLE DESCRIPTION=Chemical Concepts
##NAMES=HP
##CAS NAME=2-(2-Methylpropenyl)-1-trimethylsilylethynylcyclobutanol
##MOLFORM=C13H22OSi
##CAS REGISTRY NO=91531-60-1
##MP= -300
##BP= -300
##MW= 222
##$RETENTION INDEX=0
##$CONDENSED SPECTRUM=NO
##NPOINTS= 114
##XYDATA=(XY..XY) 1 
    26          7
    27         68
    29         50
    31          7
    38         15
    39        155
    40         94
    41        225
    42         32
    43        150
    44         55
    45         53
    47         12
    50         14
    51         30
    52         14
    53         71
    54         57
    55         77
    56         16
    57         12
    58         17
    59         54
    60          6
    61         16
    62          7
    63         16
    65         44
    66         32
    67        487
    68         33
    69         36
    70          6
    71          7
    72          6
    73        336
    74         31
    75        168
    76         14
    77         35
    78          9
    79         43
    80         16
    81         93
    82        999
    83        340
    84         32
    85         22
    86          8
    87          5
    91         27
    92          6
    93         13
    94          4
    95         34
    96         18
    97        174
    98         22
    99         54
   100          4
   101          5
   103          5
   104          3
   105         19
   106          7
   107         12
   109         16
   110         12
   111          7
   115         11
   117         15
   119         10
   121          7
   123          8
   125        684
   126         73
   127         28
   128          5
   129          7
   130          9
   131         18
   132          7
   133         14
   135         12
   137          6
   140         16
   141          6
   145          6
   147          8
   149         23
   150          9
   151         16
   159          6
   161         10
   163         14
   164          5
   165         10
   166          6
   173          3
   177          6
   179         25
   189         17
   191         10
   194         21
   204         13
   205         18
   206          7
   207         62
   208         11
   209          3
   219          2
   220          5
   221          3
   222          4