##TITLE=Library Entry 32888
##JCAMP-DX=Revision 4.10 
##DATA TYPE=MASS SPECTRUM
##SAMPLE DESCRIPTION=Chemical Concepts
##NAMES=HP
##CAS NAME=1-Cyclobutanone,2-(2-methyl-1-propenyl)
##MOLFORM=C8H12O
##CAS REGISTRY NO=91531-45-2
##MP= -300
##BP= -300
##MW= 124
##$RETENTION INDEX=0
##$CONDENSED SPECTRUM=NO
##NPOINTS= 67
##XYDATA=(XY..XY) 1 
    25          4
    26         70
    27        329
    28         82
    29         79
    30          2
    31          6
    33          1
    37         22
    38         68
    39        530
    40        108
    41        447
    42        160
    43         42
    44          2
    45          3
    46          1
    47          5
    48          1
    49          9
    50         83
    51        143
    52         68
    53        282
    54        144
    55        103
    56         30
    57          7
    58          1
    59          9
    61          8
    62         20
    63         46
    64         10
    65         84
    66         46
    67        999
    68        102
    69         16
    70          3
    71          5
    73          3
    74          9
    75          6
    76          2
    77         60
    78         16
    79        119
    80         20
    81        447
    82        785
    83         53
    84          3
    85          6
    86          2
    91         11
    92          2
    93          6
    94          3
    95         25
    96         69
    97          8
    98          1
   109          3
   124         34
   125          7