##TITLE=Library Entry 30738
##JCAMP-DX=Revision 4.10 
##DATA TYPE=MASS SPECTRUM
##SAMPLE DESCRIPTION=Chemical Concepts
##NAMES=HP
##CAS NAME=14-Hydroxy-14-methylpentadecanoic acid
##MOLFORM=C16H32O3
##CAS REGISTRY NO=91544-39-7
##MP= -300
##BP= -300
##MW= 272
##$RETENTION INDEX=0
##$CONDENSED SPECTRUM=NO
##NPOINTS= 133
##XYDATA=(XY..XY) 1 
    27         23
    29         56
    30          2
    31         43
    39         25
    40          5
    41        143
    42         29
    43        187
    44          7
    45         32
    53         12
    54         15
    55        175
    56        131
    57         98
    58         76
    59        999
    60        103
    61         11
    65          4
    66          2
    67         37
    68         31
    69        181
    70         51
    71        100
    72          9
    73         65
    74          9
    77          4
    79          7
    80          7
    81         45
    82         34
    83        105
    84         42
    85         33
    86          4
    87         16
    91          3
    93          7
    94          8
    95         48
    96         41
    97         77
    98         61
    99         17
   100         10
   101         11
   102          2
   105          2
   107          8
   108          8
   109         33
   110         17
   111         45
   112         20
   113         10
   114         13
   115         20
   116         12
   118          5
   119          2
   121         15
   122          7
   123         21
   124          8
   125         30
   126         14
   127          8
   128          6
   129         33
   130          4
   133          3
   135         10
   136         13
   137         14
   138         28
   139         17
   140         14
   141          7
   142          2
   143          7
   147          3
   151          6
   152          9
   153         12
   154         10
   155          6
   156          4
   157          8
   161          2
   162          3
   163         12
   165          5
   167          5
   168          2
   171         24
   172          3
   175          2
   178         12
   179          4
   180          7
   181         23
   182          5
   185          9
   186          2
   192          2
   193         14
   194          6
   195          2
   196         57
   197         27
   198          5
   199         14
   203          4
   210          2
   211          7
   212          2
   214         75
   215         22
   216          3
   221          5
   226          5
   235         15
   236          7
   239        256
   240         45
   241          5
   254         16
   255         10
   257          4