##TITLE=Library Entry 62859
##JCAMP-DX=Revision 4.10 
##DATA TYPE=MASS SPECTRUM
##SAMPLE DESCRIPTION=LAC, NIDDK, NIH, Bethesda, MD 20892
##NAMES=HP
##CAS NAME=Allylbenzylacetic acid hydrazide
##MOLFORM=C12H16N2O
##CAS REGISTRY NO=91556-91-1
##MP= -300
##BP= -300
##MW= 204
##$RETENTION INDEX=0
##$CONDENSED SPECTRUM=NO
##NPOINTS= 119
##XYDATA=(XY..XY) 1 
    41        128
    42          9
    43         13
    44          8
    45          5
    47          2
    48          2
    49         19
    50         11
    51         45
    52         11
    53         19
    54         11
    55         18
    56          3
    57          5
    58         15
    59         22
    60          1
    61          0
    62          4
    63         21
    64          8
    65        105
    66         12
    67         88
    68          7
    69          3
    70          1
    71          6
    72          6
    73          5
    74          4
    75          4
    76          5
    77         47
    78         25
    79          9
    80          3
    81          6
    82          4
    83          2
    84         10
    85          2
    86          8
    87          3
    88          2
    89         18
    90         13
    91        999
    92        119
    93          5
    94          2
    95          1
    96          2
   100          2
   101          1
   102          8
   103         29
   104         15
   105         23
   106          3
   107          2
   111          1
   113         28
   114          3
   115         31
   116         10
   117         27
   118          5
   119          1
   120          0
   121         18
   122          2
   123          1
   126          1
   127          7
   128         27
   129         72
   130         17
   131         24
   132          4
   133          1
   134          1
   135          2
   139          1
   141          4
   142          2
   143         11
   144          8
   145        214
   146         26
   147          3
   148          1
   150          4
   153          1
   154          0
   155         10
   156          1
   157          3
   158          0
   160          0
   161          4
   162          6
   163        557
   164         61
   165          4
   171         10
   172         15
   173         48
   174          6
   175          2
   186          1
   188          1
   189          3
   203          5
   204        109
   205         35
   206          5