##TITLE=Library Entry 44633
##JCAMP-DX=Revision 4.10 
##DATA TYPE=MASS SPECTRUM
##SAMPLE DESCRIPTION=V.A.KOPTYUG, ATLAS OF MASS SPECTRA OF ORGANIC COMPOUNDS
##NAMES=HP
##CAS NAME=4-Amino-2,2,5,5-tetramethyl-3-imidazoline-3-oxide-1-oxyl
##MOLFORM=C7H14N3O2
##CAS REGISTRY NO=91575-47-2
##MP= -300
##BP= -300
##MW= 172
##$RETENTION INDEX=0
##$CONDENSED SPECTRUM=NO
##NPOINTS= 102
##XYDATA=(XY..XY) 1 
    36          4
    37          4
    38          9
    39         99
    40         31
    41        215
    42        259
    43        166
    44        157
    45         13
    46          2
    50          3
    51          4
    52         15
    53         20
    54        118
    55         29
    56        509
    57         77
    58        268
    59         19
    60          6
    64          2
    65          2
    66          7
    67         31
    68        113
    69        370
    70        470
    71         23
    72         18
    73         57
    74        999
    75         38
    76          3
    77          2
    78          2
    79          3
    80          3
    81          7
    82         31
    83         73
    84         64
    85         19
    86         71
    87          5
    88         10
    89          4
    90          2
    91          3
    92          1
    93          2
    94          5
    95          6
    96          7
    97         19
    98        131
    99         31
   100         13
   101         10
   102          2
   103          5
   106          1
   107          2
   108          3
   109         15
   110         15
   111         42
   112          5
   113          8
   114          3
   115         12
   121          5
   122          7
   123          5
   124          9
   125         28
   126         72
   127         13
   128          2
   129          2
   130          2
   131          2
   139          2
   140          6
   141         16
   142        319
   143         63
   144          5
   154          2
   155          2
   156         27
   157         19
   158          7
   159          2
   162          2
   163          3
   164          6
   171          3
   172        170
   173         81
   174         10