##TITLE=Library Entry 59426
##JCAMP-DX=Revision 4.10 
##DATA TYPE=MASS SPECTRUM
##SAMPLE DESCRIPTION=Chemical Concepts
##NAMES=HP
##CAS NAME=1,3-Dioxolane-4-ethanol, .alpha.,2,2-trimethyl-5-[(phenylmethoxy)
methyl]-, [4R-[4.alpha.(R*),5.beta.]]-
##MOLFORM=C16H24O4
##CAS REGISTRY NO=91603-58-6
##MP= -300
##BP= -300
##MW= 280
##$RETENTION INDEX=0
##$CONDENSED SPECTRUM=NO
##NPOINTS= 96
##XYDATA=(XY..XY) 1 
    26          3
    27         20
    28         17
    29         20
    31         20
    39         31
    40          6
    41         48
    42         11
    43        203
    44         10
    45         77
    50          4
    51         13
    52          4
    53          6
    54         19
    55         51
    56          7
    57         71
    58         22
    59        266
    60         10
    61          8
    63          8
    64          3
    65         58
    66          4
    67          6
    69         15
    70         12
    71         20
    72         10
    73         23
    77         21
    78          7
    79         22
    80          4
    81          6
    82          4
    83         61
    84          8
    85         58
    86          7
    87         18
    89         15
    90         11
    91        999
    92         95
    93          5
    95          9
    96          4
    97         19
    98         20
    99         25
   100          7
   101        112
   102          7
   103          3
   104         30
   105         23
   106          7
   107         35
   108         20
   113         31
   114         21
   115         30
   116         14
   117         10
   118          3
   119          3
   123          6
   129          6
   130          8
   131          8
   133          7
   134          9
   141         10
   143          5
   145         17
   149          3
   157          5
   159         85
   160         10
   162         78
   163         10
   173          9
   174          1
   203          4
   204          4
   205          4
   221          3
   222         27
   223          6
   265         46
   266          8