##TITLE=Library Entry 82907
##JCAMP-DX=Revision 4.10 
##DATA TYPE=MASS SPECTRUM
##SAMPLE DESCRIPTION=A.A.Kutin, Moscow, Russia
##NAMES=HP
##CAS NAME=2'-Ethylacetoacetanilide
##MOLFORM=C12H15NO2
##CAS REGISTRY NO=91640-36-7
##MP= -300
##BP= -300
##MW= 205
##$RETENTION INDEX=0
##$CONDENSED SPECTRUM=NO
##NPOINTS= 97
##XYDATA=(XY..XY) 1 
    36          1
    37          3
    38         12
    39         86
    41         38
    42         45
    43        515
    44         38
    45          4
    50         20
    51         68
    52         39
    53         28
    54         11
    55         10
    56          3
    57          6
    58         22
    59         12
    60          1
    61          1
    62          8
    63         33
    64         21
    65         82
    66         19
    67          7
    69         19
    71          2
    72          2
    73          5
    74          6
    75          8
    76         20
    77        197
    78         59
    79         54
    80         12
    81          3
    82          1
    83          1
    84          8
    85         53
    86          3
    87          2
    89         29
    90         20
    91         80
    92         30
    93         32
    94         16
    95          1
    98          1
   101          4
   102         16
   104         27
   105         45
   106        999
   107         79
   108          3
   114          1
   115          3
   116          8
   117         31
   118         84
   119        128
   120        262
   121        535
   122         48
   123          2
   127          1
   128         10
   130         22
   132        102
   133         15
   134         16
   135          3
   142          1
   143          5
   144         58
   145         15
   146         21
   147        229
   148        139
   149         12
   150          1
   160          3
   161          1
   162          4
   176          5
   187          8
   188          3
   190          2
   204          3
   205        161
   206         20
   207          2