##TITLE=Library Entry 63548
##JCAMP-DX=Revision 4.10 
##DATA TYPE=MASS SPECTRUM
##SAMPLE DESCRIPTION=Japan AIST/NIMC Database- Spectrum MS-IW-6242
##NAMES=HP
##CAS NAME=4-Benzyloxy-2-butenal semicarbazone
##MOLFORM=C12H15N3O2
##CAS REGISTRY NO=91643-45-7
##MP= -300
##BP= -300
##MW= 233
##$RETENTION INDEX=0
##$CONDENSED SPECTRUM=NO
##NPOINTS= 141
##XYDATA=(XY..XY) 1 
    15          1
    16          2
    17          8
    18          1
    26          3
    27         19
    28         21
    29          8
    30          6
    31          5
    37          1
    38          4
    39         31
    40          6
    41         21
    42         15
    43         49
    44         37
    45          2
    46          1
    50          9
    51         25
    52         11
    53         22
    54         25
    55         15
    56         16
    57         13
    58          2
    60          9
    61         14
    62          2
    63          9
    64          3
    65         63
    66          9
    67         14
    68         14
    69         43
    70          5
    71         31
    72          2
    73          1
    74          3
    75          2
    76          3
    77         52
    78         13
    79         52
    80         13
    81         47
    82         48
    83         29
    84          9
    85          2
    86          7
    87          1
    89         13
    90          9
    91        999
    92        112
    93          7
    95          2
    97          5
    98          2
    99        155
   100         56
   101         23
   102          1
   103          2
   104          2
   105         22
   106         25
   107         49
   108         56
   109          6
   110          2
   112          5
   114          9
   115          6
   116          2
   117          3
   118          1
   119          1
   122          1
   125         12
   126          7
   127          9
   128          4
   129          9
   130          9
   131          6
   132          7
   133          2
   141          1
   142         26
   143          6
   144         10
   145         16
   146          6
   147          5
   148          1
   149          1
   150          4
   151          3
   154          1
   155          2
   156          2
   157          2
   158          1
   159          2
   160          3
   161         54
   162          7
   165          2
   167          2
   168          1
   171          1
   172          2
   173          4
   174         10
   175          1
   176          1
   177          1
   178          1
   179          1
   180          1
   187          9
   188          1
   189          2
   190         34
   191          5
   204        237
   205         31
   206          2
   214          1
   215          1
   216          1
   233         45
   234          9
   235          1