##TITLE=Library Entry 22536
##JCAMP-DX=Revision 4.10 
##DATA TYPE=MASS SPECTRUM
##SAMPLE DESCRIPTION=M. RYSKA, MS LAB., PHARM. BIOCHEM. RES. INST., PRAGUE,
 CZECH.
##NAMES=HP
##CAS NAME=8-Bromo-6-(2-chlorophenyl)-1-[4-(2-phenoxyethyl)-1-piperazinyl]-4
H-1,2,4-triazolo[4,3-a]thieno[3,2-f]-1,4-diazepine
##MOLFORM=C26H24BrClN6OS
##CAS REGISTRY NO=91663-74-0
##MP= -300
##BP= -300
##MW= 582
##$RETENTION INDEX=0
##$CONDENSED SPECTRUM=NO
##NPOINTS= 107
##XYDATA=(XY..XY) 1 
    45         60
    50         80
    51        150
    53         60
    54        220
    55        400
    56        999
    57        120
    58         60
    62         20
    63         60
    64         40
    65        300
    66        260
    67         40
    68        110
    69        420
    70        860
    71         90
    75         40
    76         40
    77        580
    78         80
    79        180
    80        120
    81        130
    82        600
    83        240
    84        110
    85         30
    91        120
    92         40
    93        110
    94        580
    95        520
    96        380
    97        140
    98         40
    99        420
   102         30
   105         20
   107         80
   108         20
   109         40
   110         30
   111         40
   112         30
   119         40
   120        670
   121        140
   122         40
   123         20
   124        260
   125         60
   133         20
   135         20
   137         20
   138         30
   140         20
   146         20
   147         70
   162         20
   164        120
   165         50
   171         40
   174         40
   176        260
   177        170
   178         30
   189        160
   190        100
   203         40
   210         30
   221         20
   315         20
   327         80
   328         40
   329         20
   340         60
   341         30
   342         30
   393         20
   394         60
   395         40
   396         80
   406        130
   407         30
   408        180
   409         30
   410         40
   419         20
   420         40
   421         30
   422         60
   475         20
   477         30
   489        120
   490         40
   491        170
   492         30
   493         30
   555          2
   557          5
   559          2
   582          3
   584          5
   585          2