##TITLE=Library Entry 5412
##JCAMP-DX=Revision 4.10 
##DATA TYPE=MASS SPECTRUM
##SAMPLE DESCRIPTION=A.A.Kutin, Moscow, Russia
##NAMES=HP
##CAS NAME=Pyrido[4,3-d]pyrimidin-4(3H)-one, 1,2,5,6,7,8-hexahydro-6-methyl-
spiro-2-cyclohexane-
##MOLFORM=C13H21N3O
##CAS REGISTRY NO=91680-20-5
##MP= -300
##BP= -300
##MW= 235
##$RETENTION INDEX=0
##$CONDENSED SPECTRUM=NO
##NPOINTS= 168
##XYDATA=(XY..XY) 1 
    33         27
    34         11
    35          1
    36          3
    37          9
    39        246
    40        207
    41        515
    42        999
    43        288
    44        365
    45         91
    46          3
    47          5
    48          3
    50         15
    51         59
    52        119
    53        191
    54        448
    55        239
    56         79
    57         64
    58         54
    59         12
    60          9
    61          8
    62         14
    63         12
    65         40
    66         52
    67        100
    68        237
    70        184
    71         28
    72         18
    73          8
    75         33
    77         36
    78         61
    80         73
    81        150
    82         67
    84        139
    85         13
    86          8
    88          7
    89         40
    91         13
    92         23
    93         34
    94        157
    96        331
    97         38
    98         55
    99          9
   100          5
   101          6
   102          9
   104          7
   105         23
   106         34
   108         92
   110        537
   111         59
   112         15
   113          6
   114          4
   115          3
   116          3
   117          8
   119         16
   120         18
   122        235
   123         37
   124         16
   125          6
   126          2
   127          2
   128          3
   129          3
   130          4
   131          5
   132          7
   133         14
   134         33
   136        177
   137        500
   138         88
   139        173
   141          3
   142          1
   143          2
   144          3
   145          5
   146         11
   147         39
   149        444
   150         83
   151         27
   152         15
   153         27
   154         31
   155          3
   157          2
   158          3
   159          4
   160          8
   161         44
   163        135
   164         75
   165         13
   166          3
   167          2
   169          1
   170          3
   171          3
   172          2
   173          3
   174          7
   175         32
   176         55
   177         77
   178        133
   179         30
   180          9
   181          2
   183          1
   184          1
   185          2
   186          4
   187          6
   189        285
   190        198
   191        214
   192        267
   193         32
   194          6
   195          1
   197          3
   198          1
   199          1
   200          2
   201          4
   203         24
   204         17
   205         11
   206         21
   207          5
   208          3
   212          1
   214          3
   216          8
   217         96
   218         49
   219         10
   220         27
   221          4
   223          1
   228          1
   229          2
   230          2
   232         22
   234        257
   235        551
   236         79
   237          8
   238          1