##TITLE=Library Entry 46427
##JCAMP-DX=Revision 4.10 
##DATA TYPE=MASS SPECTRUM
##SAMPLE DESCRIPTION=A.A.Kutin, Moscow, Russia
##NAMES=HP
##CAS NAME=Phenol, 4,6-dichloro-2-(4-iodophenyliminomethyl)-
##MOLFORM=C13H8Cl2INO
##CAS REGISTRY NO=91692-91-0
##MP= -300
##BP= -300
##MW= 391
##$RETENTION INDEX=0
##$CONDENSED SPECTRUM=NO
##NPOINTS= 182
##XYDATA=(XY..XY) 1 
    35         31
    36        157
    38        271
    39        148
    40         64
    41         19
    44         45
    45          1
    47          9
    50        685
    51        258
    52         59
    53         71
    54          5
    55         11
    56          5
    57          5
    58          0
    61        104
    62        178
    63        337
    64        121
    65         50
    66          7
    67          3
    69         34
    70         44
    71         11
    73        102
    74        301
    75        329
    76        999
    77        395
    78         36
    79          5
    80          2
    83        175
    84         23
    85         40
    86         36
    87         74
    88         59
    89         41
    90         36
    91         34
    92          7
    93          3
    94          0
    95          2
    97        112
    98         36
    99         58
   100        174
   102         86
   103         49
   104         12
   105          2
   107         13
   109         77
   110         30
   111         49
   112         15
   113         24
   114         22
   115         14
   116          9
   118         10
   119          4
   120          3
   121          3
   122          4
   123         17
   124         37
   125         15
   127        124
   128         44
   129          4
   132         98
   133         86
   134         18
   135         18
   136          8
   137         25
   138         39
   139         75
   140         28
   141         13
   145         16
   146         10
   147         13
   148          6
   149          7
   150          5
   151          9
   152         18
   153          8
   154          4
   155          0
   158          0
   159         11
   160          6
   161         10
   162         19
   164         74
   165         57
   166         79
   167          8
   168          0
   170          0
   172          5
   173         39
   174         14
   175         16
   176          8
   177          6
   178          2
   183          1
   184          0
   185          2
   187         37
   188         73
   189         27
   190         46
   191         10
   192          9
   193         19
   194         44
   195         22
   196         10
   198          4
   199          4
   200         55
   201         65
   202         60
   203        244
   204         35
   205          0
   209          1
   211          4
   212          1
   213          0
   214          0
   219          2
   228         33
   229        103
   230        133
   231         37
   232          2
   235          3
   236          3
   237          3
   238          1
   239          0
   247         12
   248          4
   249          6
   250          0
   263         69
   264        106
   265         63
   266         69
   267         17
   268          8
   269          0
   293          1
   327          0
   355          1
   356          8
   357          2
   358          1
   374         10
   375          4
   376          4
   377          1
   386         39
   389        317
   391        806
   392        265
   393        480
   394         92
   395         77
   396          7