##TITLE=Library Entry 32372
##JCAMP-DX=Revision 4.10 
##DATA TYPE=MASS SPECTRUM
##SAMPLE DESCRIPTION=NIST Mass Spectrometry Data Center, 1990.
##NAMES=HP
##CAS NAME=1-Butyne, 3,3-dimethyl-
##MOLFORM=C6H10
##CAS REGISTRY NO=917-92-0
##MP= -300
##BP= -300
##MW= 82
##$RETENTION INDEX=467
##$CONDENSED SPECTRUM=NO
##NPOINTS= 29
##XYDATA=(XY..XY) 1 
    15         57
    26         18
    27         75
    28          9
    29         14
    37         21
    38         49
    39        311
    40         57
    41        431
    42         27
    49         13
    50         88
    51        124
    52         26
    53         38
    54         34
    55          9
    61         14
    62         28
    63         38
    64          9
    65        227
    66          9
    67        999
    68         55
    77          9
    79         14
    81         38