##TITLE=Library Entry 6396
##JCAMP-DX=Revision 4.10 
##DATA TYPE=MASS SPECTRUM
##SAMPLE DESCRIPTION=A.A.Kutin, Moscow, Russia
##NAMES=HP
##CAS NAME=m-Nitro carbanilic acid, n-propyl ester
##MOLFORM=C10H12N2O4
##CAS REGISTRY NO=91716-03-9
##MP= -300
##BP= -300
##MW= 224
##$RETENTION INDEX=0
##$CONDENSED SPECTRUM=NO
##NPOINTS= 80
##XYDATA=(XY..XY) 1 
    35          0
    37         21
    38         65
    39        162
    41        580
    43        999
    44         48
    45         10
    46          6
    50         59
    51         30
    52         49
    53         14
    61         10
    62         28
    63        116
    64        111
    65         91
    66         11
    67          3
    75         32
    76         63
    77          9
    78         12
    79         20
    80         48
    81          8
    90         74
    91         93
    92        133
    93         18
    94          2
    95          1
   104          3
   105         10
   106          9
   107          4
   108         24
   109          5
   118         15
   119         18
   120          3
   121          2
   122          5
   123          0
   124          0
   135          9
   136         17
   138        347
   139         19
   140          2
   141          0
   142          0
   151         46
   152          4
   153          0
   155          0
   157          0
   159          0
   161          0
   162          0
   164         12
   165         88
   166          8
   167          1
   169          0
   178          7
   179          1
   182         42
   183          6
   184          0
   194          2
   195          1
   208          2
   209          0
   223          3
   224        135
   225         13
   226          1
   227          0