##TITLE=Library Entry 76588
##JCAMP-DX=Revision 4.10 
##DATA TYPE=MASS SPECTRUM
##SAMPLE DESCRIPTION=B.V. Ioffe, A.A. Zhdanov Leningrad State Univ., Leningr
ad, USSR
##NAMES=HP
##CAS NAME=1-Ethoxy-3,3-diethyltriazene 2-oxide
##MOLFORM=C6H15N3O2
##CAS REGISTRY NO=91725-44-9
##MP= -300
##BP= -300
##MW= 161
##$RETENTION INDEX=0
##$CONDENSED SPECTRUM=NO
##NPOINTS= 21
##XYDATA=(XY..XY) 1 
    29        420
    30         40
    31         20
    41         20
    42        230
    43         80
    44        430
    45         90
    56        190
    57         50
    71         30
    72         20
    73         30
    74         20
    75        270
    85         60
    87        110
   102        500
   103        999
   104         60
   161         20