##TITLE=Library Entry 84285
##JCAMP-DX=Revision 4.10 
##DATA TYPE=MASS SPECTRUM
##SAMPLE DESCRIPTION=V.D. ORLOV, KHARKOV STATE UNIV. OF A.M. GORKOGO, KHARKO
V, USSR
##NAMES=HP
##CAS NAME=1-Benzyl-2-propoxy-3-(4-nitrophenyl)-1,2-dihydroquinoxaline
##MOLFORM=C24H23N3O3
##CAS REGISTRY NO=91736-70-8
##MP= -300
##BP= -300
##MW= 401
##$RETENTION INDEX=0
##$CONDENSED SPECTRUM=NO
##NPOINTS= 26
##XYDATA=(XY..XY) 1 
    57        230
    59        420
    60        470
    75        130
    76        300
    77        760
    78        130
    79        400
   102        160
   103         80
   105        470
   106        210
   107        999
   108        210
   149        840
   150        130
   151         80
   178         70
   179        210
   180        180
   193         80
   205        210
   221        130
   251        530
   252         80
   342         10