##TITLE=Library Entry 30839
##JCAMP-DX=Revision 4.10 
##DATA TYPE=MASS SPECTRUM
##SAMPLE DESCRIPTION=Dr. Jiri Zamecnik, DCIEM, North York, Canada, GP Librar
y
##NAMES=HP
##CAS NAME=2-(p-Nitrophenyl)-1,3-propanediol
##MOLFORM=C9H11NO4
##CAS REGISTRY NO=91748-03-7
##MP= -300
##BP= -300
##MW= 197
##$RETENTION INDEX=0
##$CONDENSED SPECTRUM=NO
##NPOINTS= 26
##XYDATA=(XY..XY) 1 
    42        211
    43         43
    50         12
    51         37
    60        999
    61         19
    65         15
    77         59
    78         24
    89         13
    90         13
    91          9
   105         21
   106         32
   116          8
   117         27
   118          8
   129          3
   135          5
   136         29
   137          3
   146          5
   151          8
   153         18
   181         21
   182          2