##TITLE=Library Entry 46881
##JCAMP-DX=Revision 4.10 
##DATA TYPE=MASS SPECTRUM
##SAMPLE DESCRIPTION=F. TURECEK,HEYROVSKY INST PHYS CHEM & ELECTROCHEM,PRAGU
E,CZECH
##NAMES=HP
##CAS NAME=2,7-Diphenyl-1,6-dioxopyridazino[4,5:2',3']pyrrolo[4',5'-d]pyrida
zine
##MOLFORM=C20H13N5O2
##CAS REGISTRY NO=91757-06-1
##MP= -300
##BP= -300
##MW= 355
##$RETENTION INDEX=0
##$CONDENSED SPECTRUM=NO
##NPOINTS= 223
##XYDATA=(XY..XY) 1 
    50        157
    51        373
    52         82
    53         78
    54         71
    55        275
    56        137
    57        313
    58         78
    59         31
    60         78
    61         39
    62         35
    63        149
    64        157
    65        255
    66        196
    67        157
    68         59
    69        196
    70         78
    71        176
    72         27
    73         39
    74         47
    75         39
    76         98
    77        999
    78        157
    79         98
    80         35
    81        157
    82         78
    83        157
    84         59
    85         98
    86         78
    87         39
    88         47
    89         59
    90         51
    91        235
    92        216
    93        518
    94         98
    95        137
    96        159
    97        157
    98         47
    99         39
   100         20
   101         27
   102         39
   103         59
   104        137
   105        255
   106         59
   107         47
   108         39
   109         78
   110         35
   111         86
   112         39
   113         39
   114         35
   115        157
   116         59
   117         78
   118         67
   119        176
   120        176
   121        118
   122         27
   123         47
   124         31
   125         47
   126         20
   127         39
   128         55
   129         98
   130         59
   131         59
   132         39
   133         47
   134         20
   135         78
   136         35
   137         35
   138         31
   139         47
   140         51
   141         78
   142         39
   143         47
   144         39
   145         55
   146         27
   147         17
   148         24
   149        353
   150         47
   151         39
   152         39
   153         39
   154         31
   155         43
   156         16
   157         67
   158         63
   159         59
   160         59
   161         67
   162         24
   163         31
   164         24
   165        157
   166         39
   167         78
   168         71
   169         71
   170         20
   171         71
   172         71
   173         39
   174         39
   175         39
   176         39
   177         43
   178         51
   179         47
   180         31
   181         43
   182         20
   183         27
   184         24
   185         55
   187         91
   188         35
   189         32
   190         22
   191         19
   192         28
   193         28
   194         60
   195         54
   196         28
   197         43
   198         29
   199         19
   200         13
   201         15
   202         15
   203         18
   204         26
   205         39
   206         28
   207         26
   208         19
   209         24
   210         35
   211         56
   212         35
   213         32
   214         24
   215         23
   216         26
   217         19
   218         19
   219         28
   220         30
   221         30
   222         32
   223        108
   224        160
   225         52
   226         19
   227         21
   228         17
   229         15
   230         17
   231         47
   232         17
   233         16
   234         30
   235         17
   236         30
   237         63
   238         73
   239         43
   240         26
   241         11
   242         10
   243         10
   244         10
   249         13
   250         13
   251         11
   252         11
   253         11
   254         11
   255         13
   256         12
   260         17
   263         48
   264         22
   265         28
   266         34
   267        104
   268         26
   269         13
   270         10
   278         13
   281         18
   298         10
   299         10
   303         12
   307         13
   327         32
   328         17
   329         18
   355        333
   356         86
   357         17