##TITLE=Library Entry 100461
##JCAMP-DX=Revision 4.10 
##DATA TYPE=MASS SPECTRUM
##SAMPLE DESCRIPTION=Chemical Concepts
##NAMES=HP
##CAS NAME=5-Isopropyl-3-phenyl-4,5-dihydro[1,2,4]oxadiazin-6-one
##MOLFORM=C12H14N2O2
##CAS REGISTRY NO=91757-25-4
##MP= -300
##BP= -300
##MW= 218
##$RETENTION INDEX=0
##$CONDENSED SPECTRUM=NO
##NPOINTS= 132
##XYDATA=(XY..XY) 1 
    26          6
    27         90
    28        239
    29         49
    30         22
    31          1
    37          2
    38          8
    39         90
    40         11
    41        115
    42         26
    43        102
    44         22
    45          2
    46          0
    47          0
    48          0
    49          1
    50         42
    51        118
    52         25
    53         11
    54         14
    55         29
    56         89
    57         10
    58          1
    59          2
    60          1
    61          1
    62          6
    63         31
    64         27
    65         18
    66          3
    67          3
    68          8
    69         11
    70         26
    71         10
    72          3
    73          2
    74          6
    75         18
    76         79
    77        512
    78         46
    79          4
    80          2
    81          2
    82          3
    83         12
    84          1
    85          3
    86          2
    87          2
    88          4
    89         19
    90         12
    91         37
    92         28
    93          7
    94          0
    95          1
    96          0
    97          1
    98          0
    99          1
   100          1
   101          1
   102          9
   103        221
   104        474
   105         43
   106          3
   107          0
   109          0
   111          0
   113          0
   114          0
   115          5
   116          7
   117         10
   118         11
   119        999
   120        112
   121          6
   122          1
   123          0
   125          0
   127          1
   128          2
   129          2
   130          6
   131         13
   132          7
   133          1
   134          0
   135          1
   136          1
   141          0
   142          1
   143          3
   144         39
   145          6
   146          3
   147        533
   148         51
   149          5
   150          0
   153          1
   156          2
   157          1
   158          6
   159         31
   160          7
   161          1
   171          0
   173          6
   174          6
   175          6
   176         22
   177          2
   188          0
   190          0
   191          0
   200          0
   217          0
   218        278
   219         42
   220          4