##TITLE=Library Entry 97729
##JCAMP-DX=Revision 4.10 
##DATA TYPE=MASS SPECTRUM
##SAMPLE DESCRIPTION=Chemical Concepts
##NAMES=HP
##CAS NAME=Nickel, chloro(.eta.5-2,4-cyclopentadien-1-yl)(tricyclohexylphosp
hine)-
##MOLFORM=C23H38ClNiP
##CAS REGISTRY NO=91754-14-2
##MP= -300
##BP= -300
##MW= 438
##$RETENTION INDEX=0
##$CONDENSED SPECTRUM=NO
##NPOINTS= 205
##XYDATA=(XY..XY) 1 
    26          6
    27         58
    28          5
    29         87
    30          2
    31         25
    33          0
    35          8
    36          6
    37          5
    38          9
    39        117
    40         13
    41        331
    42         18
    43         31
    44          1
    45         13
    46          1
    47          8
    48          1
    49         12
    50          2
    51          5
    52          2
    53         46
    54         26
    55        436
    56         21
    57         19
    58         47
    59         19
    60         19
    61         36
    62          8
    63         16
    64          3
    65        146
    66         29
    67         66
    68          7
    69          7
    70          2
    71         23
    72          6
    73         58
    74         16
    75          9
    76          2
    77         16
    78          5
    79         61
    80         17
    81        209
    82         73
    83        237
    84         20
    85         21
    86          7
    87         53
    88         20
    89          8
    90          2
    91          4
    92          1
    93         14
    94          2
    95         14
    96         11
    97         14
    98          5
    99         11
   100          8
   101         15
   102          7
   103          1
   104          1
   105          2
   106          0
   107          1
   108          1
   109          1
   110          1
   111          2
   112          1
   113         15
   114         28
   115        223
   116        267
   117        999
   118         73
   119          4
   120          1
   121          7
   122         14
   123         79
   124         11
   125         34
   126          4
   127          6
   128         12
   129         17
   130         14
   131          4
   132          1
   133          0
   134          0
   136         20
   137          3
   138          9
   139          2
   140          4
   141          8
   142         13
   143         91
   144         13
   145          1
   147          0
   150          0
   151          2
   153          1
   154          2
   155         12
   156         37
   157         30
   158        127
   159          7
   160         83
   161          6
   162         22
   163          1
   164          2
   165          0
   166          1
   167          0
   168          1
   169         18
   170          7
   171         11
   172          5
   173          4
   174          2
   175          2
   176          0
   179          0
   181          2
   182          2
   183         74
   184          9
   186          7
   187          1
   188         28
   189          4
   190         13
   191          2
   192          2
   195          2
   196          3
   197         62
   198        756
   199        265
   200         25
   201          1
   203          0
   205          0
   207          0
   209          1
   211          1
   217          0
   223          2
   224          1
   225         61
   226          9
   227          0
   233          1
   235          0
   237         14
   238          4
   239          4
   240          0
   247          0
   249          2
   250          1
   251          9
   252          1
   253          3
   254          1
   255          2
   259          1
   260          0
   265         16
   266          3
   267          0
   277          0
   279         30
   280        183
   281         36
   282          4
   438         31
   439          9
   440         23
   441          6
   442          5
   443          1
   444          1