##TITLE=Library Entry 4990
##JCAMP-DX=Revision 4.10 
##DATA TYPE=MASS SPECTRUM
##SAMPLE DESCRIPTION=NIST Mass Spectrometry Data Center, 1994
##NAMES=HP
##CAS NAME=(4R,5S)-(+)-4-Methyl-5-phenyl-1,3-oxazolidine-2-thione
##MOLFORM=C10H11NOS
##CAS REGISTRY NO=91794-28-4
##MP= -300
##BP= -300
##MW= 193
##$RETENTION INDEX=0
##$CONDENSED SPECTRUM=NO
##NPOINTS= 95
##XYDATA=(XY..XY) 1 
    12          9
    15         83
    26         41
    27        263
    28        123
    29         60
    30         13
    31         13
    32         31
    33         33
    34         12
    37         19
    38         68
    39        310
    40         60
    41         66
    42        999
    43        108
    44        392
    45        106
    46         21
    47         27
    48          7
    49         12
    50        218
    51        508
    52        136
    53         46
    54         68
    55         53
    56         18
    57         34
    58         59
    59        112
    60        202
    61         49
    62         89
    63        224
    64         77
    65        183
    66         23
    69         11
    70         20
    71         17
    72         11
    73         12
    74         30
    75         51
    76         56
    77        694
    78        203
    79        652
    80         46
    84         15
    85         11
    86        280
    87         60
    88         33
    89        247
    90        135
    91        860
    92        411
    93         28
    96         17
   102         31
   103         84
   104        107
   105        334
   106         99
   107        564
   108         47
   115        274
   116        146
   117        353
   118        203
   119         23
   120         23
   121        171
   122        291
   123        194
   124         27
   125          7
   130         38
   132        514
   133         90
   134         23
   135         56
   149         24
   150        347
   151         37
   152         18
   160         12
   193        860
   194        110
   195         45