##TITLE=Library Entry 38293
##JCAMP-DX=Revision 4.10 
##DATA TYPE=MASS SPECTRUM
##SAMPLE DESCRIPTION=D.HENNEBERG, MAX-PLANCK INSTITUTE, MULHEIM, WEST GERMAN
Y
##NAMES=HP
##CAS NAME=1-Penten-3-ol, 3-methyl-
##MOLFORM=C6H12O
##CAS REGISTRY NO=918-85-4
##MP= -300
##BP= -300
##MW= 100
##$RETENTION INDEX=0
##$CONDENSED SPECTRUM=NO
##NPOINTS= 45
##XYDATA=(XY..XY) 1 
    26         45
    27        140
    28         76
    29        121
    30          3
    31         28
    32          3
    38          1
    39         60
    40         13
    41        190
    42         26
    43        567
    44         23
    45         39
    50          4
    51          5
    52          3
    53         57
    54         14
    55        144
    56         25
    57         60
    58         15
    59          4
    65         12
    66          3
    67         87
    68          6
    69         10
    70         14
    71        999
    72         59
    73        137
    74          8
    77          3
    78          1
    79          9
    81          8
    82         24
    83         11
    84          1
    85        162
    86          7
   100          7