##TITLE=Library Entry 11749
##JCAMP-DX=Revision 4.10 
##DATA TYPE=MASS SPECTRUM
##SAMPLE DESCRIPTION=Japan AIST/NIMC Database- Spectrum MS-IW-4066
##NAMES=HP
##CAS NAME=2-Propanone, 1,1,1-trichloro-
##MOLFORM=C3H3Cl3O
##CAS REGISTRY NO=918-00-3
##MP= -300
##BP= -300
##MW= 160
##$RETENTION INDEX=845
##$CONDENSED SPECTRUM=NO
##NPOINTS= 61
##XYDATA=(XY..XY) 1 
    12          1
    13          2
    14         11
    15        111
    16          1
    24          1
    25          5
    26         16
    27         14
    28          7
    29          3
    35          7
    36         14
    37          6
    38          6
    39          2
    40          1
    41          4
    42         34
    43        999
    44         37
    45          3
    47         34
    48          3
    49         12
    50          1
    60          7
    61         29
    62          7
    63         35
    64          2
    65          8
    72          1
    73          2
    75          1
    77          1
    82         36
    83         81
    84         24
    85         52
    86          4
    87          9
    91          1
    95          1
    96          2
    97         77
    98          2
    99         50
   100          1
   101          8
   110          5
   112          3
   117         32
   119         30
   121          9
   123          1
   125        114
   126          4
   127         73
   128          2
   129         11