##TITLE=Library Entry 9641
##JCAMP-DX=Revision 4.10 
##DATA TYPE=MASS SPECTRUM
##SAMPLE DESCRIPTION=V.G.Zaikin, TIPS, Russian Acad. Sci.
##NAMES=HP
##CAS NAME=3-Methylpenta-1,4-diene-3-ol
##MOLFORM=C6H10O
##CAS REGISTRY NO=918-86-5
##MP= -300
##BP= -300
##MW= 98
##$RETENTION INDEX=824
##$CONDENSED SPECTRUM=NO
##NPOINTS= 25
##XYDATA=(XY..XY) 1 
    39        170
    40         35
    41        200
    42         50
    43        999
    44         55
    51         65
    52         15
    53        115
    54         40
    55        405
    56         55
    69         95
    70         30
    71        280
    72         35
    77         65
    78         15
    79        115
    80         60
    83        460
    84         35
    97         45
    98         35
    99          2