##TITLE=Library Entry 20993
##JCAMP-DX=Revision 4.10 
##DATA TYPE=MASS SPECTRUM
##SAMPLE DESCRIPTION=Chuck Anderson, Aldrich Chemical Co.
##NAMES=HP
##CAS NAME=Pentane, 3-chloro-3-methyl-
##MOLFORM=C6H13Cl
##CAS REGISTRY NO=918-84-3
##MP= -300
##BP= -300
##MW= 120
##$RETENTION INDEX=840
##$CONDENSED SPECTRUM=NO
##NPOINTS= 75
##XYDATA=(XY..XY) 1 
    14          0
    15         10
    25          1
    26         30
    27        351
    28         65
    29        270
    30          6
    31          1
    32          1
    35          2
    36          9
    37          5
    38         18
    39        214
    40         30
    41        404
    42         45
    43        491
    44         15
    45          0
    47          0
    48          0
    49         14
    50         24
    51         43
    52         13
    53         90
    54         31
    55        999
    56         92
    57         78
    58          3
    60          1
    61          7
    62         10
    63        145
    64          6
    65         58
    66          4
    67         28
    68          4
    69        336
    70         21
    71          0
    72          0
    73          3
    74          1
    75         19
    76         11
    77         14
    78          4
    79          4
    80          0
    81          1
    82          0
    83          6
    84         97
    85        514
    86         33
    87          1
    89          3
    90        651
    91        821
    92        214
    93        264
    94         11
   103          0
   104          3
   105         15
   106          2
   107          5
   108          0
   120          1
   122          0