##TITLE=Library Entry 67429
##JCAMP-DX=Revision 4.10 
##DATA TYPE=MASS SPECTRUM
##SAMPLE DESCRIPTION=Humboldt-Universitat zu Berlin, Department of Chemistry
, Analytical Group
##NAMES=HP
##CAS NAME=N,N'-Di(pyrid-2-yl)malonamide
##MOLFORM=C13H12N4O2
##CAS REGISTRY NO=91803-47-3
##MP= -300
##BP= -300
##MW= 256
##$RETENTION INDEX=0
##$CONDENSED SPECTRUM=NO
##NPOINTS= 115
##XYDATA=(XY..XY) 1 
    12          2
    13          1
    14          9
    15         23
    16          3
    17         11
    18         43
    19          1
    25          1
    26         19
    27         75
    28        110
    29         43
    30          6
    31          5
    32          1
    34          1
    36          0
    37         18
    38         76
    39        281
    40         89
    41         84
    42         53
    43         51
    44          8
    45          4
    46          1
    47          1
    49          2
    50         30
    51        223
    52         80
    53         26
    54          9
    55          4
    56          1
    57          2
    59          0
    60          3
    61          1
    62          1
    63          6
    64         25
    65         42
    66         97
    67        426
    68         28
    69         60
    70          3
    71          1
    73          1
    75          3
    76          7
    78        596
    79         64
    80         19
    81          2
    82          1
    83          2
    84          0
    85          0
    87          1
    89          1
    90          1
    91          4
    92         28
    93         33
    94        999
    95        270
    96         20
    97          1
   100          1
   105          8
   106          2
   107         38
   108          5
   109          1
   111          0
   114          1
   115          1
   116          1
   117          1
   118         16
   119          4
   120         19
   121        422
   122         33
   123          2
   128          1
   133          3
   134         50
   135        162
   136        634
   137         55
   138          3
   143          1
   145         34
   146          3
   160          1
   161          5
   162         72
   163        274
   164         27
   165          2
   170          2
   171          1
   187          2
   208          8
   209          1
   228          1
   255          2
   256         34
   257          9
   258          1