##TITLE=Library Entry 11937
##JCAMP-DX=Revision 4.10 
##DATA TYPE=MASS SPECTRUM
##SAMPLE DESCRIPTION=V.A.Korolev, Moscow, Russia
##NAMES=HP
##CAS NAME=N-(2,4-Difluorophenyl)propane-1-sulfonamide
##MOLFORM=C9H11F2NO2S
##CAS REGISTRY NO=918523-57-6
##MP= -300
##BP= -300
##MW= 235
##$RETENTION INDEX=0
##$CONDENSED SPECTRUM=NO
##NPOINTS= 86
##XYDATA=(XY..XY) 1 
    37          9
    38         27
    39        251
    40         72
    41        746
    42         96
    43        999
    44         57
    45         37
    46         12
    47          6
    48         27
    49          9
    50         32
    51         91
    52         21
    53          2
    55         10
    56         21
    57         61
    58         12
    59          4
    61          5
    62          7
    63         20
    64         20
    65          6
    66          2
    68          3
    69          4
    70          4
    71          2
    72          3
    73          4
    75         59
    76         14
    77         21
    78          7
    79          5
    80          4
    81         26
    82         31
    83         21
    84          2
    88          2
    89          4
    90          2
    95          7
    96          3
    99         14
   100         32
   101        370
   102         46
   103          3
   107          9
   108         18
   109         20
   110          4
   111          6
   113          5
   114         41
   115          4
   116          2
   124          7
   126          6
   127         34
   128        710
   129        753
   130         51
   138          2
   140          6
   141          2
   142         91
   143          6
   156         66
   157          5
   159          3
   170          7
   172          5
   175          4
   176         35
   177         35
   178          3
   235        220
   236         24
   237         12