##TITLE=Library Entry 51959
##JCAMP-DX=Revision 4.10 
##DATA TYPE=MASS SPECTRUM
##SAMPLE DESCRIPTION=Institute of Organic Chemistry, Novosibirsk, USSR 1988
##NAMES=HP
##CAS NAME=Cyclohexanespiro-5'-(2',4',4'-trimethyl-2'-oxazoline)
##MOLFORM=C11H19NO
##CAS REGISTRY NO=91875-85-3
##MP= -300
##BP= -300
##MW= 181
##$RETENTION INDEX=0
##$CONDENSED SPECTRUM=NO
##NPOINTS= 79
##XYDATA=(XY..XY) 1 
    12          5
    13          4
    14         13
    15         40
    16          9
    17         29
    18        145
    24          3
    25          9
    26         49
    27         74
    28        125
    29         45
    30         16
    31          7
    32         17
    36          7
    37          4
    38          6
    39         99
    40         32
    41        262
    42        857
    43        200
    44         33
    45         18
    50          9
    51          9
    52          7
    53         34
    54         22
    55         95
    56         28
    57         33
    58         99
    59          8
    60         14
    65         11
    66          8
    67         41
    68         14
    69         39
    70         32
    71         21
    77         19
    78          5
    79         36
    80          8
    81         32
    82         25
    83        999
    84         74
    85         13
    91         15
    92          2
    93         10
    94          6
    95         12
    96         11
    97         19
    98          6
    99          4
   100         18
   101         19
   105          4
   107         16
   108          5
   109          6
   110          7
   111          6
   122          9
   123          7
   124         10
   125         20
   138         11
   145          6
   166          4
   181         14
   182          2