##TITLE=Library Entry 28148
##JCAMP-DX=Revision 4.10 
##DATA TYPE=MASS SPECTRUM
##SAMPLE DESCRIPTION=Institute of Organic Chemistry, Novosibirsk, USSR 1988
##NAMES=HP
##CAS NAME=12,21-Dimethyl-1,4,7,15,18-pentaoxa-12,21-diazacyclopentacosane-8
,11,22,25-tetrone
##MOLFORM=C20H34N2O9
##CAS REGISTRY NO=91876-19-6
##MP= -300
##BP= -300
##MW= 446
##$RETENTION INDEX=0
##$CONDENSED SPECTRUM=NO
##NPOINTS= 223
##XYDATA=(XY..XY) 1 
    50         10
    51          6
    53          6
    54         13
    55        719
    56        315
    57        613
    58        999
    59         99
    60         13
    61          8
    64          8
    66          6
    67         13
    68         31
    69         56
    70        147
    71         99
    72        203
    73        250
    74         70
    75         13
    76         20
    77          8
    79         10
    81         20
    82         24
    83         71
    84         45
    85         43
    86        147
    87         70
    88         26
    89         92
    90         12
    92         10
    93          8
    95         15
    96         12
    97         73
    98        219
    99        684
   100        245
   101        219
   102         87
   103         15
   109         12
   110         27
   111         47
   112        385
   113        220
   114        491
   115         61
   116         22
   117         15
   118         26
   120         20
   124         10
   125         19
   126         70
   127        438
   128        136
   129         64
   130         38
   131         19
   132         17
   137         10
   138         12
   139        110
   140        280
   141        149
   142         73
   143         42
   144         61
   145         85
   146         22
   151         10
   152          8
   153         20
   154         15
   155         42
   156        236
   157        101
   158        563
   159         85
   160         13
   163         12
   165         15
   166          6
   167         10
   168          6
   169         15
   170         38
   171        175
   172         75
   173         34
   174         20
   175          8
   176         15
   181         12
   182         12
   183         27
   184        154
   185         47
   186         59
   187         22
   188         26
   189         52
   190         19
   196         10
   197         10
   198         10
   199         50
   200        150
   201         57
   202        252
   203         40
   204         17
   212         10
   213         15
   214         24
   215         24
   216         34
   217         29
   218         12
   220         38
   221         12
   227         45
   228        115
   229         31
   230         22
   231         10
   232         10
   233         12
   234         26
   240          8
   242         15
   243         15
   244         61
   245         31
   246        142
   247         22
   256         19
   257         26
   258         26
   259         24
   260         15
   262         24
   264         12
   270         10
   271         19
   272         19
   273         10
   274         13
   275         13
   276         10
   277          6
   284         19
   285          8
   286         13
   287         12
   288         19
   289         12
   290         13
   291          8
   292          8
   300        117
   301         31
   302        173
   303         47
   306         15
   312         10
   313          8
   314         15
   315         19
   316         22
   317         12
   318          8
   328         78
   329         22
   330         19
   333         12
   340         57
   341         15
   343          8
   344         26
   345         22
   346         80
   347         15
   357          8
   358         24
   359         73
   360         34
   361         10
   366         13
   371         13
   372         12
   373         15
   374         10
   375         12
   384         19
   385         34
   386         10
   387         15
   388          8
   389          8
   390        315
   391         63
   392         12
   401         31
   402         10
   403         75
   404         19
   415          6
   416          6
   417          6
   418          5
   419          5
   428          3
   429          3
   445         13
   446         20
   447         10