##TITLE=Library Entry 19742
##JCAMP-DX=Revision 4.10 
##DATA TYPE=MASS SPECTRUM
##SAMPLE DESCRIPTION=Institute of Organic Chemistry, Novosibirsk, USSR 1988
##NAMES=HP
##CAS NAME=2,5-Dimethyl-5-ethyl-2-oxazoline
##MOLFORM=C7H13NO
##CAS REGISTRY NO=91875-71-7
##MP= -300
##BP= -300
##MW= 127
##$RETENTION INDEX=0
##$CONDENSED SPECTRUM=NO
##NPOINTS= 70
##XYDATA=(XY..XY) 1 
    12          6
    13          1
    15         69
    25          5
    26         43
    27        231
    28         99
    29        168
    30         78
    31         13
    36          1
    37          5
    38          6
    39         94
    40         14
    41         78
    42        169
    43        379
    44         32
    45         26
    51          4
    52         10
    53         14
    54        153
    55        999
    56         58
    57        181
    60         18
    61         21
    62          4
    63          5
    64          3
    65         14
    66          6
    67         56
    68         43
    69        112
    70        187
    71         74
    72         19
    73        162
    74         33
    75          4
    76          5
    77         11
    78          3
    79         16
    80          9
    81         38
    82         38
    83         62
    84         68
    85         42
    86          9
    87          8
    91         11
    92          4
    93         15
    94         10
    95         26
    96         19
    97         62
    98        331
    99         28
   100          5
   112         20
   113          1
   126          8
   127         93
   128          8