##TITLE=Library Entry 8081
##JCAMP-DX=Revision 4.10 
##DATA TYPE=MASS SPECTRUM
##SAMPLE DESCRIPTION=A.Mazepa, Phys.-Chem.Institute, Odessa, Ukraine
##NAMES=HP
##CAS NAME=2,4,4,6,6-Pentamethyl-5,6-dihydro-4H-1,3-oxazine
##MOLFORM=C9H17NO
##CAS REGISTRY NO=91875-62-6
##MP= -300
##BP= -300
##MW= 155
##$RETENTION INDEX=0
##$CONDENSED SPECTRUM=NO
##NPOINTS= 56
##XYDATA=(XY..XY) 1 
    26          3
    27         64
    28        100
    29         53
    30         15
    31          4
    32          4
    38          5
    39        109
    40         30
    41        225
    42        269
    43        999
    44        425
    45          6
    51          4
    52          2
    53         17
    54          7
    55         40
    56        233
    57         73
    58        700
    59         41
    60         30
    65          5
    66          5
    67         32
    68          4
    69          3
    70          4
    71         65
    72          3
    73          1
    80          4
    81         18
    82         23
    83         56
    84         58
    85         31
    86         20
    87          5
    97          4
    98        105
    99         64
   100        384
   101         94
   102          3
   120          1
   121          1
   122         64
   123          2
   140         21
   141          2
   155        158
   156         11