##TITLE=Library Entry 28005
##JCAMP-DX=Revision 4.10 
##DATA TYPE=MASS SPECTRUM
##SAMPLE DESCRIPTION=A.S.Moskovkin,I.M.Karnaukh, Russian Center on Disaster
 Medicine
##NAMES=HP
##CAS NAME=2,4,4,5,6-Pentamethyl-5,6-dihydro-4H-1,3-oxazine
##MOLFORM=C9H17NO
##CAS REGISTRY NO=91875-61-5
##MP= -300
##BP= -300
##MW= 155
##$RETENTION INDEX=0
##$CONDENSED SPECTRUM=NO
##NPOINTS= 37
##XYDATA=(XY..XY) 1 
    39         68
    40         27
    41        200
    42        210
    43        590
    44         12
    51         11
    53         26
    54         15
    55        130
    56         68
    57         68
    58        999
    59         36
    60        140
    67         19
    69         32
    70         94
    71         51
    72        100
    77         11
    81         26
    82         10
    83         25
    84         32
    85         16
    86         24
    96         23
    97         16
    98         18
    99         39
   100        390
   101         28
   102         12
   114         20
   155         48
   156          5