##TITLE=Library Entry 97149
##JCAMP-DX=Revision 4.10 
##DATA TYPE=MASS SPECTRUM
##SAMPLE DESCRIPTION=Institute of Organic Chemistry, Novosibirsk, USSR 1988
##NAMES=HP
##CAS NAME=5-Ethyl-5-methyl-2-phenyl-2-oxazoline
##MOLFORM=C12H15NO
##CAS REGISTRY NO=91875-70-6
##MP= -300
##BP= -300
##MW= 189
##$RETENTION INDEX=0
##$CONDENSED SPECTRUM=NO
##NPOINTS= 98
##XYDATA=(XY..XY) 1 
    39        115
    40         36
    41        280
    42        109
    43        311
    44         24
    45          4
    49          6
    50         48
    51        170
    52         36
    53         30
    54         23
    55        207
    56         89
    57        256
    58         28
    59          9
    60          5
    61          2
    63         21
    64          9
    65         25
    66          6
    67         60
    68         28
    69         93
    70         47
    71         99
    72         10
    73         34
    74         10
    75         10
    76         35
    77        365
    78         34
    79         24
    80         12
    81         74
    82         37
    83         69
    84         89
    85         52
    86         15
    87         13
    88          7
    89         51
    90         53
    91         40
    92          6
    93         15
    94         10
    95         49
    96         26
    97         59
    98         17
    99         13
   100          4
   101          5
   102          9
   103         34
   104         62
   105        219
   106         19
   107         12
   108          8
   109         35
   110         12
   111         36
   112         15
   113         23
   114          4
   115         12
   116         34
   117        999
   118         92
   119         10
   120          7
   121         20
   122         11
   123         24
   124         12
   125         22
   126          9
   127         10
   128          3
   129         17
   130          7
   131          6
   132         65
   133         13
   134          3
   135         26
   160         98
   161         23
   174          6
   189        131
   190         21