##TITLE=Library Entry 28824
##JCAMP-DX=Revision 4.10 
##DATA TYPE=MASS SPECTRUM
##SAMPLE DESCRIPTION=Institute of Organic Chemistry, Novosibirsk, USSR 1988
##NAMES=HP
##CAS NAME=15,24-Dimethyl-1,4,7,10,18,21-hexaoxa-15,24-diazacyclooctacosane-
11,14,25,28-tetrone
##MOLFORM=C22H38N2O10
##CAS REGISTRY NO=91876-17-4
##MP= -300
##BP= -300
##MW= 490
##$RETENTION INDEX=0
##$CONDENSED SPECTRUM=NO
##NPOINTS= 104
##XYDATA=(XY..XY) 1 
    55        534
    56        278
    57        657
    58        999
    59        123
    69         65
    70        163
    71        107
    72        252
    73        323
    74         78
    82         31
    83         76
    84         84
    85         44
    86        192
    87        102
    88         49
    89        115
    97         47
    98        218
    99        710
   100        263
   101        244
   102         94
   111         36
   112        381
   113        297
   114        420
   115         92
   126         68
   127        473
   128        165
   129         55
   130         39
   131         31
   139         92
   140        220
   141        181
   142         92
   143         44
   144         70
   145        160
   146         31
   155         34
   156        223
   157        115
   158        657
   159         78
   170         49
   171        155
   172         99
   173         37
   174         31
   184        173
   185         86
   186         73
   187         34
   188         31
   189         73
   199         60
   200        189
   201        102
   202        294
   203         49
   214         39
   215         57
   216         44
   227         63
   228        113
   229         34
   230         36
   233         39
   243         34
   244         68
   245         36
   246        226
   247         34
   258         34
   260         31
   264         31
   271         42
   272        105
   288         63
   289         31
   290        105
   302         44
   340         81
   344         81
   345         34
   346         94
   372         55
   388         36
   390        123
   391         47
   403         92
   405         36
   429         47
   434        326
   435         86
   444         39
   446        118
   489         31
   490         34