##TITLE=Library Entry 33940
##JCAMP-DX=Revision 4.10 
##DATA TYPE=MASS SPECTRUM
##SAMPLE DESCRIPTION=Institute of Organic Chemistry, Novosibirsk, USSR 1988
##NAMES=HP
##CAS NAME=2,4,5-Trimethyl-5-ethyl-2-oxazoline
##MOLFORM=C8H15NO
##CAS REGISTRY NO=91875-68-2
##MP= -300
##BP= -300
##MW= 141
##$RETENTION INDEX=0
##$CONDENSED SPECTRUM=NO
##NPOINTS= 69
##XYDATA=(XY..XY) 1 
    12          8
    13          4
    14         15
    15         48
    16         13
    17         26
    18        124
    19          1
    24          2
    25         62
    26        255
    27        599
    28        275
    29        413
    30        137
    31         68
    32          6
    37         13
    38         20
    39        240
    40         97
    41        400
    42        482
    43        551
    44         68
    45         34
    46          7
    53         13
    54         55
    55        544
    56        303
    57        234
    58        331
    59         33
    60         13
    66          6
    67        144
    68        227
    69        999
    70        330
    71        186
    72        103
    73        117
    74          7
    78          7
    79         27
    80         20
    81         34
    82         75
    83         68
    84        248
    85        116
    89         28
    95          7
    96         13
    97         14
    98         89
    99         48
   100         25
   101         14
   102          5
   112         90
   113         20
   125         21
   126         55
   127         13
   141        117
   142         34
   143         11