##TITLE=Library Entry 77249
##JCAMP-DX=Revision 4.10 
##DATA TYPE=MASS SPECTRUM
##SAMPLE DESCRIPTION=Institute of Organic Chemistry, Novosibirsk, USSR 1988
##NAMES=HP
##CAS NAME=2,4,6-Triphenyl-5,6-dihydro-4H-1,3-oxazine
##MOLFORM=C22H19NO
##CAS REGISTRY NO=91875-67-1
##MP= -300
##BP= -300
##MW= 313
##$RETENTION INDEX=0
##$CONDENSED SPECTRUM=NO
##NPOINTS= 104
##XYDATA=(XY..XY) 1 
    12          7
    13          5
    14         14
    15         35
    16         43
    17        117
    18        276
    19          2
    25          2
    26         17
    27         60
    28         87
    29        102
    30         18
    31         32
    32         18
    38          6
    39         40
    40          4
    41         29
    42         20
    43         35
    44         20
    45          9
    50         29
    51        153
    52         28
    53          9
    54          4
    55         19
    56          7
    57         18
    62          3
    63         18
    64          7
    65         27
    66          3
    67          8
    68          3
    69         10
    70          4
    71          6
    73          5
    74          5
    75         12
    76         41
    77        748
    78        235
    79         26
    80          3
    81          6
    82          4
    83          7
    84          1
    85          3
    89         38
    90         37
    91         92
    92         30
    93          3
    94          2
    95          4
    97          4
   101          4
   102         21
   103        143
   104        999
   105        800
   106         59
   107          5
   115         21
   116          9
   117          4
   120          6
   122          4
   128          4
   129          3
   130          8
   131          1
   132          5
   165         24
   166          9
   167          2
   178         10
   179          4
   180          6
   181          2
   189          4
   190          1
   191          7
   192         24
   193         55
   194          9
   198          3
   206          4
   207          3
   208         14
   209          8
   210          4
   222         27
   223          5
   313        148
   314         35
   315          5