##TITLE=Library Entry 1003
##JCAMP-DX=Revision 4.10 
##DATA TYPE=MASS SPECTRUM
##SAMPLE DESCRIPTION=Japan AIST/NIMC Database- Spectrum MS-IW-5857
##NAMES=HP
##CAS NAME=1-(Alpha-acetamidotoluene-p-sulfonyl)-3-propylurea
##MOLFORM=C13H19N3O4S
##CAS REGISTRY NO=91881-30-0
##MP= -300
##BP= -300
##MW= 313
##$RETENTION INDEX=0
##$CONDENSED SPECTRUM=NO
##NPOINTS= 187
##XYDATA=(XY..XY) 1 
    12          1
    14          5
    15         40
    16          5
    17          1
    25          3
    26         22
    27         94
    28        272
    29        106
    30        999
    31         24
    32         18
    33          2
    34          4
    37          6
    38         18
    39         86
    40         33
    41        131
    42        134
    43        964
    44        171
    45         11
    46          8
    48          7
    49          1
    50         55
    51         78
    52         40
    53         12
    54         24
    55         11
    56        281
    57         67
    58         46
    59        180
    60         12
    61          2
    62         12
    63         72
    64         30
    65         26
    66         11
    67          8
    68          2
    69          7
    70          5
    71          7
    72         12
    73          7
    74         15
    75         19
    76         65
    77        205
    78        105
    79         89
    80          9
    81          2
    82          3
    83          2
    84         75
    85         30
    86          3
    87          4
    88          2
    89        287
    90        149
    91         47
    92         11
    93         16
    94          9
    95          8
    96          2
    97          3
    98          2
    99          2
   101          2
   102          9
   103         33
   104        155
   105        669
   106        803
   107         83
   108          8
   109         23
   110          6
   111          7
   112          1
   114          3
   115          1
   116          2
   117          2
   118          5
   119         12
   120         13
   121         33
   122         25
   123         18
   124          5
   125         10
   127          5
   128          3
   129          4
   130          9
   131          8
   132         22
   133          5
   134          4
   135          5
   136          8
   137          9
   138         22
   139          3
   140          3
   141         25
   142          3
   143          1
   145          2
   146          9
   147        402
   148        136
   149         18
   150          3
   151          1
   152         51
   153         24
   154         21
   155         14
   156          4
   158          2
   162          1
   164         24
   165          4
   166          1
   167          3
   168         13
   169          6
   170        428
   171         38
   172         19
   173          1
   177          3
   179          3
   180          1
   181         34
   182          5
   183          4
   184         19
   185         41
   186          6
   187          2
   190          1
   191          1
   193          1
   195          8
   196         63
   197          9
   198          4
   205          1
   208          1
   209          8
   210          4
   211        365
   212        518
   213         71
   214         27
   215          2
   223          4
   227          1
   228         87
   229         12
   230          5
   236          2
   237          2
   238          1
   239          4
   251          1
   252          1
   253         18
   254        705
   255        100
   256         69
   257          7
   258          3
   271          2
   313          2