##TITLE=Library Entry 67732
##JCAMP-DX=Revision 4.10 
##DATA TYPE=MASS SPECTRUM
##SAMPLE DESCRIPTION=Chemical Concepts
##NAMES=HP
##CAS NAME=Cyclopentane, 1,2-dimethyl-3-methylene-, cis-
##MOLFORM=C8H14
##CAS REGISTRY NO=91884-67-2
##MP= -300
##BP= -300
##MW= 110
##$RETENTION INDEX=0
##$CONDENSED SPECTRUM=NO
##NPOINTS= 56
##XYDATA=(XY..XY) 1 
    25          6
    26         50
    27        344
    28         20
    29        128
    30          1
    37          5
    38         17
    39        334
    40         82
    41        508
    42         50
    43         28
    45          4
    46          2
    47          2
    49          2
    50         31
    51         66
    52         28
    53        199
    54         89
    55        233
    56         41
    57          5
    58          1
    62          4
    63         13
    64          2
    65         46
    66         32
    67        498
    68        367
    69        301
    70         23
    74          3
    75          1
    77         67
    78         14
    79         82
    80         33
    81        415
    82         91
    83          6
    89          1
    91         31
    92          4
    93         40
    94          9
    95        999
    96         71
    97          1
   107          1
   109         22
   110        280
   111         26