##TITLE=Library Entry 57762
##JCAMP-DX=Revision 4.10 
##DATA TYPE=MASS SPECTRUM
##SAMPLE DESCRIPTION=Chemical Concepts
##NAMES=HP
##CAS NAME=Demeton-S-methyl
##MOLFORM=C6H15O3PS2
##CAS REGISTRY NO=919-86-8
##MP= -300
##BP= -300
##MW= 230
##$RETENTION INDEX=1615
##$CONDENSED SPECTRUM=NO
##NPOINTS= 115
##XYDATA=(XY..XY) 1 
    26          6
    27         70
    28          5
    29        101
    30          2
    31         12
    33          1
    34          2
    35         25
    36          0
    37          1
    39          1
    40          2
    41         12
    42          0
    43          0
    44          0
    45         44
    46         15
    47         75
    48          4
    49          6
    50          0
    51          0
    53          1
    54          3
    55         15
    56          1
    57          1
    58         14
    59         68
    60        500
    61        100
    62         25
    63         10
    64          9
    65          4
    66          1
    67          0
    71          0
    73         35
    74          3
    75         71
    76          3
    77          5
    78          1
    79         96
    80          6
    81          1
    82          0
    85          1
    86          0
    87          8
    88        999
    89         94
    90         46
    91          4
    92          5
    93         26
    94          2
    95          6
    96          1
    97          0
   100          0
   101          0
   103          0
   105          2
   107          0
   109        141
   110         15
   111         19
   112         75
   113          2
   114          2
   119          0
   120          1
   121          4
   122          2
   123          0
   124          0
   125         43
   126          2
   127          2
   128          0
   134          0
   135          0
   136          0
   137          2
   139          1
   141          2
   142        113
   143         66
   144          7
   145          3
   148          0
   149          1
   150          0
   155          1
   156          1
   157          0
   169         17
   170          1
   171          3
   173          0
   174          0
   177          0
   181          0
   185          0
   196          0
   199          0
   201          0
   230         71
   231          6
   232          7
   233          0