##TITLE=Library Entry 83899
##JCAMP-DX=Revision 4.10 
##DATA TYPE=MASS SPECTRUM
##SAMPLE DESCRIPTION=Japan AIST/NIMC Database- Spectrum MS-NW-8394
##NAMES=HP
##CAS NAME=(1-Propoxyethyl)benzene
##MOLFORM=C11H16O
##CAS REGISTRY NO=91967-71-4
##MP= -300
##BP= -300
##MW= 164
##$RETENTION INDEX=0
##$CONDENSED SPECTRUM=NO
##NPOINTS= 97
##XYDATA=(XY..XY) 1 
    15          6
    17          1
    26          5
    27         93
    28         15
    29         21
    30          2
    31         13
    32          1
    36          3
    37          2
    38          7
    39         52
    40          7
    41         71
    42          9
    43        288
    44         10
    45         52
    46          1
    47          2
    49          2
    50         28
    51         97
    52         21
    53         11
    54          1
    55          5
    56          2
    57          4
    58          3
    59          5
    60          1
    61          2
    62          6
    63         21
    64          5
    65         20
    66          8
    67          1
    68          1
    69          1
    70          1
    71          3
    73          3
    74          9
    75         11
    76         11
    77        232
    78         82
    79        380
    80         24
    81          1
    83          1
    86          1
    87          5
    89         19
    90          7
    91         57
    92          6
    93          5
    94         24
    95          3
    99          1
   101          4
   102         14
   103        126
   104         82
   105        884
   106        161
   107        999
   108         76
   109          5
   119          2
   120          3
   121         23
   122         10
   123          1
   125        103
   126          8
   127         33
   128          2
   131          1
   135          2
   138          9
   139         24
   140          9
   141          8
   142          2
   147          1
   149        728
   150         80
   151          8
   163          3
   164          5
   165          1
   166          1