##TITLE=Library Entry 3772
##JCAMP-DX=Revision 4.10 
##DATA TYPE=MASS SPECTRUM
##SAMPLE DESCRIPTION=V.A.Korolev, Moscow, Russia
##NAMES=HP
##CAS NAME=3-[2-(Prop-2-en-1-yloxy)phenyl]prop-2-enoic acid
##MOLFORM=C12H12O3
##CAS REGISTRY NO=91963-08-5
##MP= -300
##BP= -300
##MW= 204
##$RETENTION INDEX=0
##$CONDENSED SPECTRUM=NO
##NPOINTS= 73
##XYDATA=(XY..XY) 1 
    36          3
    37         73
    38        206
    39        311
    40        116
    41        999
    42         36
    43         16
    45        150
    50         73
    51         98
    52         24
    53         40
    54          2
    55         20
    57          1
    61         23
    62         70
    63        172
    64         44
    65         93
    66         10
    69          2
    73          1
    74         27
    75         27
    76         15
    77         63
    78         27
    79         25
    82          1
    86          7
    87          8
    89        151
    90        100
    91        439
    92         29
    93          3
   100          1
   101          3
   102          5
   103          8
   105          1
   107          3
   114          1
   115          9
   116          2
   118        414
   119         38
   120          9
   127          1
   128          2
   129         15
   130          1
   131         23
   132          6
   139          2
   144          9
   145          6
   146        384
   147         35
   148          4
   157          9
   158         41
   159          4
   160          2
   171          8
   186         10
   187         11
   188          1
   204        233
   205         29
   206          2