##TITLE=Library Entry 88901
##JCAMP-DX=Revision 4.10 
##DATA TYPE=MASS SPECTRUM
##SAMPLE DESCRIPTION=Chemical Concepts
##NAMES=HP
##CAS NAME=1(2H)-Naphthalenone, octahydro-5-hydroxy-8a-methyl-
##MOLFORM=C11H18O2
##CAS REGISTRY NO=91965-65-0
##MP= -300
##BP= -300
##MW= 182
##$RETENTION INDEX=0
##$CONDENSED SPECTRUM=NO
##NPOINTS= 83
##XYDATA=(XY..XY) 1 
    26          2
    27         28
    28         10
    29         28
    31          6
    39         34
    40          7
    41         70
    42         12
    43         68
    44          7
    45          6
    51          7
    52          4
    53         26
    54         16
    55         72
    56         15
    57         23
    58          3
    63          4
    65         10
    66          5
    67         50
    68         13
    69         25
    70         14
    71         12
    72          4
    77         21
    78          5
    79         31
    80          9
    81         35
    82         36
    83         23
    84         14
    85          8
    91         17
    92          4
    93         59
    94         12
    95         35
    96          8
    97         23
    98          7
   105          6
   107         15
   108         21
   109         18
   110         17
   111        999
   112         91
   113          6
   118          3
   119          2
   120          3
   121         13
   122          4
   123         12
   124         35
   125          6
   126          2
   131          7
   135          7
   136          5
   137         21
   138          7
   139          4
   140          1
   146          4
   149          8
   153          2
   154          3
   164         12
   165          2
   167         10
   168          2
   169          1
   181          3
   182        194
   183         27
   184          3