##TITLE=Library Entry 19723
##JCAMP-DX=Revision 4.10 
##DATA TYPE=MASS SPECTRUM
##SAMPLE DESCRIPTION=J. Klune, Insect Chem. Ecol. Lab., USDA, Beltsville, MD
 20705
##NAMES=HP
##CAS NAME=3,7-Dimethyl-2,6-nonadien-1-ol acetate
##MOLFORM=C13H22O2
##CAS REGISTRY NO=91975-87-0
##MP= -300
##BP= -300
##MW= 210
##$RETENTION INDEX=0
##$CONDENSED SPECTRUM=NO
##NPOINTS= 123
##XYDATA=(XY..XY) 1 
    41        371
    42         40
    43        638
    44         30
    45          5
    47          0
    49          1
    50          3
    51         18
    52         13
    53        113
    54         27
    55        999
    56         59
    57         26
    58          2
    59          2
    60          1
    61          6
    62          0
    63          3
    64          1
    65         39
    66         18
    67        264
    68        248
    69         53
    70          8
    71         16
    72          2
    73          9
    74          0
    75          1
    76          1
    77         46
    78          9
    79         81
    80        184
    81        122
    82        298
    83        528
    84        102
    85         40
    86          6
    87          1
    89          1
    91         46
    92         85
    93        357
    94         78
    95         62
    96         12
    97         20
    98         14
    99          5
   100          2
   103          3
   104          1
   105         19
   106          8
   107         49
   108         31
   109         20
   110          7
   111         10
   112          4
   113          3
   114          0
   115          8
   116          1
   117          3
   118          0
   119         10
   120          6
   121        222
   122         38
   123         12
   124          3
   125          3
   126          6
   127         11
   128          1
   129          0
   131          1
   133          6
   134          2
   135         76
   136          9
   137         20
   138          6
   139          5
   140          3
   141          0
   142          1
   143          1
   147          1
   148          7
   149          4
   150        181
   151         29
   152          3
   153          5
   154          1
   155          0
   159          0
   164          1
   165          0
   166          2
   167          0
   168         16
   169          2
   170          0
   175          0
   177          1
   181          1
   182          0
   183          0
   192          1
   194          0
   195          0
   209          0
   210          7
   211          1