##TITLE=Library Entry 25641
##JCAMP-DX=Revision 4.10 
##DATA TYPE=MASS SPECTRUM
##SAMPLE DESCRIPTION=V.G.Zaikin, TIPS, Russian Acad. Sci.
##NAMES=HP
##CAS NAME=4-tert-Butoxybutan-1-ol, TMS derivative
##MOLFORM=C11H26O2Si
##CAS REGISTRY NO=91988-79-3
##MP= -300
##BP= -300
##MW= 218
##$RETENTION INDEX=0
##$CONDENSED SPECTRUM=NO
##NPOINTS= 44
##XYDATA=(XY..XY) 1 
    41        155
    42         30
    43        130
    44         40
    45        110
    47         40
    55        120
    56         45
    57        999
    58         70
    59         90
    60         10
    61         30
    71        130
    72         60
    73        570
    74         60
    75        300
    76         30
    77         25
    85         20
    86         15
    87         20
    91         30
    99         20
   101         70
   102         15
   103        255
   104         25
   115         20
   116         30
   117         25
   129         20
   131         20
   144         20
   145        440
   146         50
   147        110
   148         10
   161        150
   162         35
   163         20
   218          3
   219          0