##TITLE=Library Entry 20966
##JCAMP-DX=Revision 4.10 
##DATA TYPE=MASS SPECTRUM
##SAMPLE DESCRIPTION=V.G.Zaikin, TIPS, Russian Acad. Sci.
##NAMES=HP
##CAS NAME=7-Methoxyheptan-1-ol, TMS derivative
##MOLFORM=C11H26O2Si
##CAS REGISTRY NO=91988-78-2
##MP= -300
##BP= -300
##MW= 218
##$RETENTION INDEX=0
##$CONDENSED SPECTRUM=NO
##NPOINTS= 53
##XYDATA=(XY..XY) 1 
    41        120
    42         30
    43        130
    44         60
    45        390
    46         10
    47         30
    51         10
    53         15
    54         15
    55        999
    56         90
    57         30
    58         50
    59         70
    60         10
    61         50
    67         45
    68         70
    69        160
    70         40
    71         60
    72         30
    73        400
    74         50
    75        400
    76         30
    77         20
    78         30
    81         40
    83         30
    85         25
    89        550
    90         60
    91         40
    95         30
    96        110
    97        420
    98         40
    99         10
   103        230
   104         50
   105         30
   119        140
   120         20
   128         20
   129         15
   143         20
   171         45
   203         80
   204         10
   218          5
   219          1