##TITLE=Library Entry 68331
##JCAMP-DX=Revision 4.10 
##DATA TYPE=MASS SPECTRUM
##SAMPLE DESCRIPTION=Patti Price, Georgia Bureau of Investigation, Decatur,
 Georgia
##NAMES=HP
##CAS NAME=Pilocarpine
##MOLFORM=C11H16N2O2
##CAS REGISTRY NO=92-13-7
##MP= -300
##BP= -300
##MW= 208
##$RETENTION INDEX=2037
##$CONDENSED SPECTRUM=NO
##NPOINTS= 68
##XYDATA=(XY..XY) 1 
    41        132
    42        173
    43         10
    44         19
    45          3
    50          7
    51         18
    52         24
    53         48
    54         85
    55         52
    56          7
    57          4
    59          2
    63          5
    64          2
    65         12
    66         17
    67         25
    68         38
    69          8
    70          1
    73          1
    77          8
    78          4
    79          8
    80         16
    81         19
    82         28
    83         31
    84          2
    85          5
    91          3
    92          5
    93          6
    94         17
    95        999
    96        230
    97         13
    98          1
   105          1
   106          2
   107          6
   108          5
   109         87
   110          8
   111          2
   119          2
   120          2
   121         23
   122          7
   123         14
   124          5
   133          5
   134          1
   135          5
   137          2
   138          1
   147          2
   149          7
   150          1
   151          4
   163          1
   164          1
   193          3
   207          1
   208         60
   209          8