##TITLE=Library Entry 107316
##JCAMP-DX=Revision 4.10 
##DATA TYPE=MASS SPECTRUM
##SAMPLE DESCRIPTION=Japan AIST/NIMC Database- Spectrum MS-NW-9584
##NAMES=HP
##CAS NAME=Butanamide, N-(2-methoxyphenyl)-3-oxo-
##MOLFORM=C11H13NO3
##CAS REGISTRY NO=92-15-9
##MP= -300
##BP= -300
##MW= 207
##$RETENTION INDEX=0
##$CONDENSED SPECTRUM=NO
##NPOINTS= 90
##XYDATA=(XY..XY) 1 
    15          8
    17          1
    18          4
    26          2
    27          9
    28         15
    29          3
    30          1
    31          2
    32          1
    37          1
    38          3
    39         15
    40          2
    41          9
    42          7
    43        191
    44          5
    50          6
    51         21
    52         33
    53         15
    54          2
    55          4
    57          1
    58          4
    62          2
    63          9
    64          9
    65         52
    66          8
    67          3
    69          9
    75          1
    76          2
    77         18
    78         14
    79         12
    80         73
    81          5
    84          7
    85         31
    86          1
    90          3
    91          8
    92         35
    93         16
    94         12
    95          7
    96          1
   102          1
   104          7
   105         11
   106         12
   107          4
   108        787
   109         64
   110          4
   119          1
   120         40
   121          9
   122         18
   123        999
   124         87
   125          5
   132          3
   133          3
   134         29
   135         14
   136          5
   137          1
   146          4
   147          2
   148          3
   149        432
   150         49
   151          4
   163          1
   164          7
   165          2
   176          8
   177          1
   178          1
   189         17
   190          2
   206          2
   207        907
   208        122
   209         12
   210          1