##TITLE=Library Entry 27865
##JCAMP-DX=Revision 4.10 
##DATA TYPE=MASS SPECTRUM
##SAMPLE DESCRIPTION=Tox21 Consortium/NIST Mass Spectrometry Data Center, 20
12
##NAMES=HP
##CAS NAME=Phenyltoloxamine
##MOLFORM=C17H21NO
##CAS REGISTRY NO=92-12-6
##MP= -300
##BP= -300
##MW= 255
##$RETENTION INDEX=1927
##$CONDENSED SPECTRUM=NO
##NPOINTS= 101
##XYDATA=(XY..XY) 1 
    15          2
    18          2
    27          4
    28          6
    29          6
    30         15
    38          1
    39          8
    40          1
    41          4
    42         55
    43         22
    44         20
    45          5
    46         16
    50          4
    51         13
    52          4
    53          2
    54          2
    55          5
    56         29
    57         14
    58        999
    59         36
    62          2
    63          7
    64          2
    65          8
    66          1
    70         11
    71         14
    72         27
    73          1
    74          2
    75          2
    76          4
    77         16
    78          8
    79          1
    82          2
    86          1
    87          1
    88          1
    89          7
    90          2
    91         44
    92          4
   101          1
   102          4
   103          2
   104          1
   105          3
   106          1
   107          1
   113          1
   114          1
   115         14
   116          2
   118          1
   119          1
   126          3
   127          6
   128         10
   129          3
   131          1
   132          1
   133          1
   134          1
   138          1
   139          7
   140          1
   141          2
   150          1
   151          5
   152         23
   153         13
   154          4
   155          3
   162          1
   163          7
   164          6
   165         39
   166          8
   167          3
   168          1
   178          2
   179          1
   181         25
   182          4
   183          1
   184          1
   195          3
   196          1
   209          1
   210         19
   211          3
   224          1
   255         29
   256          5
   257          1