##TITLE=Library Entry 11150
##JCAMP-DX=Revision 4.10 
##DATA TYPE=MASS SPECTRUM
##SAMPLE DESCRIPTION=NIST Mass Spectrometry Data Center
##NAMES=HP
##CAS NAME=2-(Diacetoxymethyl)-5-nitrofuran
##MOLFORM=C9H9NO7
##CAS REGISTRY NO=92-55-7
##MP= -300
##BP= -300
##MW= 243
##$RETENTION INDEX=0
##$CONDENSED SPECTRUM=NO
##NPOINTS= 69
##XYDATA=(XY..XY) 1 
    15          4
    26          2
    27          5
    29          8
    30         20
    37          6
    38         31
    39         37
    40          5
    41          4
    42         22
    43        999
    44         26
    45          7
    46          1
    49          1
    50          7
    51         11
    52          9
    53          6
    54         12
    55         44
    56          5
    60          3
    61          3
    65          1
    66         20
    67          4
    68         29
    69          1
    70          1
    72          1
    79          1
    80          8
    81          1
    82         20
    83        142
    84         23
    85          3
    90         22
    93          1
    94         10
    95          5
    96         65
    97          4
    98          1
    99          1
   100          2
   103          2
   111        349
   112         39
   113         23
   114         10
   123          1
   124         18
   125         16
   126          4
   129          1
   130          2
   140         13
   141         53
   142         22
   143          2
   156          8
   158          1
   171         12
   172          1
   184         20
   185          1