##TITLE=Library Entry 63671
##JCAMP-DX=Revision 4.10 
##DATA TYPE=MASS SPECTRUM
##SAMPLE DESCRIPTION=Japan AIST/NIMC Database- Spectrum MS-NW-8491
##NAMES=HP
##CAS NAME=Benzenemethanamine, N-ethyl-N-phenyl-
##MOLFORM=C15H17N
##CAS REGISTRY NO=92-59-1
##MP= -300
##BP= -300
##MW= 211
##$RETENTION INDEX=1728
##$CONDENSED SPECTRUM=NO
##NPOINTS= 74
##XYDATA=(XY..XY) 1 
    15          2
    26          1
    27         17
    28         10
    29         17
    30          2
    38          4
    39         42
    40          4
    41         13
    42          6
    44          4
    50         11
    51         72
    52         12
    53          3
    54          1
    62          3
    63         19
    64          9
    65        109
    66          7
    74          2
    75          4
    76          7
    77        164
    78         23
    79         16
    80          1
    89         14
    90          8
    91        999
    92         84
    93          5
    94          1
   102          1
   103          5
   104         57
   105         19
   106         45
   107          3
   115          3
   116          1
   117          2
   118         11
   119          8
   120         16
   121          2
   127          2
   128          2
   132          1
   134         75
   135          8
   151          2
   152          6
   153          3
   154          6
   155          2
   165          4
   166          2
   167          3
   180         15
   181          4
   182         11
   183          2
   194          2
   196        169
   197         26
   198          2
   208          1
   210         15
   211        226
   212         38
   213          3