##TITLE=Library Entry 80528
##JCAMP-DX=Revision 4.10 
##DATA TYPE=MASS SPECTRUM
##SAMPLE DESCRIPTION=RADIAN CORP
##NAMES=HP
##CAS NAME=Morpholine, 4-phenyl-
##MOLFORM=C10H13NO
##CAS REGISTRY NO=92-53-5
##MP= -300
##BP= -300
##MW= 163
##$RETENTION INDEX=0
##$CONDENSED SPECTRUM=NO
##NPOINTS= 71
##XYDATA=(XY..XY) 1 
    15          6
    26          9
    27         30
    29         31
    30         10
    31         24
    33          2
    35          2
    37          4
    38          8
    39         24
    41         10
    42         13
    43         10
    45          3
    47          1
    50         28
    51        112
    52         22
    53          7
    54          9
    55          4
    56          9
    57         13
    60          1
    61          3
    62          5
    63         21
    64         12
    65         30
    66          3
    67          2
    72          3
    74         14
    75         14
    76         24
    77        369
    78         62
    79         19
    81          1
    82          1
    87          1
    89          7
    90          6
    91         56
    92          7
    93          1
   102          4
   103          4
   104        516
   105        999
   106        129
   107          2
   115          4
   116          3
   117         18
   118         11
   119          7
   120          3
   130          8
   131          5
   132         45
   133         14
   134          6
   148          4
   160          2
   161         11
   162         35
   163        327
   164         46
   165          2