##TITLE=Library Entry 51462
##JCAMP-DX=Revision 4.10 
##DATA TYPE=MASS SPECTRUM
##SAMPLE DESCRIPTION=Japan AIST/NIMC Database- Spectrum MS-NW-2803
##NAMES=HP
##CAS NAME=1,1'-Bicyclohexyl
##MOLFORM=C12H22
##CAS REGISTRY NO=92-51-3
##MP= -300
##BP= -300
##MW= 166
##$RETENTION INDEX=1302
##$CONDENSED SPECTRUM=NO
##NPOINTS= 60
##XYDATA=(XY..XY) 1 
    14          1
    15          2
    26          1
    27         37
    28         11
    29         45
    38          1
    39         54
    40          8
    41        203
    42         15
    43         18
    50          2
    51          7
    52          4
    53         30
    54         90
    55        405
    56         21
    57          3
    63          2
    65          9
    66          9
    67        381
    68         35
    69         28
    70          2
    77         11
    78          3
    79         19
    80          7
    81         73
    82        999
    83        523
    84         33
    85          1
    91          4
    93          4
    94          1
    95         19
    96         39
    97         10
   106          4
   107          2
   108          2
   109         27
   110          5
   120          4
   121          1
   122          1
   123          2
   124          3
   137          1
   138          2
   162          9
   163          1
   165          1
   166        170
   167         21
   168          1