##TITLE=Library Entry 34084
##JCAMP-DX=Revision 4.10 
##DATA TYPE=MASS SPECTRUM
##SAMPLE DESCRIPTION=Japan AIST/NIMC Database- Spectrum MS-IW-3680
##NAMES=HP
##CAS NAME=Methacryloyl chloride
##MOLFORM=C4H5ClO
##CAS REGISTRY NO=920-46-7
##MP= -300
##BP= -300
##MW= 104
##$RETENTION INDEX=0
##$CONDENSED SPECTRUM=NO
##NPOINTS= 64
##XYDATA=(XY..XY) 1 
    12          1
    13          1
    14          4
    15         12
    24          2
    25         13
    26         38
    27         26
    28         31
    29          5
    32          4
    33          1
    34          2
    35         12
    36         28
    37         78
    38        115
    39        589
    40         90
    41        754
    42         33
    43         41
    44          1
    47          4
    48          3
    49         16
    50         12
    51         11
    52          4
    53         28
    54          6
    55          9
    56          1
    58          1
    60          2
    61          6
    62          2
    63         36
    64          2
    65         10
    66          2
    67          5
    68          4
    69        999
    70         59
    71          5
    72          2
    73          4
    74          1
    75         11
    76         85
    77         27
    78         29
    79         13
    80          2
    87          2
    89         14
    91          5
   102          1
   103          2
   104          2
   105         18
   106          1
   107          6