##TITLE=Library Entry 18201
##JCAMP-DX=Revision 4.10 
##DATA TYPE=MASS SPECTRUM
##SAMPLE DESCRIPTION=NIST Mass Spectrometry Data Center, 1998.
##NAMES=HP
##CAS NAME=2-Propanol, 1,1,1,3,3,3-hexafluoro-
##MOLFORM=C3H2F6O
##CAS REGISTRY NO=920-66-1
##MP= -300
##BP= -300
##MW= 168
##$RETENTION INDEX=0
##$CONDENSED SPECTRUM=NO
##NPOINTS= 65
##XYDATA=(XY..XY) 1 
    19          1
    24          1
    25          1
    29        313
    30         20
    31         82
    32         37
    33          5
    40          1
    41          1
    43          4
    44         16
    47         22
    48          4
    49        557
    50        132
    51        999
    52         16
    55          2
    56          1
    60         50
    61          3
    62          4
    63         29
    64          1
    65          1
    66          1
    67         35
    68          1
    69        651
    70         10
    71          6
    74          5
    75          5
    78         68
    79        666
    80        148
    81         17
    82         28
    83          2
    91          1
    93         19
    94          1
    97         20
    99        924
   100         40
   101        363
   102          8
   109          4
   112          1
   113         25
   114          1
   117          2
   119          3
   128          8
   129        576
   130         22
   131          2
   132          3
   147         10
   149         96
   150          4
   151          1
   168          1
   169          1