##TITLE=Library Entry 18310
##JCAMP-DX=Revision 4.10 
##DATA TYPE=MASS SPECTRUM
##SAMPLE DESCRIPTION=Japan AIST/NIMC Database- Spectrum MS-NW- 829
##NAMES=HP
##CAS NAME=2-Propenenitrile, 2-chloro-
##MOLFORM=C3H2ClN
##CAS REGISTRY NO=920-37-6
##MP= -300
##BP= -300
##MW= 87
##$RETENTION INDEX=0
##$CONDENSED SPECTRUM=NO
##NPOINTS= 44
##XYDATA=(XY..XY) 1 
    12          7
    13          2
    14          1
    24         16
    25         45
    26        126
    27          5
    28          7
    35         28
    36         15
    37         23
    38         28
    39          1
    40          1
    47         17
    48          2
    49         25
    50         50
    51        297
    52        999
    53         34
    55          1
    56          2
    59          5
    60        109
    61         27
    62         39
    63          8
    64          1
    70          2
    71          1
    73          2
    75          1
    76          1
    77          1
    83          1
    84          1
    85          2
    86         24
    87        916
    88         52
    89        299
    90         12
    91          1