##TITLE=Library Entry 52910
##JCAMP-DX=Revision 4.10 
##DATA TYPE=MASS SPECTRUM
##SAMPLE DESCRIPTION=Chemical Concepts
##NAMES=HP
##CAS NAME=Cyclopentanepropanoic acid, 3-oxo-, ethyl ester
##MOLFORM=C10H16O3
##CAS REGISTRY NO=92015-98-0
##MP= -300
##BP= -300
##MW= 184
##$RETENTION INDEX=0
##$CONDENSED SPECTRUM=NO
##NPOINTS= 86
##XYDATA=(XY..XY) 1 
    27        157
    28        123
    29        302
    30         11
    31          9
    38          8
    39        138
    40         32
    41        232
    42         55
    43        103
    44         11
    45         66
    50         11
    51         18
    52         12
    53         83
    54         91
    55        509
    56        106
    57         41
    58         22
    59         12
    60        185
    61        220
    62          8
    65         16
    66          9
    67         96
    68         71
    69        127
    70        131
    71         31
    73         90
    74         45
    75         12
    77         17
    78         19
    79         36
    80          8
    81         78
    82        186
    83        999
    84         74
    85         38
    86          7
    87          8
    88        256
    89         76
    91         41
    92         30
    93         72
    94         14
    95         78
    96        869
    97        192
    98         15
    99         29
   100         16
   101         61
   102         34
   103         11
   109         48
   110         79
   111         78
   112         11
   113          9
   120         10
   121         44
   122          7
   127         16
   128         22
   129         11
   137         24
   138         32
   139        465
   140         47
   141          9
   149         13
   155         15
   156         15
   165          7
   166         59
   167         12
   184         34
   185          8