##TITLE=Library Entry 8660
##JCAMP-DX=Revision 4.10 
##DATA TYPE=MASS SPECTRUM
##SAMPLE DESCRIPTION=Chemical Concepts
##NAMES=HP
##CAS NAME=m-Dioxan-4-ol, 2,6-diethyl-5-methyl-, acetate
##MOLFORM=C11H20O4
##CAS REGISTRY NO=92017-16-8
##MP= -300
##BP= -300
##MW= 216
##$RETENTION INDEX=0
##$CONDENSED SPECTRUM=NO
##NPOINTS= 102
##XYDATA=(XY..XY) 1 
    25          1
    26         12
    27         91
    28         40
    29        142
    30         13
    31         74
    32          3
    36          0
    37          2
    38          4
    39         70
    40          9
    41        168
    42        102
    43        999
    44         23
    45         39
    46          0
    47          2
    50          2
    51          3
    52          1
    53         17
    54          8
    55        194
    56         17
    57        126
    58        139
    59         87
    60         19
    61          7
    62          0
    63          0
    65          2
    66          1
    67          8
    68          5
    69         58
    70        490
    71         39
    72          3
    73          0
    74          0
    75         12
    76          0
    77          1
    78          0
    79          5
    80          1
    81         18
    82          2
    83         19
    84          1
    85          4
    86          2
    87          2
    89         19
    90          0
    91          0
    94          1
    95          1
    96          0
    97         20
    98         30
    99        152
   100        128
   101         57
   102          3
   103          0
   109          1
   110         11
   111          1
   112         19
   113          1
   115          5
   116          0
   117          0
   119          2
   127          3
   128          2
   129         10
   130          0
   138          0
   141         65
   142          5
   143          0
   145         17
   146          1
   147          7
   148          0
   155          2
   156          9
   157          7
   158          3
   159          0
   173          7
   174          0
   187         13
   188          1
   215          5
   216          0