##TITLE=Library Entry 35464
##JCAMP-DX=Revision 4.10 
##DATA TYPE=MASS SPECTRUM
##SAMPLE DESCRIPTION=Chemical Concepts
##NAMES=HP
##CAS NAME=Bicyclo[2.1.1]hexane-5-carboxylic acid, 1,6,6-trimethyl-
##MOLFORM=C10H16O2
##CAS REGISTRY NO=92015-51-5
##MP= -300
##BP= -300
##MW= 168
##$RETENTION INDEX=0
##$CONDENSED SPECTRUM=NO
##NPOINTS= 95
##XYDATA=(XY..XY) 1 
    26          3
    27         92
    28         11
    29         69
    30          3
    31          7
    38          3
    39        137
    40         19
    41        490
    42         28
    43         94
    44         10
    45         15
    50          8
    51         29
    52         13
    53         81
    54         15
    55        372
    56         30
    57         43
    58          5
    59         30
    60          6
    62          2
    63          9
    64          4
    65         35
    66         14
    67        105
    68         33
    69        999
    70         83
    71         16
    73          5
    77         60
    78         12
    79         88
    80         11
    81        126
    82         75
    83        784
    84         64
    85         23
    86         52
    87          3
    91         60
    92          8
    93         51
    94         14
    95         32
    96         16
    97         21
    98          5
    99          4
   100        277
   101         19
   102          3
   103          2
   105         14
   106          7
   107         84
   108         78
   109         29
   110          7
   111         48
   112         41
   113         18
   114          6
   115          2
   119          2
   121          8
   122         30
   123        191
   124         35
   125        156
   126         25
   127          8
   128          2
   129          2
   135         19
   136          3
   137          2
   138          1
   139         18
   140          5
   149          4
   150         13
   151          6
   153        120
   154         11
   167          1
   168          3
   169          0