##TITLE=Library Entry 64355
##JCAMP-DX=Revision 4.10 
##DATA TYPE=MASS SPECTRUM
##SAMPLE DESCRIPTION=Japan AIST/NIMC Database- Spectrum MS-IW-5800
##NAMES=HP
##CAS NAME=4'-Bromo-3-methylazobenzene
##MOLFORM=C13H11BrN2
##CAS REGISTRY NO=92022-24-7
##MP= -300
##BP= -300
##MW= 274
##$RETENTION INDEX=0
##$CONDENSED SPECTRUM=NO
##NPOINTS= 87
##XYDATA=(XY..XY) 1 
    26          1
    27          4
    28          2
    37          3
    38          8
    39         40
    40          3
    41         14
    50         39
    51         23
    52          9
    53          2
    61          2
    62          8
    63         35
    64         13
    65        158
    66          9
    73          1
    74         10
    75         74
    76         90
    77         16
    78          6
    79          2
    80          1
    82          1
    87          1
    88          2
    89         28
    90         24
    91        999
    92         86
    93          2
   102          1
   103          1
   104          7
   105          1
   106          2
   107          2
   115          4
   119        333
   120         27
   121          1
   126          1
   127          1
   128          4
   129          2
   131          2
   137          2
   138          3
   139          3
   140          1
   141          2
   150          1
   151          5
   152         45
   153          6
   154          1
   155        354
   156         24
   157        344
   158         22
   163          1
   164          3
   165         55
   166         26
   167         12
   168          1
   169          1
   171          3
   173          2
   183        159
   184         10
   185        153
   186          9
   193          1
   194          1
   245          4
   246          3
   247          4
   248          2
   274        478
   275         73
   276        470
   277         73
   278          6