##TITLE=Library Entry 64354
##JCAMP-DX=Revision 4.10 
##DATA TYPE=MASS SPECTRUM
##SAMPLE DESCRIPTION=Japan AIST/NIMC Database- Spectrum MS-IW-5799
##NAMES=HP
##CAS NAME=4'-Bromo-2-methylazobenzene
##MOLFORM=C13H11BrN2
##CAS REGISTRY NO=92022-22-5
##MP= -300
##BP= -300
##MW= 274
##$RETENTION INDEX=0
##$CONDENSED SPECTRUM=NO
##NPOINTS= 101
##XYDATA=(XY..XY) 1 
    26          1
    27          4
    28          3
    37          2
    38          6
    39         39
    40          3
    41         12
    50         35
    51         28
    52         10
    53          2
    61          2
    62          6
    63         33
    64         14
    65        159
    66          9
    73          1
    74          9
    75         61
    76         73
    77         23
    78         13
    79          4
    80          1
    82          1
    83          2
    84          1
    87          1
    88          1
    89         27
    90         21
    91        999
    92         93
    93          4
    96          1
    97          5
   102          2
   103          3
   104          9
   105          1
   106          4
   107          2
   115          3
   116          1
   117          1
   118          2
   119        230
   120         19
   127          1
   128          3
   129          2
   131          2
   137          5
   138          6
   139          2
   140          1
   141          2
   143          1
   145          1
   151          3
   152         29
   153          4
   154          1
   155        273
   156         18
   157        268
   158         17
   163          1
   164          3
   165         42
   166         20
   167         13
   168          3
   169          1
   170          1
   171          4
   173          2
   179          1
   183         94
   184          7
   185         90
   186          6
   192          1
   193          5
   194         20
   195        101
   196         14
   197          1
   245          1
   247          1
   257          1
   258          1
   259          1
   273         56
   274        441
   275        121
   276        436
   277         63
   278          5