##TITLE=Library Entry 64352
##JCAMP-DX=Revision 4.10 
##DATA TYPE=MASS SPECTRUM
##SAMPLE DESCRIPTION=Japan AIST/NIMC Database- Spectrum MS-IW-5774
##NAMES=HP
##CAS NAME=2-Bromo-3'-methylazobenzene
##MOLFORM=C13H11BrN2
##CAS REGISTRY NO=92022-17-8
##MP= -300
##BP= -300
##MW= 274
##$RETENTION INDEX=0
##$CONDENSED SPECTRUM=NO
##NPOINTS= 86
##XYDATA=(XY..XY) 1 
    26          1
    27          5
    28          2
    37          2
    38          9
    39         53
    40          5
    41         16
    49          1
    50         35
    51         26
    52         11
    53          3
    61          2
    62          8
    63         38
    64         15
    65        167
    66          9
    74          9
    75         55
    76         61
    77         14
    78          7
    79          2
    86          1
    87          2
    88          2
    89         35
    90         23
    91        999
    92         76
    93          2
   102          1
   103          1
   104          5
   105          1
   106          1
   107          1
   111          2
   113          1
   115          5
   119        327
   120         26
   126          1
   127          1
   128          5
   129          2
   131          1
   139          4
   140          1
   141          2
   151          6
   152         55
   153          8
   155        187
   156         13
   157        184
   158         12
   163          2
   164          4
   165         77
   166         33
   167         17
   168          2
   169          1
   170          9
   171          3
   172          9
   173          1
   183         58
   184          4
   185         58
   186          4
   194          2
   195          2
   230          3
   245          4
   246          2
   247          4
   248          2
   274        342
   275         51
   276        333
   277         53
   278          4