##TITLE=Library Entry 61710
##JCAMP-DX=Revision 4.10 
##DATA TYPE=MASS SPECTRUM
##SAMPLE DESCRIPTION=Japan AIST/NIMC Database- Spectrum MS-IW-5790
##NAMES=HP
##CAS NAME=3-Bromo-4'-methylazobenzene
##MOLFORM=C13H11BrN2
##CAS REGISTRY NO=92022-20-3
##MP= -300
##BP= -300
##MW= 274
##$RETENTION INDEX=0
##$CONDENSED SPECTRUM=NO
##NPOINTS= 76
##XYDATA=(XY..XY) 1 
    26          1
    27          4
    28          3
    37          1
    38          5
    39         35
    40          2
    41         12
    50         31
    51         23
    52         10
    53          2
    61          1
    62          6
    63         26
    64         10
    65        135
    66          8
    74          6
    75         46
    76         67
    77         18
    78         17
    79          2
    80          1
    87          1
    88          1
    89         23
    90         17
    91        999
    92         84
    93          3
   102          1
   103          1
   104          8
   105          2
   106          2
   107          1
   115          2
   119        391
   120         32
   121          1
   128          2
   129          1
   131          1
   137          1
   138          1
   139          2
   141          1
   151          3
   152         29
   153          4
   155        106
   156          8
   157        105
   158          7
   163          1
   164          2
   165         37
   166         14
   167          5
   170          1
   171          1
   172          1
   183         15
   184          1
   185         15
   186          1
   193          1
   245          3
   247          3
   274        256
   275         38
   276        249
   277         36
   278          3