##TITLE=Library Entry 64356
##JCAMP-DX=Revision 4.10 
##DATA TYPE=MASS SPECTRUM
##SAMPLE DESCRIPTION=Japan AIST/NIMC Database- Spectrum MS-IW-5801
##NAMES=HP
##CAS NAME=4-Bromo-4'-methylazobenzene
##MOLFORM=C13H11BrN2
##CAS REGISTRY NO=92022-25-8
##MP= -300
##BP= -300
##MW= 274
##$RETENTION INDEX=0
##$CONDENSED SPECTRUM=NO
##NPOINTS= 87
##XYDATA=(XY..XY) 1 
    26          1
    27          4
    28          4
    37          2
    38          6
    39         34
    40          3
    41         13
    50         34
    51         23
    52         10
    53          2
    61          1
    62          7
    63         29
    64         10
    65        144
    66          9
    73          2
    74          9
    75         61
    76         72
    77         19
    78         32
    79          3
    80          2
    82          1
    87          1
    88          1
    89         25
    90         22
    91        999
    92         88
    93          4
   102          1
   104          8
   105          2
   106          5
   107          3
   115          3
   119        454
   120         38
   121          1
   126          1
   127          1
   128          3
   129          1
   131          2
   137          7
   138          7
   139          2
   140          1
   141          1
   150          1
   151          3
   152         28
   153          4
   154          1
   155        242
   156         16
   157        236
   158         15
   163          1
   164          3
   165         42
   166         15
   167          6
   168          1
   169          1
   171          4
   173          3
   183         88
   184          6
   185         86
   186          5
   193          1
   194          1
   245          5
   246          1
   247          4
   248          1
   273          1
   274        505
   275         78
   276        489
   277         74
   278          5