##TITLE=Library Entry 47541
##JCAMP-DX=Revision 4.10 
##DATA TYPE=MASS SPECTRUM
##SAMPLE DESCRIPTION=A.Mazepa, Phys.-Chem.Institute, Odessa, Ukraine
##NAMES=HP
##CAS NAME=(2-Amino-5-bromo-phenyl)-phenyl-methanone oxime
##MOLFORM=C13H11BrN2O
##CAS REGISTRY NO=92022-27-0
##MP= -300
##BP= -300
##MW= 290
##$RETENTION INDEX=0
##$CONDENSED SPECTRUM=NO
##NPOINTS= 136
##XYDATA=(XY..XY) 1 
    50        183
    51        354
    52         99
    53          9
    55         20
    56         16
    57          8
    58          5
    61         11
    62         55
    63        238
    64        178
    65        193
    66         22
    72          7
    73          8
    74         57
    75        165
    76        291
    77        999
    78         82
    79          5
    80          4
    84         29
    85          4
    86         12
    87         23
    88         13
    89         25
    90        211
    91        414
    92        153
    93         10
    96         14
    97        243
    98         39
    99          4
   100          9
   101          7
   102         28
   103        208
   104        371
   105        230
   106        141
   107          4
   108          4
   113          2
   114          5
   115         32
   116         10
   117         27
   118         14
   119         22
   120         25
   121          3
   127          3
   128          4
   129          8
   130          2
   131          3
   141          4
   142          4
   143        101
   144         24
   145         71
   146          6
   151          6
   152          8
   153          6
   154          1
   155         69
   156          9
   157         62
   158          9
   164          5
   165          4
   166         24
   167         18
   168          5
   169         51
   170         69
   171        681
   172        118
   173        617
   174         49
   175          6
   176          1
   177          5
   178          6
   179         23
   180         27
   181         29
   182         10
   183         11
   184         10
   185          1
   186          4
   187         20
   188          2
   189         15
   190          2
   191          4
   192         44
   193         55
   194        482
   195        289
   196         24
   197          4
   198          9
   199          3
   210         11
   211          4
   256          4
   257          6
   258        182
   259         41
   260        181
   261         26
   262          3
   270          2
   271          5
   272        365
   273        121
   274        401
   275        149
   276         50
   277         37
   278          5
   287          1
   288          3
   289         28
   290        491
   291        107
   292        495
   293         75
   294          6