##TITLE=Library Entry 62664
##JCAMP-DX=Revision 4.10 
##DATA TYPE=MASS SPECTRUM
##SAMPLE DESCRIPTION=Chemical Concepts
##NAMES=HP
##CAS NAME=1H-Pyrrole-2-carboxylic acid, 2,5-dihydro-2-methyl-1-[(4-methylph
enyl)sulfonyl]-4-[[(4-methylphenyl)sulfonyl]amino]-5-oxo-, ethyl ester, (.+-
.)-
##MOLFORM=C22H24N2O7S2
##CAS REGISTRY NO=92050-22-1
##MP= -300
##BP= -300
##MW= 492
##$RETENTION INDEX=0
##$CONDENSED SPECTRUM=NO
##NPOINTS= 57
##XYDATA=(XY..XY) 1 
    27         32
    28         11
    29        110
    39         75
    40         13
    41         34
    42         33
    43         13
    51         23
    54         20
    63         33
    64         12
    65        179
    66        100
    67         16
    68         13
    77         17
    79          9
    82          6
    89         37
    90         35
    91        999
    92        149
    93          9
    94         13
   107         15
   108         10
   109        242
   110         24
   111         16
   123          5
   132         10
   139         97
   140         14
   141          6
   149          5
   155        771
   156         76
   157         44
   183         16
   185         21
   199          8
   200         14
   265        229
   266         33
   267         14
   278          7
   290          7
   292         16
   337        417
   338         79
   339         30
   419        333
   420         82
   421         42
   492         30
   493          8