##TITLE=Library Entry 23918
##JCAMP-DX=Revision 4.10 
##DATA TYPE=MASS SPECTRUM
##SAMPLE DESCRIPTION=Japan AIST/NIMC Database- Spectrum MS-IW-4112
##NAMES=HP
##CAS NAME=2,3-Pentanedione 2-((3-ethyl-4-methyl-5-isoxazolyl)hydrazone) 3-o
xime
##MOLFORM=C11H18N4O2
##CAS REGISTRY NO=92059-14-8
##MP= -300
##BP= -300
##MW= 238
##$RETENTION INDEX=0
##$CONDENSED SPECTRUM=NO
##NPOINTS= 158
##XYDATA=(XY..XY) 1 
    14          3
    15         35
    16          3
    17         42
    18          3
    25          2
    26         36
    27        170
    28        267
    29        232
    30         38
    31          7
    37          2
    38         13
    39        127
    40         47
    41        307
    42        737
    43        204
    44         84
    45          9
    46          3
    50          3
    51         14
    52         39
    53         83
    54        173
    55        178
    56        471
    57        999
    58         58
    59          7
    60          5
    63          3
    64          3
    65         18
    66         39
    67        159
    68        116
    69         89
    70         60
    71         38
    72        119
    73          8
    77         74
    78          9
    79          9
    80         83
    81         49
    82        670
    83        160
    84         78
    85         47
    86          5
    87          2
    91          4
    92          3
    93         32
    94        187
    95         55
    96         71
    97        227
    98        180
    99         25
   100         27
   101          8
   105          3
   106          3
   107          9
   108         18
   109         45
   110        241
   111        106
   112        415
   113         54
   114        111
   115         24
   116          3
   117          2
   119          8
   120          5
   121         14
   122         14
   123         45
   124         93
   125        174
   126         82
   127         27
   128         45
   129         13
   131          2
   132          2
   133          4
   134          7
   135         14
   136         32
   137         81
   138         41
   139         31
   140         14
   141         11
   142          3
   145          8
   147          5
   148          7
   149         18
   150         21
   151         21
   152         37
   153         31
   154         14
   155         10
   156          6
   161          4
   162          5
   163         14
   164         11
   165        400
   166        100
   167         19
   168          9
   169         11
   173          2
   174          3
   175          5
   176          7
   177         10
   178         11
   179          5
   180          9
   181          5
   183          3
   185          5
   189         14
   190          4
   191         12
   192         13
   193         18
   194          6
   203          6
   204         10
   205          9
   206         16
   207         20
   208          4
   209          6
   210          2
   219         29
   220         17
   221        201
   222         39
   223         10
   224          2
   236         12
   237          5
   238        555
   239         84
   240         13