##TITLE=Library Entry 30363
##JCAMP-DX=Revision 4.10 
##DATA TYPE=MASS SPECTRUM
##SAMPLE DESCRIPTION=ATLAS OF MASS SPECTRA OF ORGANIC COMPOUNDS, V. A. KOPTY
UG, ED.
##NAMES=HP
##CAS NAME=Hydrazine, 1,1-bis(1-methylethyl)-
##MOLFORM=C6H16N2
##CAS REGISTRY NO=921-14-2
##MP= -300
##BP= -300
##MW= 116
##$RETENTION INDEX=834
##$CONDENSED SPECTRUM=NO
##NPOINTS= 25
##XYDATA=(XY..XY) 1 
    27        144
    28         87
    29         52
    30         64
    31         39
    39         78
    40         17
    41        165
    42        261
    43        211
    44         73
    54         10
    55         14
    56        193
    57         36
    58         49
    59        999
    60         36
    70          9
    73         43
    84         14
   101        389
   102         27
   116        190
   117         22