##TITLE=Library Entry 6203
##JCAMP-DX=Revision 4.10 
##DATA TYPE=MASS SPECTRUM
##SAMPLE DESCRIPTION=Exported from NIST MS Search
##NAMES=HP
##CAS NAME=Hexane, 2,3,4-trimethyl-
##MOLFORM=C9H20
##CAS REGISTRY NO=921-47-1
##MP= -300
##BP= -300
##MW= 128
##$RETENTION INDEX=849
##$CONDENSED SPECTRUM=NO
##NPOINTS= 57
##XYDATA=(XY..XY) 1 
    25          1
    26         12
    27        236
    28         38
    29        248
    30          5
    37          2
    38          5
    39        117
    40         19
    41        316
    42         46
    43        999
    44         33
    45          1
    49          1
    50          3
    51          8
    52          4
    53         27
    54          8
    55        131
    56        108
    57        297
    58         13
    59          1
    62          1
    63          1
    64          1
    65          3
    66          1
    67          7
    68          2
    69         51
    70        190
    71        311
    72         17
    73          1
    77          2
    78          2
    79          1
    80          1
    81          1
    82          1
    83          8
    84        132
    85        289
    86         18
    87          1
    91          1
    97          1
    98          1
    99          5
   100          1
   113          1
   128          2
   129          1