##TITLE=Library Entry 39671
##JCAMP-DX=Revision 4.10 
##DATA TYPE=MASS SPECTRUM
##SAMPLE DESCRIPTION=CARL DJERASSI DEPT OF CHEM STANFORD UNIV STANFORD CALIF
 94305
##NAMES=HP
##CAS NAME=2-Butanamine, N,N-dimethyl-
##MOLFORM=C6H15N
##CAS REGISTRY NO=921-04-0
##MP= -300
##BP= -300
##MW= 101
##$RETENTION INDEX=700
##$CONDENSED SPECTRUM=NO
##NPOINTS= 20
##XYDATA=(XY..XY) 1 
    41         60
    42        180
    43         30
    44        150
    45         10
    54         10
    55         20
    56         90
    57         30
    58         20
    70         60
    71         80
    72        999
    73         50
    84         20
    85         10
    86        170
    87         10
   100         10
   101         50