##TITLE=Library Entry 40628
##JCAMP-DX=Revision 4.10 
##DATA TYPE=MASS SPECTRUM
##SAMPLE DESCRIPTION=LAC, NIDDK, NIH, Bethesda, MD 20892
##NAMES=HP
##CAS NAME=L-Glucose
##MOLFORM=C6H12O6
##CAS REGISTRY NO=921-60-8
##MP= -300
##BP= -300
##MW= 180
##$RETENTION INDEX=0
##$CONDENSED SPECTRUM=NO
##NPOINTS= 122
##XYDATA=(XY..XY) 1 
    41        112
    42        276
    43        813
    44        385
    45        326
    46         52
    47         46
    48          3
    49         34
    50          6
    51          9
    52          6
    53         23
    54         33
    55        171
    56        144
    57        289
    58         78
    59         70
    60        593
    61        376
    62         34
    63          6
    64          4
    65          4
    66          3
    67          8
    68         27
    69         93
    70         40
    71        227
    72        145
    73        999
    74        141
    75         22
    76         15
    77         40
    78         25
    79         11
    80          1
    81         11
    82          8
    83         23
    84         28
    85        121
    86        133
    87         47
    88         12
    89         44
    90         40
    91         49
    92          2
    93          3
    94          3
    95          8
    96          6
    97         45
    98         32
    99         16
   100         10
   101         61
   102         83
   103        140
   104         17
   105         15
   106         18
   107         13
   108          2
   109          5
   110          4
   111          8
   112          6
   113         22
   114         13
   115         26
   116         17
   117          6
   118          2
   119         75
   120          8
   121          9
   122          2
   123          3
   124         16
   125          5
   126         11
   127         15
   128          7
   129          6
   130          2
   131         59
   132         11
   133         25
   134          3
   135          2
   136          1
   137          2
   138          0
   139          3
   140          3
   141          2
   142          1
   143          4
   144         28
   145         19
   146          2
   147          7
   148          1
   149         73
   150          6
   151          2
   153          0
   154          1
   155          1
   156          1
   157          1
   159          1
   161          1
   162          2
   163         22
   164          2
   180          1