##TITLE=Library Entry 23924
##JCAMP-DX=Revision 4.10 
##DATA TYPE=MASS SPECTRUM
##SAMPLE DESCRIPTION=D.F. MAGIN, PHILIP MORRIS RES. CENT., RICHMOND, VA., US
A
##NAMES=HP
##CAS NAME=3-(1-Methyl-3-pyrrolidinyl)pyridine
##MOLFORM=C10H14N2
##CAS REGISTRY NO=92118-22-4
##MP= -300
##BP= -300
##MW= 162
##$RETENTION INDEX=0
##$CONDENSED SPECTRUM=NO
##NPOINTS= 22
##XYDATA=(XY..XY) 1 
    42        220
    51         30
    55          7
    57        999
    70          2
    77         17
    78         14
    80         11
    82         10
    84          2
    92         14
    93          6
   106          5
   117         25
   118         38
   119         72
   130         13
   133          3
   134          1
   158          4
   161         37
   162        140