##TITLE=Library Entry 88606
##JCAMP-DX=Revision 4.10 
##DATA TYPE=MASS SPECTRUM
##SAMPLE DESCRIPTION=ASES Database, Dalian Institute, P.R. China
##NAMES=HP
##CAS NAME=7-tert-Butyl-3,4,5,6(2H)-tetrahydroazepine
##MOLFORM=C10H19N
##CAS REGISTRY NO=92144-55-3
##MP= -300
##BP= -300
##MW= 153
##$RETENTION INDEX=0
##$CONDENSED SPECTRUM=NO
##NPOINTS= 23
##XYDATA=(XY..XY) 1 
    41        272
    42        101
    54        168
    55        218
    57        258
    68        141
    69        288
    82        150
    83         89
    84         99
    96        696
    97         98
   110        348
   111        999
   112         78
   124        280
   125        398
   126         39
   138        699
   139         80
   152         59
   153        149
   154         19