##TITLE=Library Entry 64002
##JCAMP-DX=Revision 4.10 
##DATA TYPE=MASS SPECTRUM
##SAMPLE DESCRIPTION=Japan AIST/NIMC Database- Spectrum MS-IW-5804
##NAMES=HP
##CAS NAME=2'-Methylazobenzene-4-carboxylic acid
##MOLFORM=C14H12N2O2
##CAS REGISTRY NO=92148-94-2
##MP= -300
##BP= -300
##MW= 240
##$RETENTION INDEX=0
##$CONDENSED SPECTRUM=NO
##NPOINTS= 115
##XYDATA=(XY..XY) 1 
    17          8
    18          1
    26          1
    27          8
    28         11
    37          1
    38          5
    39         49
    40          4
    41         12
    42          1
    43          2
    44          8
    45          4
    50         17
    51         33
    52          9
    53          5
    54          1
    55          1
    57          2
    61          1
    62          5
    63         24
    64         10
    65        252
    66         15
    67          1
    69          1
    71          1
    74          5
    75         15
    76         31
    77         20
    78         10
    79          5
    80          1
    81          1
    83          2
    85          1
    87          1
    88          1
    89         22
    90         12
    91        999
    92        101
    93         23
    94          2
    95          1
    96          1
    97          3
   102          2
   103         12
   104         73
   105          9
   106         23
   107         16
   108          2
   111          3
   115          3
   116          1
   117          1
   118          7
   119        220
   120         25
   121        257
   122         21
   123          2
   127          1
   128          4
   129          1
   130          1
   137          9
   138          1
   139          2
   140          1
   141          2
   149         32
   150          3
   151          3
   152         18
   153          4
   154          1
   155          1
   163          1
   164          2
   165         26
   166         12
   167         17
   168          4
   169          1
   178          1
   179          5
   180          2
   181          1
   192          3
   193          6
   194         14
   195         32
   196         10
   197          2
   198          1
   211          3
   212          2
   219          1
   221          2
   222          1
   223          6
   224          2
   238          5
   239         53
   240        660
   241        107
   242         13
   243          1