##TITLE=Library Entry 19669
##JCAMP-DX=Revision 4.10 
##DATA TYPE=MASS SPECTRUM
##SAMPLE DESCRIPTION=NIST Mass Spectrometry Data Center, 1990.
##NAMES=HP
##CAS NAME=6,10-Dimethyl-4-undecanol
##MOLFORM=C13H28O
##CAS REGISTRY NO=92153-95-2
##MP= -300
##BP= -300
##MW= 200
##$RETENTION INDEX=0
##$CONDENSED SPECTRUM=NO
##NPOINTS= 68
##XYDATA=(XY..XY) 1 
    14          1
    15         13
    16          7
    17          6
    18         25
    19          9
    27        230
    28         54
    29        290
    30          8
    31         96
    32          1
    39        147
    41        682
    42        179
    43        856
    44         67
    45         44
    51         10
    53         61
    55        999
    56        298
    57        783
    58        105
    59          9
    65         10
    67         57
    69        482
    70        166
    71        561
    72        114
    73        557
    74         24
    77         11
    79         12
    80          7
    81         87
    82          7
    83        605
    84        103
    85         58
    86         46
    87         43
    91          4
    95         28
    96         26
    97        189
    98         40
    99          9
   101         13
   109          6
   110         11
   111         54
   112        122
   113         80
   114          8
   124          4
   125          9
   126         44
   127         17
   128          6
   137         10
   139          7
   140         12
   155         10
   157        116
   158         14
   182         16