##TITLE=Library Entry 96798
##JCAMP-DX=Revision 4.10 
##DATA TYPE=MASS SPECTRUM
##SAMPLE DESCRIPTION=NIST Mass Spectrometry Data Center
##NAMES=HP
##CAS NAME=4-Phenoxyphenylacetonitrile
##MOLFORM=C14H11NO
##CAS REGISTRY NO=92163-15-0
##MP= -300
##BP= -300
##MW= 209
##$RETENTION INDEX=0
##$CONDENSED SPECTRUM=NO
##NPOINTS= 107
##XYDATA=(XY..XY) 1 
    12          2
    14          2
    15          1
    16          1
    17          3
    18         15
    21          1
    26         20
    27         69
    28         38
    29          4
    32          2
    37         18
    38         70
    39        261
    40         35
    41         18
    42          2
    44          3
    50        190
    51        555
    52         64
    53         19
    54          3
    55         13
    56          1
    58          5
    61         14
    62         54
    63        172
    64         65
    65        107
    66         23
    67          1
    68          3
    69          3
    71          7
    73          7
    74         43
    75         46
    76        118
    77        483
    78        185
    79         14
    82          2
    84          2
    85          3
    86          6
    87         13
    88         27
    89        172
    90         47
    91         55
    93          6
    94         22
    95          1
    99          1
   100          1
   101          4
   102         16
   103         38
   104         19
   105          7
   106          5
   107         11
   113          4
   114         16
   116        999
   117         93
   118          6
   126          6
   127         13
   128          9
   129          3
   130          2
   131          4
   132         18
   133          4
   139         27
   141        115
   142         17
   150          3
   151          8
   152         28
   153         44
   154         16
   155          6
   163          1
   164          2
   165          7
   166         11
   168         37
   169         43
   170          6
   177          2
   178          3
   180         48
   181         77
   182         14
   183          8
   184          1
   190          6
   191          2
   206          4
   209        669
   210        104
   211          8