##TITLE=Library Entry 67374
##JCAMP-DX=Revision 4.10 
##DATA TYPE=MASS SPECTRUM
##SAMPLE DESCRIPTION=Chemical Concepts
##NAMES=HP
##CAS NAME=2,5-Pyrrolidinedione, 3-(2-furanyl)-1-phenyl-
##MOLFORM=C14H11NO3
##CAS REGISTRY NO=92163-65-0
##MP= -300
##BP= -300
##MW= 241
##$RETENTION INDEX=0
##$CONDENSED SPECTRUM=NO
##NPOINTS= 103
##XYDATA=(XY..XY) 1 
    26          4
    27         19
    28          1
    29          7
    37          3
    38         18
    39        161
    40         40
    41          7
    42          3
    43          1
    44          0
    49          0
    50          9
    51         31
    52         14
    53          4
    54          3
    55         12
    56          0
    57          1
    61          0
    62          6
    63         41
    64         42
    65        180
    66        106
    67          7
    68          4
    69          0
    70          1
    71          0
    74          1
    75          2
    76          2
    77         24
    78          3
    79          2
    80          1
    81          7
    82          1
    83          0
    84          1
    85          0
    86          0
    88          0
    89          1
    90          3
    91         30
    92         19
    93         68
    94        999
    95         68
    96          4
    97          0
   102          0
   103          1
   104          1
   105          0
   106          1
   107          0
   108          1
   109          0
   110         31
   111          2
   115          1
   116          0
   117          0
   119         19
   120          4
   121        286
   122         27
   123          2
   127          0
   128          1
   129          1
   130          1
   141          0
   142          0
   144          0
   154          2
   155          0
   156          2
   157          0
   166          0
   167          0
   168          0
   170          1
   171          0
   172          0
   183          1
   184          1
   185          1
   195          0
   198          0
   212          2
   213         67
   214          8
   215          1
   239          2
   241         75
   242         13
   243          1