##TITLE=Library Entry 82598
##JCAMP-DX=Revision 4.10 
##DATA TYPE=MASS SPECTRUM
##SAMPLE DESCRIPTION=A.A.Kutin, Moscow, Russia
##NAMES=HP
##CAS NAME=Buten-3-one-1-(2-furyl)-, 3-pyridinoylhydrazone
##MOLFORM=C14H13N3O2
##CAS REGISTRY NO=92166-45-5
##MP= -300
##BP= -300
##MW= 255
##$RETENTION INDEX=0
##$CONDENSED SPECTRUM=NO
##NPOINTS= 146
##XYDATA=(XY..XY) 1 
    37          7
    38         35
    39        170
    40         26
    41         43
    42         71
    43         14
    44          4
    45          3
    49          9
    50        143
    51        480
    52        111
    53        176
    54         37
    55         21
    56          9
    57          7
    61          3
    62         22
    63         81
    64         47
    65        215
    66         45
    67         30
    68         70
    69          7
    71          0
    74          5
    75         15
    76         23
    77        138
    78        810
    79        332
    80        187
    81        105
    82         13
    83          3
    85          0
    86          1
    87          1
    88          0
    89         26
    90         22
    91        364
    92         66
    93         41
    94        237
    95         46
    96          2
    97          3
   101          0
   102          4
   103         10
   104         51
   105        130
   106        999
   107         97
   108         30
   109         11
   110          5
   115          1
   116          1
   117          3
   118          7
   119         69
   120         55
   121        318
   122         68
   123         35
   124          3
   128          1
   129          3
   130          5
   131         44
   132        133
   133        449
   134        374
   135         37
   136          5
   137          1
   141          0
   142          0
   143          1
   144          2
   145          2
   146          6
   147         13
   148         30
   149        667
   150         66
   151          6
   152          1
   154          2
   155          1
   156          2
   157          2
   158          3
   159          4
   160          4
   161          0
   162         20
   163          1
   167          2
   168          4
   169          3
   170          4
   171          3
   172          5
   173          5
   174          0
   177          3
   181          2
   182          2
   183          7
   184          7
   185          4
   186         12
   187          4
   188          4
   196          6
   197          7
   198          7
   199          2
   200          9
   201         15
   202          1
   208          1
   209          1
   210          8
   211          4
   212         15
   214        114
   215         16
   222          8
   226         22
   227          8
   228          1
   238          3
   239          0
   240         17
   241          2
   254         24
   255        489
   256         84
   257          9