##TITLE=Library Entry 66652
##JCAMP-DX=Revision 4.10 
##DATA TYPE=MASS SPECTRUM
##SAMPLE DESCRIPTION=Chemical Concepts
##NAMES=HP
##CAS NAME=2-(2,1,3-Benzothiadiazol-4-yl)acetanilide
##MOLFORM=C14H11N3OS
##CAS REGISTRY NO=92164-36-8
##MP= -300
##BP= -300
##MW= 269
##$RETENTION INDEX=0
##$CONDENSED SPECTRUM=NO
##NPOINTS= 125
##XYDATA=(XY..XY) 1 
    33         13
    34          3
    39        470
    41         77
    43         19
    45        136
    46         80
    47          9
    48          5
    51        267
    52         61
    53         15
    54          9
    55          3
    57         14
    58         14
    59          7
    60          7
    63        237
    64        167
    65        259
    66         66
    67          9
    69         23
    70         25
    71         15
    72          9
    74         17
    77        372
    78         45
    79          8
    80          4
    82          9
    83         10
    84          5
    85          3
    86          2
    87          4
    88         13
    90        144
    91        117
    93        999
    94         59
    95         20
    96         26
    97          9
    98          4
    99          2
   100          1
   102         16
   103         28
   105         82
   106         11
   107          2
   108          3
   109          7
   110          6
   111          1
   112          2
   113          1
   116         39
   117         30
   119         61
   120         71
   122        187
   123         49
   124         12
   125          5
   126          1
   127          1
   128          1
   129          1
   130          1
   132          1
   133          2
   135         12
   136          2
   137          2
   138          1
   139          1
   140          1
   142          1
   143          1
   144          1
   149        719
   150        839
   151        102
   152         43
   153          4
   154          1
   155          1
   162          1
   164          5
   165          1
   166          1
   167          1
   168          1
   171          1
   172          1
   173          3
   176        121
   177         12
   178          6
   179          2
   180          1
   181          1
   183          1
   192          1
   193          1
   194          1
   206          1
   207          1
   223          1
   224          1
   225          2
   226          1
   238          2
   239          2
   240          7
   241          2
   251          1
   269        385
   270         53
   271         17
   272          2