##TITLE=Library Entry 81475
##JCAMP-DX=Revision 4.10 
##DATA TYPE=MASS SPECTRUM
##SAMPLE DESCRIPTION=LAC, NIDDK, NIH, Bethesda, MD 20892
##NAMES=HP
##CAS NAME=N-Benzoyl-dl-3,4-dehydroprolylglycine
##MOLFORM=C14H14N2O4
##CAS REGISTRY NO=92192-23-9
##MP= -300
##BP= -300
##MW= 274
##$RETENTION INDEX=0
##$CONDENSED SPECTRUM=NO
##NPOINTS= 110
##XYDATA=(XY..XY) 1 
    41         26
    42          8
    43          1
    44         25
    45         15
    47          7
    49         38
    50         14
    51        118
    52         11
    53          4
    54          1
    56         48
    57          3
    58          4
    59          2
    60          1
    61          0
    62          1
    63          5
    65         13
    67         25
    68         43
    69          1
    70          1
    72          4
    74         30
    76         23
    77        384
    78         26
    79          1
    80          1
    81          2
    82          0
    88          3
    89          3
    91         28
    92          4
    94         10
    95          0
    96          2
    97          1
    98          0
    99          1
   101          1
   102          1
   105        999
   106         70
   107          1
   109          1
   110          1
   111          1
   112          0
   113          0
   115          5
   116          1
   117          2
   118          0
   121          2
   122          2
   124          3
   125          1
   127          1
   128          1
   129          0
   130          0
   132          0
   134          0
   135          1
   136          0
   139          3
   140          0
   141          1
   143          4
   144          0
   145          0
   148          0
   150          1
   152          0
   154          0
   155         12
   156          3
   157          0
   166          0
   168          1
   170          0
   171         24
   172        594
   173        117
   174          6
   175          0
   184          1
   198          1
   199          1
   200          4
   201          0
   205          1
   206          1
   208          0
   214          1
   222         22
   223          2
   224          1
   230          3
   239          0
   257          1
   270          0
   272          1
   274         11
   275          2