##TITLE=Library Entry 48083
##JCAMP-DX=Revision 4.10 
##DATA TYPE=MASS SPECTRUM
##SAMPLE DESCRIPTION=Exported from NIST MS Search
##NAMES=HP
##CAS NAME=Propanedinitrile, methylene-
##MOLFORM=C4H2N2
##CAS REGISTRY NO=922-64-5
##MP= -300
##BP= -300
##MW= 78
##$RETENTION INDEX=0
##$CONDENSED SPECTRUM=NO
##NPOINTS= 30
##XYDATA=(XY..XY) 1 
    14         47
    15          2
    16          1
    24         44
    25         75
    26        252
    27         18
    28         19
    29          3
    36         42
    37         58
    38        130
    39         15
    48          8
    49          3
    50        124
    51        774
    52        291
    53          6
    54          1
    62          9
    63          5
    64         11
    65          1
    75          2
    76         74
    77        489
    78        999
    79         50
    80          2