##TITLE=Library Entry 52077
##JCAMP-DX=Revision 4.10 
##DATA TYPE=MASS SPECTRUM
##SAMPLE DESCRIPTION=Chuck Anderson, Aldrich Chemical Co.
##NAMES=HP
##CAS NAME=1,4-Pentadien-3-ol
##MOLFORM=C5H8O
##CAS REGISTRY NO=922-65-6
##MP= -300
##BP= -300
##MW= 84
##$RETENTION INDEX=0
##$CONDENSED SPECTRUM=NO
##NPOINTS= 45
##XYDATA=(XY..XY) 1 
    15          3
    25          5
    26         66
    27        298
    28         84
    29        445
    30         21
    31        168
    32          6
    36          3
    37         37
    38         76
    39        416
    40        102
    41        293
    42        119
    43        160
    44         26
    45          8
    49          9
    50         35
    51         38
    52         16
    53         93
    54         38
    55        896
    56        324
    57        339
    58         17
    60          2
    61         13
    62         18
    63         24
    64          6
    65         98
    66         62
    67         55
    68          6
    69         73
    70          3
    81          9
    82         18
    83        999
    84         58
    85          3