##TITLE=Library Entry 7790
##JCAMP-DX=Revision 4.10 
##DATA TYPE=MASS SPECTRUM
##SAMPLE DESCRIPTION=Japan AIST/NIMC Database- Spectrum MS-NW-2802
##NAMES=HP
##CAS NAME=Heptane, 3,4-dimethyl-
##MOLFORM=C9H20
##CAS REGISTRY NO=922-28-1
##MP= -300
##BP= -300
##MW= 128
##$RETENTION INDEX=858
##$CONDENSED SPECTRUM=NO
##NPOINTS= 45
##XYDATA=(XY..XY) 1 
    15          5
    26          4
    27        118
    28         10
    29        223
    30          4
    38          3
    39         81
    40         10
    41        354
    42        111
    43        999
    44         32
    50          2
    51          6
    52          1
    53         21
    54          7
    55        222
    56        495
    57        751
    58         30
    65          2
    67          7
    68          3
    69         43
    70        601
    71        402
    72         21
    77          2
    81          2
    82          1
    83          7
    84         49
    85        192
    86         10
    95          1
    96          1
    97          2
    98         26
    99        104
   100          8
   113          4
   128         18
   129          2