##TITLE=Library Entry 20311
##JCAMP-DX=Revision 4.10 
##DATA TYPE=MASS SPECTRUM
##SAMPLE DESCRIPTION=DR GLENN PATTERSON
##NAMES=HP
##CAS NAME=Cholesta-5,22-dien-3-ol, (3.beta.)-
##MOLFORM=C27H44O
##CAS REGISTRY NO=92218-20-7
##MP= -300
##BP= -300
##MW= 384
##$RETENTION INDEX=3077
##$CONDENSED SPECTRUM=NO
##NPOINTS= 118
##XYDATA=(XY..XY) 1 
    39        100
    40         60
    41        490
    42         60
    43        430
    44         60
    53        100
    55        999
    56         90
    57        170
    67        400
    68        110
    69        749
    70         60
    73         50
    77        210
    78         50
    79        470
    80         70
    81        689
    82        190
    83        180
    91        480
    92        120
    93        480
    94        150
    95        609
    96        120
    97        110
   105        509
   106        140
   107        499
   108        120
   109        300
   110         60
   111        709
   112         60
   115         60
   117        230
   118         80
   119        330
   120        190
   121        300
   122         90
   123        210
   124         70
   128         60
   129        100
   130         60
   131        290
   132         70
   133        499
   134        140
   135        290
   136         60
   137         70
   138         80
   143        160
   144         70
   145        519
   146        160
   147        480
   148        100
   149        180
   151         60
   157        140
   158        150
   159        519
   160        130
   161        330
   162         80
   163        170
   171        110
   173        170
   174         60
   175        170
   176         70
   177         70
   185        100
   187        120
   189         80
   199        150
   201         80
   213        320
   214         80
   215        100
   227         80
   228         90
   229        120
   230         60
   231         80
   239         80
   241         90
   243         70
   245         90
   246         80
   253         90
   254         50
   255        599
   256        170
   257         60
   258         60
   267         90
   271        250
   272        160
   273        200
   282         90
   285        100
   298         80
   299         80
   300        350
   301         90
   351         90
   366        220
   367         70
   369         80
   384        280
   385         90