##TITLE=Library Entry 69063
##JCAMP-DX=Revision 4.10 
##DATA TYPE=MASS SPECTRUM
##SAMPLE DESCRIPTION=A.A.Kutin, Moscow, Russia
##NAMES=HP
##CAS NAME=2,4-Bis-(3,5-dimethyl-pyrazol-1-yl)-6-methoxy-[1,3,5]triazine
##MOLFORM=C14H17N7O
##CAS REGISTRY NO=92250-33-4
##MP= -300
##BP= -300
##MW= 299
##$RETENTION INDEX=0
##$CONDENSED SPECTRUM=NO
##NPOINTS= 186
##XYDATA=(XY..XY) 1 
    33          0
    34          0
    36          5
    39        499
    40         70
    41        219
    42        257
    43         35
    44         11
    45          1
    47          0
    51         51
    52         68
    53        144
    54        161
    55         82
    56         48
    57         31
    58         70
    60          1
    61          1
    62          2
    63         15
    65        162
    66        192
    67        156
    68         93
    69         69
    70         10
    71          3
    72          0
    73          2
    74          3
    75          0
    77          8
    78         24
    79         70
    80        186
    81         96
    82         82
    83         62
    84          4
    85          1
    87          4
    91         14
    92         20
    93         59
    95        999
    96        131
    97         52
    98          4
    99          2
   100          8
   102          3
   103          1
   104          3
   106        141
   107        101
   108         52
   109         37
   110          8
   111          3
   112          5
   113          3
   114          2
   115          0
   116          0
   117          4
   118          6
   120        135
   121         97
   122        145
   123         97
   124         15
   125          8
   126          4
   127          0
   128          2
   129          3
   130          1
   131          4
   132          8
   133         25
   134         44
   135         47
   136         57
   137         10
   138          5
   139          1
   142          9
   143          0
   144          2
   145         10
   146         36
   147         53
   148         51
   149         73
   150        107
   151          7
   152          0
   156          0
   157          1
   158          4
   159          7
   160         15
   161         26
   162         22
   163         61
   164         66
   165          9
   166          0
   170          0
   171          2
   172          3
   173          9
   174         19
   175         14
   176          4
   177          4
   178          1
   179          5
   180          1
   185          3
   186          7
   187          6
   188         40
   189         17
   190        100
   191         10
   192          2
   199          6
   200         12
   201         45
   202         21
   203         18
   204         26
   205          7
   206          3
   211          0
   212          1
   213          1
   214          3
   215          3
   216         13
   217          4
   218          4
   219          3
   220          1
   224          1
   225          3
   226          7
   227         34
   228          9
   229          4
   230          1
   231          1
   238          0
   240          4
   241         16
   242         46
   243         85
   244         11
   245          0
   251          0
   252          7
   253          1
   254          2
   255          5
   257         77
   258         18
   259          3
   265          0
   266          3
   267         11
   268         12
   269          3
   270          0
   271          0
   283         17
   284        559
   285         86
   286          7
   299        800
   300        111
   301         11
   302          0