##TITLE=Library Entry 75962
##JCAMP-DX=Revision 4.10 
##DATA TYPE=MASS SPECTRUM
##SAMPLE DESCRIPTION=NIST Mass Spectrometry Data Center, 2010
##NAMES=HP
##CAS NAME=Ethanamine, 2-methoxy-N-(2-methoxyethyl)-N-methyl-
##MOLFORM=C7H17NO2
##CAS REGISTRY NO=92260-33-8
##MP= -300
##BP= -300
##MW= 147
##$RETENTION INDEX=1040
##$CONDENSED SPECTRUM=NO
##NPOINTS= 50
##XYDATA=(XY..XY) 1 
    15         15
    26          2
    27          9
    28         15
    29         60
    30          8
    31         49
    32          1
    33          2
    39          1
    40          1
    41         12
    42        100
    43         48
    44        100
    45         40
    46          1
    54          6
    55          4
    56         14
    57         19
    58         46
    59        351
    60         12
    61          1
    67          1
    68          1
    70         34
    71         20
    72         83
    73          5
    82          4
    83          1
    84          4
    85          2
    86          6
    87          6
    89          1
    99          1
   100          7
   101          3
   102        999
   103         62
   104          4
   114          1
   116         10
   117          1
   146          2
   147         35
   148          3