##TITLE=Library Entry 73653
##JCAMP-DX=Revision 4.10 
##DATA TYPE=MASS SPECTRUM
##SAMPLE DESCRIPTION=Japan AIST/NIMC Database- Spectrum MS-IW-5897
##NAMES=HP
##CAS NAME=5-Hydroxy-3-(2-morpholinoethyl)indole
##MOLFORM=C14H18N2O2
##CAS REGISTRY NO=92292-86-9
##MP= -300
##BP= -300
##MW= 246
##$RETENTION INDEX=0
##$CONDENSED SPECTRUM=NO
##NPOINTS= 81
##XYDATA=(XY..XY) 1 
    15          2
    17          9
    18          1
    27          3
    28         15
    29          8
    30          4
    31          2
    39          3
    41          5
    42          9
    43          3
    44          4
    45          2
    50          1
    51          3
    52          2
    53          1
    54          2
    55          5
    56         67
    57          5
    63          2
    64          1
    65          6
    67          1
    69          1
    70         15
    71          4
    72          8
    75          1
    76          1
    77          6
    78          3
    79          2
    80          2
    85          1
    86          1
    87          1
    89          4
    90          3
    91          7
    92          1
    93          1
    98          9
    99          4
   100        999
   101         64
   102          5
   103          4
   104          2
   105          2
   107          1
   115          3
   116          2
   117          8
   118          4
   119          1
   128          2
   130          5
   131          4
   132          3
   133          3
   142          1
   143          1
   144          2
   145          3
   146         37
   147          4
   158          4
   159         10
   160         18
   161          2
   172          1
   185          1
   186          1
   244          3
   245          2
   246         81
   247         14
   248          1