##TITLE=Library Entry 85091
##JCAMP-DX=Revision 4.10 
##DATA TYPE=MASS SPECTRUM
##SAMPLE DESCRIPTION=A.A.Kutin, Moscow, Russia
##NAMES=HP
##CAS NAME=Carbamic acid, N-(4-chlorophenyl)-, 2-tolyl ester
##MOLFORM=C14H12ClNO2
##CAS REGISTRY NO=92290-73-8
##MP= -300
##BP= -300
##MW= 261
##$RETENTION INDEX=0
##$CONDENSED SPECTRUM=NO
##NPOINTS= 127
##XYDATA=(XY..XY) 1 
    33          4
    34          2
    35          8
    36         17
    37         59
    38         86
    39        178
    40         58
    41         23
    42          7
    43         12
    44         21
    45         15
    47          8
    49         21
    50         98
    51        117
    52         68
    53         61
    54         14
    55         13
    56          4
    57          3
    58          0
    60          5
    61         36
    62         63
    63        136
    64         54
    65         56
    66          8
    67          5
    68          3
    69          2
    70          2
    71          3
    73         47
    74         28
    75         53
    77        214
    78         59
    79        121
    80         69
    81         11
    82          3
    83          1
    84          4
    85          5
    86          5
    87          7
    89         68
    90        173
    91         79
    92         20
    93          2
    94          3
    95          1
    96          1
    97          4
    99         58
   100          6
   101         13
   102          1
   103          0
   104          1
   105          4
   107        292
   108        999
   109         68
   111         26
   112          3
   113          6
   114          0
   115          0
   116          0
   117          0
   118          0
   119          1
   120          0
   121          0
   122          0
   125        101
   126         42
   127         34
   128         13
   129          1
   131          3
   132          0
   133          0
   134          0
   135          0
   137          0
   138          0
   139          0
   140          1
   141          0
   142          0
   143          0
   148          0
   149          0
   151          2
   153        150
   154         19
   155         45
   156          5
   157          0
   165          0
   166          0
   168          2
   169          0
   170          0
   171          0
   178          0
   180          0
   181          0
   183          3
   184          0
   185          1
   189          0
   190          0
   217          0
   219          0
   259          0
   261         19
   262          2
   263          5
   264          0