##TITLE=Library Entry 13112
##JCAMP-DX=Revision 4.10 
##DATA TYPE=MASS SPECTRUM
##SAMPLE DESCRIPTION=O A MAMER, MCGILL UNIVERSITY
##NAMES=HP
##CAS NAME=2-Methyl-3-amino-4,5-dihydroxymethylpyridine, triacetate
##MOLFORM=C14H18N2O5
##CAS REGISTRY NO=92293-91-9
##MP= -300
##BP= -300
##MW= 294
##$RETENTION INDEX=0
##$CONDENSED SPECTRUM=NO
##NPOINTS= 104
##XYDATA=(XY..XY) 1 
    15         30
    26          4
    27         14
    28         11
    29          7
    30          6
    38          6
    39         50
    40          8
    41         21
    42         64
    43        999
    44         24
    45          9
    50         10
    51         39
    52         34
    53         40
    54         17
    55          7
    60          9
    61         10
    63         16
    64         28
    65         40
    66         20
    67         17
    68          9
    69          4
    73          1
    76          5
    77         38
    78         37
    79         30
    80         35
    81         12
    82          9
    90          6
    91         42
    92         22
    93         23
    94         33
    95          7
    96          4
   104         23
   105         57
   106         60
   107         26
   108         14
   109         17
   116          4
   117         26
   118         10
   119         25
   120         18
   121         73
   122        225
   123         37
   124          4
   130          8
   131         48
   132        125
   133        116
   134         39
   135         12
   136          5
   137         22
   138          9
   145          9
   146         81
   147         18
   148         20
   149        112
   150        453
   151         77
   152          8
   159          5
   160          4
   161         11
   162        106
   163         28
   164         54
   165         15
   166          5
   167         14
   173         11
   174        751
   175        101
   176         16
   177         21
   179          7
   191         45
   192        106
   193         61
   194          8
   209         44
   210          7
   221         15
   234        184
   235         34
   236          5
   252         14
   294         28
   295          6