##TITLE=Library Entry 15164
##JCAMP-DX=Revision 4.10 
##DATA TYPE=MASS SPECTRUM
##SAMPLE DESCRIPTION=Japan AIST/NIMC Database- Spectrum MS-NW- 384
##NAMES=HP
##CAS NAME=DL-Cystine
##MOLFORM=C6H12N2O4S2
##CAS REGISTRY NO=923-32-0
##MP= -300
##BP= -300
##MW= 240
##$RETENTION INDEX=0
##$CONDENSED SPECTRUM=NO
##NPOINTS= 184
##XYDATA=(XY..XY) 1 
    12          9
    14          4
    15         35
    16         97
    17        129
    18        134
    19          3
    22          9
    25          4
    26         23
    27         73
    28        187
    29         26
    30         68
    32        165
    33        151
    34        418
    35          9
    36         24
    37          3
    38         11
    39         30
    40         37
    41         88
    42        268
    43        111
    44        999
    45         78
    46         27
    47         33
    48          9
    50          4
    51          9
    52          9
    53         14
    54         59
    55         39
    56         35
    57         24
    58         46
    59        147
    60         44
    61         20
    62          8
    63          4
    64        179
    65         11
    66         28
    67         13
    68         57
    69         85
    70         22
    71         12
    72         10
    73         18
    74        185
    75        122
    76        183
    77         13
    78         10
    79          5
    80          8
    81          8
    82          8
    83         10
    84          9
    85         23
    86         33
    87         24
    88         17
    89          6
    90          4
    91          3
    92          7
    93         10
    94          8
    95         12
    96         15
    97          9
    98         10
    99         22
   100         34
   101         27
   102         27
   103         13
   104          8
   105          5
   106          5
   107          6
   108          4
   109          6
   110          8
   111         13
   112         22
   113         13
   114          9
   115          5
   116          4
   117          3
   118          6
   119          6
   120          5
   121         11
   122          3
   123          5
   124          8
   125          9
   126         18
   127         18
   128         14
   129          8
   130          9
   131          9
   132         14
   133          5
   134          4
   135          4
   136          5
   137          6
   138         10
   139          8
   140         10
   141          6
   142          6
   143          5
   144          4
   145          9
   146          3
   147          9
   148          3
   149          6
   150          4
   151          6
   152          5
   153          6
   154          5
   155          5
   156          4
   157          6
   158          3
   159          5
   160         18
   161          4
   162          5
   163          3
   164          3
   165          5
   166          4
   167          6
   168          5
   169          8
   170          4
   171          3
   172          4
   175          3
   176          3
   177          7
   178          7
   179          5
   180          4
   181          5
   182          4
   183          4
   184          4
   185          3
   190          3
   192         27
   194          7
   195          5
   196          8
   197          3
   198          3
   200          3
   201          3
   202          7
   203          3
   204          3
   206          3
   209          3
   211          4
   212          3
   213          3
   224          7
   240          4