##TITLE=Library Entry 89391
##JCAMP-DX=Revision 4.10 
##DATA TYPE=MASS SPECTRUM
##SAMPLE DESCRIPTION=Japan AIST/NIMC Database- Spectrum MS-NW-1894
##NAMES=HP
##CAS NAME=Ureidosuccinic acid
##MOLFORM=C5H8N2O5
##CAS REGISTRY NO=923-37-5
##MP= -300
##BP= -300
##MW= 176
##$RETENTION INDEX=0
##$CONDENSED SPECTRUM=NO
##NPOINTS= 114
##XYDATA=(XY..XY) 1 
    12          6
    13          4
    14         19
    15         68
    16         44
    17         52
    18        128
    19          1
    25          4
    26         36
    27         90
    28        320
    29         33
    30          8
    31         10
    36          7
    38          8
    39         18
    40         64
    41        166
    42        268
    43        202
    44        360
    45         85
    46          9
    47          1
    48          1
    50          1
    51          4
    52          6
    53         11
    54         12
    55         30
    56         26
    57         15
    58          2
    59          5
    60        605
    61         15
    62          2
    65          1
    66          2
    67          6
    68         29
    69         80
    70         88
    71         18
    72          9
    73          5
    74          6
    77          2
    78          1
    79          2
    80          3
    81          6
    82          4
    83          8
    84         13
    85          8
    86         17
    87        100
    88         35
    89          2
    91          3
    92          1
    93          2
    94          3
    95          4
    96         22
    97          8
    98          7
    99        140
   100          9
   101          1
   105          1
   107          2
   108          1
   109          3
   110          2
   111          4
   112        999
   113        147
   114         13
   115          7
   116          1
   117          1
   120          1
   121          1
   123          3
   124          2
   125          3
   126          1
   129          2
   130          4
   131          2
   133          1
   135          1
   137          2
   138          2
   139          2
   140        132
   141         15
   142          1
   143          1
   147          1
   149          2
   151          1
   152          1
   153          1
   155          1
   156          3
   157          1
   158         24
   159          3