##TITLE=Library Entry 98
##JCAMP-DX=Revision 4.10 
##DATA TYPE=MASS SPECTRUM
##SAMPLE DESCRIPTION=Japan AIST/NIMC Database- Spectrum MS-NW-6608
##NAMES=HP
##CAS NAME=Bromosuccinic acid
##MOLFORM=C4H5BrO4
##CAS REGISTRY NO=923-06-8
##MP= -300
##BP= -300
##MW= 196
##$RETENTION INDEX=0
##$CONDENSED SPECTRUM=NO
##NPOINTS= 120
##XYDATA=(XY..XY) 1 
    12          6
    13         11
    14         26
    15         65
    16          8
    17          3
    18         10
    24          8
    25         45
    26        297
    27        999
    28        165
    29        109
    30          8
    31         12
    32          2
    35          1
    36          8
    37          8
    38          4
    39          7
    40          7
    41         26
    42        114
    43        264
    44        146
    45        623
    46         58
    47         16
    50          1
    51          1
    52          9
    53         79
    54         84
    55        584
    56         40
    57         11
    60          5
    61          2
    63          2
    66          1
    67          4
    68          4
    69          8
    70          8
    71        379
    72        173
    73        684
    74         27
    75          4
    76          1
    77          3
    79        106
    80        275
    81        109
    82        266
    83          4
    85          1
    86          2
    87          2
    88         10
    89         16
    90          1
    91          2
    92          3
    93          4
    94          3
    95          3
    97          1
    98         65
    99         83
   100         10
   101          2
   103          1
   104          4
   105         24
   106        208
   107         83
   108        202
   109         68
   110          3
   111          7
   116         16
   117          8
   120          2
   121          1
   122          3
   123         10
   124          2
   125         10
   126          1
   127          1
   128          1
   129          1
   130          2
   131          1
   133         42
   134         10
   135         43
   136          9
   137          2
   147          1
   149          4
   150        272
   151         34
   152        347
   153         35
   154         83
   155          4
   156          1
   161          1
   163          1
   177          1
   178        505
   179         34
   180        502
   181         33
   182          4
   196          1
   198          1