##TITLE=Library Entry 34477
##JCAMP-DX=Revision 4.10 
##DATA TYPE=MASS SPECTRUM
##SAMPLE DESCRIPTION=Japan AIST/NIMC Database- Spectrum MS-NW-4980
##NAMES=HP
##CAS NAME=2-Propenoic acid, 2-methyl-, 2-hydroxypropyl ester
##MOLFORM=C7H12O3
##CAS REGISTRY NO=923-26-2
##MP= -300
##BP= -300
##MW= 144
##$RETENTION INDEX=1014
##$CONDENSED SPECTRUM=NO
##NPOINTS= 69
##XYDATA=(XY..XY) 1 
    14          5
    15         30
    16          2
    17          5
    18         18
    25          1
    26         11
    27         45
    28         31
    29         34
    30          6
    31        141
    32          4
    36          1
    37          7
    38         15
    39        174
    40         57
    41        715
    42         62
    43         70
    44         11
    45        244
    46          7
    52          1
    53          4
    54         17
    55         91
    56         30
    57         32
    58        221
    59         65
    60          4
    61          1
    67          2
    68         12
    69        999
    70         77
    71         14
    72          9
    73          7
    74          2
    75         17
    76          1
    81          2
    82         24
    83          4
    84          1
    85         55
    86         17
    87         39
    88          3
    89          1
    96          2
    98          9
    99        109
   100        259
   101         19
   102          2
   103          8
   111          1
   113         30
   114         20
   115          2
   116          2
   126          2
   127         15
   128          2
   129          4