##TITLE=Library Entry 53964
##JCAMP-DX=Revision 4.10 
##DATA TYPE=MASS SPECTRUM
##SAMPLE DESCRIPTION=Japan AIST/NIMC Database- Spectrum MS-IW-4171
##NAMES=HP
##CAS NAME=D-Lysine
##MOLFORM=C6H14N2O2
##CAS REGISTRY NO=923-27-3
##MP= -300
##BP= -300
##MW= 146
##$RETENTION INDEX=0
##$CONDENSED SPECTRUM=NO
##NPOINTS= 90
##XYDATA=(XY..XY) 1 
    15         10
    16          4
    17         20
    18         94
    19          2
    26          5
    27         38
    28        222
    29         71
    30        789
    31         30
    32          1
    39         32
    40          7
    41        113
    42        128
    43        229
    44        170
    45         46
    46         18
    47          1
    50          5
    51          4
    52          5
    53         14
    54         38
    55        127
    56        709
    57        147
    58         34
    59         83
    60          4
    65         10
    66          5
    67         99
    68         20
    69         47
    70         96
    71        108
    72        875
    73         93
    74        200
    75         51
    76          2
    77          1
    78          2
    79          3
    80          8
    81          9
    82         94
    83        121
    84        999
    85         91
    86          8
    87         25
    88         30
    89         29
    90          1
    92          1
    93          5
    94          3
    95          5
    96          1
    97          4
    98          3
    99         21
   100         99
   101         62
   102          7
   103          8
   104          1
   107          1
   108          2
   109          7
   110         20
   111         32
   112         15
   113          4
   116          6
   117         36
   118          2
   126          1
   127          2
   128         59
   129        139
   130         71
   131          5
   146          9
   147         43
   148          3