##TITLE=Library Entry 100529
##JCAMP-DX=Revision 4.10 
##DATA TYPE=MASS SPECTRUM
##SAMPLE DESCRIPTION=LAC, NIDDK, NIH, Bethesda, MD 20892
##NAMES=HP
##CAS NAME=Butyric acid, 3-methyl-3-[2-isopropylphenyl]-
##MOLFORM=C14H20O2
##CAS REGISTRY NO=92300-81-7
##MP= -300
##BP= -300
##MW= 220
##$RETENTION INDEX=1515
##$CONDENSED SPECTRUM=NO
##NPOINTS= 119
##XYDATA=(XY..XY) 1 
    41        186
    42         62
    43        259
    45        118
    47          7
    48          2
    49         17
    50         11
    51         47
    52         12
    53         33
    54          1
    55         53
    56          8
    57         20
    59        128
    60         59
    61          2
    62          4
    63         23
    64         15
    65         41
    66          4
    67         12
    68          1
    69         16
    70          5
    71         16
    72          4
    73          4
    74          5
    75          8
    76          9
    77         88
    78         33
    79         40
    80          3
    81          6
    82          3
    83         13
    84         11
    85          4
    86          8
    87          6
    88          3
    89         16
    91        310
    92         24
    93          7
    94          2
    95         10
    96          1
    97          3
    99          2
   101         24
   102         21
   103         53
   104         21
   105        230
   106         19
   107          8
   109          1
   111          3
   113          3
   115        166
   116         48
   117        135
   118        134
   119        999
   120        120
   121         56
   122          5
   123          0
   125          1
   126          5
   127         39
   128        105
   129         99
   130         46
   131         60
   132          8
   133         77
   134          9
   135          8
   136          2
   139          5
   141         20
   142          8
   143         26
   144          9
   145        287
   146         35
   147          8
   149          5
   152          2
   153          2
   155          0
   157          2
   159         25
   160         26
   161        492
   162         62
   163         23
   164          2
   165          1
   175          1
   177          5
   178          1
   187         18
   188          2
   189          2
   203          0
   205          6
   206          2
   209          0
   219          0
   220        108
   221         19
   222          2