##TITLE=Library Entry 49507
##JCAMP-DX=Revision 4.10 
##DATA TYPE=MASS SPECTRUM
##SAMPLE DESCRIPTION=Chemical Concepts
##NAMES=HP
##CAS NAME=1-Pentalenol, 1,2,3,3a,4,6a-hexahydro-
##MOLFORM=C8H12O
##CAS REGISTRY NO=92334-78-6
##MP= -300
##BP= -300
##MW= 124
##$RETENTION INDEX=0
##$CONDENSED SPECTRUM=NO
##NPOINTS= 92
##XYDATA=(XY..XY) 1 
    26         25
    27        121
    28         23
    29         50
    30          4
    31         25
    37          7
    38         29
    39        211
    40         43
    41        104
    42         12
    43         36
    44         18
    45          6
    46          0
    47          1
    48          0
    49          3
    50         34
    51         70
    52         40
    53         76
    54         23
    55         51
    56          4
    57        212
    58         15
    59          2
    60          1
    61          5
    62         15
    63         36
    64          7
    65        113
    66        236
    67        425
    68        241
    69         27
    70         21
    71          1
    72          0
    73          1
    74          8
    75          5
    76          4
    77        246
    78        461
    79        593
    80        999
    81         99
    82         22
    83         55
    84          3
    85          0
    86          1
    87          1
    89          4
    90          2
    91        475
    92         37
    93         90
    94         17
    95        119
    96         26
    97          3
    98          0
    99          0
   101          0
   102          2
   103         13
   104          2
   105         83
   106        329
   107         33
   108          3
   109         17
   110          1
   111          0
   114          1
   115          0
   116          0
   117          0
   118          0
   119          0
   120          0
   121          1
   122          0
   123          3
   124        193
   125         18
   126          1