##TITLE=Library Entry 20525
##JCAMP-DX=Revision 4.10 
##DATA TYPE=MASS SPECTRUM
##SAMPLE DESCRIPTION=P.A. Leclercq, Lab. Instrum. Anal., Eindhoven Univ. Tec
hnol., Netherlands
##NAMES=HP
##CAS NAME=1,1'-Bicyclohexyl, 4-methyl-4'-propyl-
##MOLFORM=C16H30
##CAS REGISTRY NO=92343-70-9
##MP= -300
##BP= -300
##MW= 222
##$RETENTION INDEX=0
##$CONDENSED SPECTRUM=NO
##NPOINTS= 36
##XYDATA=(XY..XY) 1 
    27        132
    29        246
    39        165
    40         62
    41        625
    42         80
    43        161
    53        114
    54        167
    55        999
    56         74
    57        136
    65         48
    66         31
    67        359
    68        110
    69        668
    70         70
    77         59
    79        130
    81        724
    82        708
    83        485
    84         37
    91         51
    93         34
    95        185
    96        691
    97        470
    98         58
   109         65
   123         74
   124        434
   125        208
   222        425
   223         87