##TITLE=Library Entry 109857
##JCAMP-DX=Revision 4.10 
##DATA TYPE=MASS SPECTRUM
##SAMPLE DESCRIPTION=Div. of Experiment Therapeutics WRAIR, WRAMC, Washingto
n DC 20307
##NAMES=HP
##CAS NAME=Purine-6-thiol, ethyl carbonate
##MOLFORM=C8H8N4O2S
##CAS REGISTRY NO=92352-22-2
##MP= -300
##BP= -300
##MW= 224
##$RETENTION INDEX=0
##$CONDENSED SPECTRUM=NO
##NPOINTS= 114
##XYDATA=(XY..XY) 1 
    41         17
    43         48
    44        186
    45        288
    46          7
    47         12
    49         16
    51         17
    53        169
    54         43
    55         27
    56         22
    57         34
    58          5
    59         14
    60         22
    61          3
    62          2
    64         72
    65        110
    66         61
    67         21
    68         10
    70        273
    71        184
    72         54
    73         15
    74          3
    76          9
    77         11
    78          3
    80         46
    81         30
    82         42
    83         70
    84         60
    85         13
    86         12
    87          1
    88          1
    90         10
    91         17
    92         59
    93         66
    94         18
    96         14
    97        148
    98        155
    99          8
   100         14
   101          0
   104          1
   105          1
   106          3
   107          4
   108         17
   109         20
   110          6
   111         24
   112          7
   113          2
   114          1
   118          4
   119         96
   120         28
   121          7
   122          1
   125        999
   126         63
   127         34
   128          1
   129          0
   133          0
   134          6
   136         26
   138         38
   139          1
   140          2
   141          0
   145          5
   147         49
   148          4
   152        961
   153        125
   154         54
   155          6
   156          0
   163          2
   165         35
   166          4
   167          2
   168          2
   173          0
   175          6
   177          0
   179         41
   180         65
   181         24
   182          6
   183          1
   184          0
   193          2
   195          8
   196          0
   197          3
   207          2
   208          1
   209          0
   214          1
   222          1
   224        165
   225         17
   226          6
   227          0