##TITLE=Library Entry 24055
##JCAMP-DX=Revision 4.10 
##DATA TYPE=MASS SPECTRUM
##SAMPLE DESCRIPTION=A.A.Kutin, Moscow, Russia
##NAMES=HP
##CAS NAME=p-Nitro carbanilic acid, n-heptyl ester
##MOLFORM=C14H20N2O4
##CAS REGISTRY NO=92374-99-7
##MP= -300
##BP= -300
##MW= 280
##$RETENTION INDEX=0
##$CONDENSED SPECTRUM=NO
##NPOINTS= 147
##XYDATA=(XY..XY) 1 
    33         17
    34         26
    36         18
    37         15
    38         42
    39        185
    40        387
    41        660
    43        756
    44        101
    45         16
    46          5
    47          0
    48          1
    50         36
    51         32
    52         32
    53         43
    55        243
    57        999
    58         28
    59          4
    61          8
    62         19
    63         66
    64         58
    65         60
    66         18
    67         15
    68         19
    69         48
    70         54
    71         17
    72          2
    73          4
    74          8
    75         24
    76         31
    77         17
    78         12
    79         14
    80         18
    81         11
    82          3
    83         12
    84          4
    85          2
    86          0
    87          2
    88          2
    90         44
    91         87
    92         36
    93         49
    94          3
    95          2
    96          3
    97         14
    98         16
    99          3
   100          0
   102          0
   103          1
   104          1
   105          6
   106         11
   107         11
   108         78
   109          5
   110          1
   111          1
   112          1
   113          1
   114          0
   115          2
   118          4
   119         19
   120          3
   121          4
   122         13
   123          2
   124          0
   125          1
   126          1
   127          4
   128          1
   129          1
   130          0
   131          0
   132          2
   134         13
   135          5
   138        145
   139         12
   140          1
   141          1
   142          0
   143         26
   144          2
   146          0
   148          6
   149          3
   150          3
   151          7
   152          8
   153          2
   154          0
   155          0
   156          0
   157          0
   159          0
   160          0
   161          1
   162          0
   163          2
   164          6
   165         27
   166         14
   167          4
   168          0
   169          0
   171          2
   172          0
   173          0
   174          0
   177          0
   179          6
   180          1
   182        109
   183         58
   184          6
   185          1
   187          0
   189          0
   193          4
   194          0
   207          4
   208          0
   212          2
   219          0
   223          2
   250          4
   263          0
   264          2
   280         32
   281          4
   282          0