##TITLE=Library Entry 50142
##JCAMP-DX=Revision 4.10 
##DATA TYPE=MASS SPECTRUM
##SAMPLE DESCRIPTION=James Little,Eastman Chem.Co.,Kingsport,TN
##NAMES=HP
##CAS NAME=Cyclohexanecarboxaldehyde, 4-(hydroxymethyl)-
##MOLFORM=C8H14O2
##CAS REGISTRY NO=92385-32-5
##MP= -300
##BP= -300
##MW= 142
##$RETENTION INDEX=0
##$CONDENSED SPECTRUM=NO
##NPOINTS= 34
##XYDATA=(XY..XY) 1 
    29        176
    31        149
    39        311
    41        516
    43        139
    51         76
    53        201
    54        199
    55        664
    57        294
    67        978
    68        329
    70        248
    77        273
    79        370
    80        401
    81        999
    83        262
    91        346
    93        562
    94        187
    95        947
    96        622
    97         79
   106        115
   109        161
   110         42
   111         64
   112         47
   114         65
   124        129
   125         43
   142         14
   143          3