##TITLE=Library Entry 53840
##JCAMP-DX=Revision 4.10 
##DATA TYPE=MASS SPECTRUM
##SAMPLE DESCRIPTION=Japan AIST/NIMC Database- Spectrum MS-NW-2105
##NAMES=HP
##CAS NAME=1-Butanamine, N-butyl-N-nitroso-
##MOLFORM=C8H18N2O
##CAS REGISTRY NO=924-16-3
##MP= -300
##BP= -300
##MW= 158
##$RETENTION INDEX=1260
##$CONDENSED SPECTRUM=NO
##NPOINTS= 79
##XYDATA=(XY..XY) 1 
    14          2
    15         31
    16          1
    26         14
    27        195
    28         61
    29        517
    30        327
    31          8
    32          1
    37          3
    38          6
    39         97
    40         13
    41        549
    42        348
    43        436
    44        222
    45         11
    47          9
    50          3
    51          4
    52          4
    53         13
    54         18
    55        105
    56        141
    57        914
    58         49
    59          6
    60          8
    61          1
    67          3
    68         10
    69          4
    70         82
    71         10
    72         69
    73         14
    74         75
    75          2
    79          1
    80          2
    81          2
    82          9
    83          4
    84        999
    85        101
    86        160
    87          9
    95          6
    96          4
    97          2
    98         11
    99        190
   100         14
   101          9
   102          5
   103         40
   104          2
   110          2
   112         16
   113          2
   115        206
   116        306
   117         17
   118          1
   126          3
   127          2
   128          4
   129         11
   130          1
   138          1
   141         96
   142          9
   143          1
   158        154
   159         14
   160          1