##TITLE=Library Entry 71613
##JCAMP-DX=Revision 4.10 
##DATA TYPE=MASS SPECTRUM
##SAMPLE DESCRIPTION=Chemical Concepts
##NAMES=HP
##CAS NAME=2-Propenoic acid, 3-(dimethylamino)-, ethyl ester
##MOLFORM=C7H13NO2
##CAS REGISTRY NO=924-99-2
##MP= -300
##BP= -300
##MW= 143
##$RETENTION INDEX=0
##$CONDENSED SPECTRUM=NO
##NPOINTS= 92
##XYDATA=(XY..XY) 1 
    25          2
    26         23
    27         58
    28         42
    29         38
    30         16
    31         20
    35          1
    37          3
    38          6
    39         26
    40         12
    41         43
    42        229
    43         62
    44         38
    45         27
    46         12
    47          1
    49          2
    50         11
    51         21
    52         17
    53         12
    54         30
    55        144
    56         47
    57          8
    58         11
    59          6
    60          2
    61          5
    62          5
    63         13
    64          5
    65         27
    66         48
    67         12
    68         52
    69         30
    70        195
    71        236
    72         16
    73          7
    74          1
    75         23
    76         11
    77          8
    78         14
    79          4
    80          1
    81          2
    82         59
    83          5
    84         59
    85          5
    86         40
    87          3
    88          2
    89          5
    90          1
    91        109
    92         86
    93         79
    94          5
    95          1
    96         15
    97         21
    98        999
    99         71
   100         21
   101          3
   102          1
   103         16
   104          2
   105          1
   106          1
   107          2
   112          7
   113          1
   114        180
   115         33
   116          4
   126          6
   128          6
   129          2
   140          3
   141          1
   142          2
   143        378
   144         33
   145          3