##TITLE=Library Entry 7623
##JCAMP-DX=Revision 4.10 
##DATA TYPE=MASS SPECTRUM
##SAMPLE DESCRIPTION=Leung Pu, NIH, Bethesda, Maryland, U.S.
##NAMES=HP
##CAS NAME=sec-Butyl nitrite
##MOLFORM=C4H9NO2
##CAS REGISTRY NO=924-43-6
##MP= -300
##BP= -300
##MW= 103
##$RETENTION INDEX=542
##$CONDENSED SPECTRUM=NO
##NPOINTS= 42
##XYDATA=(XY..XY) 1 
    41        200
    42         93
    43        999
    44        107
    45        155
    46         30
    47          4
    48          1
    52         15
    53         23
    54         28
    55         57
    56         51
    57        307
    58         25
    59         69
    60         13
    61         15
    62          1
    63          1
    64          1
    65          2
    66          3
    67          6
    68          9
    69         20
    70         45
    71         35
    72         14
    73         30
    74          5
    75          2
    83          7
    84         13
    85          8
    86         23
    87         84
    88         26
    89          1
   102          0
   103         11
   104          1