##TITLE=Library Entry 980
##JCAMP-DX=Revision 4.10 
##DATA TYPE=MASS SPECTRUM
##SAMPLE DESCRIPTION=Japan AIST/NIMC Database- Spectrum MS-IW-6984
##NAMES=HP
##CAS NAME=Beta-alanine ethyl ester
##MOLFORM=C5H11NO2
##CAS REGISTRY NO=924-73-2
##MP= -300
##BP= -300
##MW= 117
##$RETENTION INDEX=0
##$CONDENSED SPECTRUM=NO
##NPOINTS= 68
##XYDATA=(XY..XY) 1 
    15         38
    16          8
    17         11
    18         59
    19          3
    24          1
    25          6
    26         54
    27        152
    28        223
    29        205
    30        999
    31         75
    32          1
    39          4
    40         12
    41         35
    42        186
    43        541
    44        168
    45         72
    46         42
    47          7
    51          1
    52          4
    53          8
    54          3
    55         58
    56         10
    57         20
    58          4
    59          1
    60        273
    61         54
    62          3
    67          1
    68          3
    69          4
    70        286
    71         21
    72        445
    73         41
    74         59
    75         16
    76          1
    81          1
    82          2
    83          1
    84          1
    85          3
    86          1
    87          1
    88        103
    89         19
    90          1
    95          1
    96          1
    97          2
    99          4
   100          2
   101          4
   102         22
   103          1
   115          2
   116         15
   117        311
   118         60
   119          4