##TITLE=Library Entry 52448
##JCAMP-DX=Revision 4.10 
##DATA TYPE=MASS SPECTRUM
##SAMPLE DESCRIPTION=Chemical Concepts
##NAMES=HP
##CAS NAME=2-Butenoic acid, 3-methyl-, methyl ester
##MOLFORM=C6H10O2
##CAS REGISTRY NO=924-50-5
##MP= -300
##BP= -300
##MW= 114
##$RETENTION INDEX=842
##$CONDENSED SPECTRUM=NO
##NPOINTS= 42
##XYDATA=(XY..XY) 1 
    26         21
    27        228
    28         38
    29        262
    30         15
    31          8
    37         14
    38         41
    39        293
    40         29
    41         52
    42         13
    43         45
    44          3
    45          8
    49          6
    50         36
    51         48
    52         16
    53        115
    54         65
    55        502
    56         34
    57          3
    59         52
    66          3
    67         19
    68          3
    69         10
    71         11
    73         11
    81          6
    82        117
    83        999
    84         56
    85          5
    91          3
    99         45
   100          2
   114        407
   115         27
   117          2