##TITLE=Library Entry 4570
##JCAMP-DX=Revision 4.10 
##DATA TYPE=MASS SPECTRUM
##SAMPLE DESCRIPTION=TNO Volatile Compounds in Food - Chemical Concepts
##NAMES=HP
##CAS NAME=1-Propanamine, N-methyl-N-nitroso-
##MOLFORM=C4H10N2O
##CAS REGISTRY NO=924-46-9
##MP= -300
##BP= -300
##MW= 102
##$RETENTION INDEX=887
##$CONDENSED SPECTRUM=NO
##NPOINTS= 56
##XYDATA=(XY..XY) 1 
    25          4
    26         47
    27        374
    29        114
    30        184
    32          2
    33          3
    36          3
    37          8
    38         26
    39        108
    41        349
    42        999
    43        650
    44        403
    45         17
    46          3
    49          5
    51          1
    52          4
    53          2
    54         15
    56         56
    57        230
    58          9
    59         63
    60         18
    61         19
    63          5
    65          1
    66          4
    67          1
    68          7
    69         12
    70         49
    71         38
    72          2
    73        435
    74         29
    75          4
    81          2
    83          0
    84          2
    85        183
    86          5
    87         17
    90          0
    92          1
    94          0
    95          3
    98          2
    99          2
   101         11
   102        369
   103         15
   104          1