##TITLE=Library Entry 74603
##JCAMP-DX=Revision 4.10 
##DATA TYPE=MASS SPECTRUM
##SAMPLE DESCRIPTION=J.H. BANOUB, DEP. FISH. OCEANS, N.A.F.C., NEWFOUNDLAND,
 CAN.
##NAMES=HP
##CAS NAME=Methyl 2-deoxy-2-(dimethylamino)-3,4,6-tri-O-methyl-.alpha.-D-glu
copyranoside
##MOLFORM=C12H25NO5
##CAS REGISTRY NO=92414-15-8
##MP= -300
##BP= -300
##MW= 263
##$RETENTION INDEX=0
##$CONDENSED SPECTRUM=NO
##NPOINTS= 74
##XYDATA=(XY..XY) 1 
    41         50
    42        210
    43         60
    44         50
    45        690
    50         40
    56         40
    57         30
    58        220
    70         30
    71        130
    72         80
    73        130
    74         40
    76         30
    77         50
    82         30
    84        200
    85        100
    86        860
    87         80
    88         70
    89         10
    90         10
    92         40
    98         30
    99         10
   100          5
   101        999
   102         90
   103         10
   108         20
   110         10
   111         10
   112         30
   113         10
   114        390
   115        240
   116         90
   117         10
   118         10
   120         10
   124         20
   125         20
   126         20
   127         20
   128         20
   130         20
   131         10
   132         10
   133         10
   135         20
   144         10
   145         10
   146         10
   147         10
   148         10
   149         20
   156         10
   158         10
   163        180
   164         20
   169         10
   171         10
   172         20
   173         10
   185         10
   194         10
   218         10
   232         20
   233         10
   248         20
   263         40
   264         10