##TITLE=Library Entry 73631
##JCAMP-DX=Revision 4.10 
##DATA TYPE=MASS SPECTRUM
##SAMPLE DESCRIPTION=Institute of Organic Chemistry, Novosibirsk, USSR 1988
##NAMES=HP
##CAS NAME=1,4,7,10-Tetraazacyclotetradecane-3,8,11,14-tetrone
##MOLFORM=C10H16N4O4
##CAS REGISTRY NO=92456-55-8
##MP= -300
##BP= -300
##MW= 256
##$RETENTION INDEX=0
##$CONDENSED SPECTRUM=NO
##NPOINTS= 172
##XYDATA=(XY..XY) 1 
    50         14
    51         19
    52         17
    53         11
    54         43
    55        462
    56        245
    57         91
    58         55
    59         41
    60         39
    61         31
    62          5
    63          4
    64         10
    65         10
    66          8
    67         20
    68         32
    69         36
    70         38
    71        162
    72         87
    73         31
    74          7
    75         34
    76          6
    77         18
    78         17
    79         10
    80          6
    81         24
    82         25
    83         29
    84        404
    85        216
    86         83
    87        416
    88         36
    89         21
    90          4
    91         50
    92         13
    93          6
    94          8
    95         16
    96         10
    97         16
    98         19
    99         55
   100        999
   101         55
   102         13
   103         17
   104         19
   105          8
   109          6
   110          5
   111         39
   112        383
   113        708
   114        129
   115         30
   116         11
   117          9
   118          5
   119          5
   120          4
   121          4
   122          5
   123          8
   124         13
   125         16
   126         19
   127        104
   128         16
   129         12
   130          6
   131          9
   132          4
   133          6
   134          2
   135          5
   136          4
   137          3
   138          5
   139         66
   140        161
   141         22
   142         41
   143         36
   144        174
   145         13
   146          4
   147          3
   148          4
   149          4
   151          3
   152         19
   153         24
   154          5
   155          4
   156          8
   157        499
   158         38
   159          4
   160          2
   161          1
   162          1
   163          2
   164          2
   165          2
   166          2
   167          4
   168          9
   169         38
   170        562
   171         60
   172          8
   173          4
   174          4
   175          2
   176          1
   177          1
   178          2
   179          2
   180          7
   181         15
   182         12
   183         13
   184         13
   185         22
   186        324
   187         35
   188          5
   190          1
   191          1
   192          4
   193          3
   194          2
   195          4
   196         10
   197         24
   198         10
   199         31
   200          9
   201          8
   202          1
   204          2
   205          1
   206          1
   207          4
   208          2
   209         16
   210          3
   212          0
   213         19
   214        791
   215         74
   216         10
   217          3
   218          1
   219          1
   220          3
   225          2
   226         29
   228          5
   238          4
   239          4
   256         19
   257          8
   258          1