##TITLE=Library Entry 107908
##JCAMP-DX=Revision 4.10 
##DATA TYPE=MASS SPECTRUM
##SAMPLE DESCRIPTION=Chemical Concepts
##NAMES=HP
##CAS NAME=Cobalt, [(1,2,5,6-.eta.)-1,5-cyclooctadiene][(1,2,3,4,5-.eta.)-1-
formyl-2,4-cyclopentadien-1-yl]-
##MOLFORM=C14H17CoO
##CAS REGISTRY NO=92467-89-5
##MP= -300
##BP= -300
##MW= 260
##$RETENTION INDEX=0
##$CONDENSED SPECTRUM=NO
##NPOINTS= 139
##XYDATA=(XY..XY) 1 
    26         17
    27        118
    28         11
    29         55
    37          4
    38         17
    39        218
    40         20
    41        117
    42          5
    50         12
    51         32
    52         15
    53         48
    54         54
    55         11
    59        842
    60         50
    62          7
    63         31
    64         22
    65        120
    66         27
    67         40
    68          3
    73         14
    74         17
    76         10
    77         65
    78         17
    79         87
    80         19
    81          3
    84         52
    85         80
    86         66
    87         11
    89          6
    91         55
    92         22
    93         15
    94          4
    96         15
    97         85
    98        210
    99         57
   100         17
   101         10
   102          8
   103         14
   104          4
   105         47
   106          4
   107          6
   108          6
   109         11
   110         17
   111         40
   112         50
   113        203
   114         47
   115         11
   116          3
   121          5
   122         13
   123         86
   124        999
   125        166
   126         18
   127          5
   128          3
   130          5
   135          7
   136         44
   137        320
   138        354
   139         27
   140         14
   141          4
   148          8
   149          3
   150         78
   151         65
   152         79
   153         17
   154         48
   155          3
   160          4
   161         13
   162         84
   163         71
   164        267
   165        134
   166         70
   167         19
   168          5
   174         27
   175          8
   176         21
   177          5
   178         20
   180          6
   182          8
   187          3
   188         10
   189         44
   190         18
   191          5
   192          6
   200          3
   201          8
   202        322
   203         81
   204         15
   205          5
   206         64
   207          7
   215         13
   216         20
   217         35
   218          5
   219          6
   226          6
   227         21
   228         26
   229        458
   230        131
   231        222
   232         45
   233          4
   241          3
   245          8
   256         10
   257         15
   258         23
   259         14
   260        769
   261        117
   262         12