##TITLE=Library Entry 50069
##JCAMP-DX=Revision 4.10 
##DATA TYPE=MASS SPECTRUM
##SAMPLE DESCRIPTION=NIST Mass Spectrometry Data Center, 2010
##NAMES=HP
##CAS NAME=(1S,2R,5R)-2-(2-Hydroxypropan-2-yl)-5-methylcyclohexanol
##MOLFORM=C10H20O2
##CAS REGISTRY NO=92471-23-3
##MP= -300
##BP= -300
##MW= 172
##$RETENTION INDEX=0
##$CONDENSED SPECTRUM=NO
##NPOINTS= 82
##XYDATA=(XY..XY) 1 
    26          1
    27         23
    29         40
    30          1
    31         38
    38          1
    39         63
    40         11
    41        176
    42         28
    43        322
    44         19
    45         14
    47          1
    50          3
    51         10
    52          4
    53         45
    54        220
    55        199
    56         47
    57         59
    58         14
    59        639
    60         22
    61         29
    62          2
    63          3
    64          1
    65         16
    66         16
    67        200
    68        196
    69        146
    70         38
    71         69
    72         11
    73          2
    77         58
    78          5
    79         47
    80         17
    81        999
    82         75
    83         35
    84         34
    85         14
    86          2
    87          4
    91         12
    92          4
    93         32
    94         13
    95        139
    96        444
    97         63
    98         24
    99          3
   103          1
   105          5
   106          1
   107         11
   108          4
   109         30
   110         38
   111         62
   112         34
   113          4
   121         80
   122          8
   123         10
   125          4
   136         25
   137          6
   138          1
   139         84
   140          8
   153          3
   154         33
   155          4
   157         25
   158          2