##TITLE=Library Entry 88025
##JCAMP-DX=Revision 4.10 
##DATA TYPE=MASS SPECTRUM
##SAMPLE DESCRIPTION=Chemical Concepts
##NAMES=HP
##CAS NAME=4-(2-Methyl-3-oxocyclohexyl)butyric acid, ethyl ester
##MOLFORM=C13H22O3
##CAS REGISTRY NO=92486-17-4
##MP= -300
##BP= -300
##MW= 226
##$RETENTION INDEX=0
##$CONDENSED SPECTRUM=NO
##NPOINTS= 120
##XYDATA=(XY..XY) 1 
    26          3
    27         50
    28          7
    29        102
    30          2
    31          6
    39         46
    40         11
    41        151
    42         31
    43         71
    44          3
    45         23
    51          4
    52          3
    53         35
    54         25
    55        222
    56         24
    57         26
    59          3
    60         38
    61         34
    65          9
    66          5
    67         73
    68         30
    69         65
    70         40
    71         14
    72          4
    73         23
    74          5
    77         11
    78          4
    79         41
    80         22
    81         94
    82         63
    83         64
    84         21
    85         15
    86          3
    87          9
    88        102
    89          6
    91         14
    92          5
    93         48
    94         16
    95         45
    96         32
    97         38
    98          5
    99          5
   101         17
   102          3
   105         12
   106          9
   107         23
   108         21
   109         48
   110         65
   111        999
   112         94
   113         12
   114          6
   115          8
   116         12
   118         25
   119         15
   120         27
   121         20
   122          2
   123         46
   124         42
   125         17
   126          2
   127          6
   129          3
   133          6
   134         14
   135        124
   136         17
   137         29
   138          6
   139          5
   141          3
   142          2
   143          6
   144         13
   145          7
   147         20
   148          2
   151         27
   152         15
   153          7
   154          8
   155         14
   161          6
   162          9
   163         31
   164          4
   165         15
   166          2
   172          1
   179          3
   180          9
   181         19
   182          3
   183          3
   193          1
   197          1
   198          1
   208         29
   209          4
   211          7
   212          1
   226         24
   227          5