##TITLE=Library Entry 88900
##JCAMP-DX=Revision 4.10 
##DATA TYPE=MASS SPECTRUM
##SAMPLE DESCRIPTION=Chemical Concepts
##NAMES=HP
##CAS NAME=1(2H)-Naphthalenone, octahydro-8-hydroxy-8a-methyl-, (4a.alpha.,8
.alpha.,8a.alpha.)-
##MOLFORM=C11H18O2
##CAS REGISTRY NO=92485-95-5
##MP= -300
##BP= -300
##MW= 182
##$RETENTION INDEX=0
##$CONDENSED SPECTRUM=NO
##NPOINTS= 93
##XYDATA=(XY..XY) 1 
    26          2
    27         41
    28          9
    29         43
    31         10
    38          2
    39         47
    40         11
    41        100
    42         16
    43        103
    44         10
    45         11
    49          2
    50          2
    51          9
    52          5
    53         41
    54         22
    55        111
    56         27
    57         35
    58          4
    63          5
    65         13
    66          8
    67         72
    68         19
    69         34
    70         23
    71         18
    72         11
    73          1
    77         28
    78          8
    79         42
    80         13
    81         47
    82         47
    83         35
    84         23
    85         12
    86          5
    91         24
    92          6
    93         87
    94         18
    95         50
    96         14
    97         41
    98         11
   105          9
   106          2
   107         24
   108         77
   109         29
   110         19
   111        999
   112        127
   113          8
   118          4
   119          3
   120          4
   121         31
   122          7
   123         16
   124         42
   125         10
   126          2
   131         10
   135         18
   136         23
   137         31
   138          8
   139          6
   140          3
   146          7
   149         23
   150          3
   151          2
   153          8
   154          4
   163          2
   164         61
   165         10
   166          1
   167         94
   168         13
   169          2
   181          5
   182        244
   183         33
   184          3