##TITLE=Library Entry 61781
##JCAMP-DX=Revision 4.10 
##DATA TYPE=MASS SPECTRUM
##SAMPLE DESCRIPTION=Chemical Concepts
##NAMES=HP
##CAS NAME=1,6-Pentalenedione, hexahydro-6a-(2-propynyl)-, cis-
##MOLFORM=C11H12O2
##CAS REGISTRY NO=92485-87-5
##MP= -300
##BP= -300
##MW= 176
##$RETENTION INDEX=0
##$CONDENSED SPECTRUM=NO
##NPOINTS= 144
##XYDATA=(XY..XY) 1 
    25          1
    26         27
    27        201
    28        152
    29         76
    30          3
    31         74
    33          0
    36          1
    37         10
    38         41
    39        319
    40         45
    41        200
    42         33
    43        199
    44         15
    45         82
    46         10
    47          6
    48          2
    49          5
    50         81
    51        178
    52        109
    53        133
    54         28
    55        221
    56         84
    57         81
    58         16
    59         43
    60         26
    61         13
    62         35
    63        120
    64         48
    65        212
    66         56
    67         57
    68         22
    69         54
    70         16
    71         34
    72          6
    73         24
    74         38
    75         15
    76         26
    77        202
    78        408
    79        194
    80         26
    81         55
    82         15
    83         26
    84         12
    85         17
    86          5
    87         44
    88         12
    89         38
    90         42
    91        999
    92        258
    93         58
    94         42
    95         21
    96         11
    97         18
    98          6
    99          5
   101          3
   102          7
   103         60
   104        116
   105        332
   106        152
   107         36
   108         12
   109         24
   110          5
   111          9
   112          3
   113          3
   114          1
   115         29
   116         10
   117         25
   118          9
   119        165
   120        583
   121         96
   122         19
   123          7
   124          2
   125          4
   126          1
   127          4
   128          8
   129         23
   130         15
   131         29
   132         22
   133        267
   134        127
   135         17
   136          3
   137          5
   138          2
   139          2
   140          1
   141          4
   142          1
   143          2
   144          3
   145         11
   146          5
   147        104
   148        469
   149        118
   150         11
   151          2
   152          2
   153          1
   154          0
   155          1
   156          0
   157          6
   158          6
   159          7
   160          1
   161         40
   162          5
   163          1
   165          1
   167          1
   169          1
   171          1
   175         16
   176        225
   177         35
   178          4
   179          0