##TITLE=Library Entry 13717
##JCAMP-DX=Revision 4.10 
##DATA TYPE=MASS SPECTRUM
##SAMPLE DESCRIPTION=Chemical Concepts
##NAMES=HP
##CAS NAME=2H-Pyran-2-one, 4-(acetyloxy)-6-(2-phenylethenyl)-
##MOLFORM=C15H12O4
##CAS REGISTRY NO=92496-95-2
##MP= -300
##BP= -300
##MW= 256
##$RETENTION INDEX=0
##$CONDENSED SPECTRUM=NO
##NPOINTS= 157
##XYDATA=(XY..XY) 1 
    26         21
    27         42
    28         19
    29         20
    30          0
    33          0
    34          2
    37          5
    38         23
    39         66
    40         18
    41         32
    42         72
    43        999
    44         28
    45          8
    49          0
    50         53
    51        168
    52         36
    53         16
    54          8
    55         55
    56          3
    57          2
    58          3
    59          1
    60          2
    61          4
    62         17
    63         60
    64         10
    65         22
    66         32
    67          6
    68          0
    69        287
    70         12
    71         16
    72          0
    73          3
    74         26
    75         42
    76         57
    77        307
    78         75
    79         12
    80          5
    81          6
    82          2
    83          1
    84          7
    85          1
    86          4
    87          9
    88          5
    89         26
    90         11
    91         46
    92          7
    93          7
    94          1
    95          5
    97          0
    98          4
    99          2
   100          1
   101         15
   102        101
   103        286
   104         52
   105         16
   106          0
   107          3
   108          2
   109          1
   110          0
   111         42
   112          1
   113          5
   114          7
   115        142
   116        106
   117        100
   118         30
   119          5
   120          6
   121          2
   122          0
   123          4
   125          0
   126          9
   127        126
   128        119
   129        127
   130         43
   131        214
   132         21
   133          2
   134          0
   136          0
   137         27
   138          2
   139         18
   140         43
   141         23
   142         13
   143          8
   144        174
   145        292
   146         53
   147          9
   148          0
   149          0
   150          0
   151          2
   152          3
   153          2
   154          0
   155        130
   156         16
   157         52
   158         74
   159          8
   160          1
   161          0
   165          0
   167          3
   168         58
   169         14
   170        276
   171        262
   172         47
   173         42
   174          5
   184          0
   185         62
   186        156
   187         20
   188          2
   189          0
   195          2
   196         42
   197        103
   198         14
   199          1
   204          0
   213         44
   214        456
   215         67
   216          8
   217          0
   228          1
   256        346
   257         64
   258          8
   259          0