##TITLE=Library Entry 72021
##JCAMP-DX=Revision 4.10 
##DATA TYPE=MASS SPECTRUM
##SAMPLE DESCRIPTION=Exported from NIST MS Search
##NAMES=HP
##CAS NAME=2-Butenedioic acid (Z)-, monobutyl ester
##MOLFORM=C8H12O4
##CAS REGISTRY NO=925-21-3
##MP= -300
##BP= -300
##MW= 172
##$RETENTION INDEX=0
##$CONDENSED SPECTRUM=NO
##NPOINTS= 65
##XYDATA=(XY..XY) 1 
    13          4
    14          5
    15         14
    17          4
    18         14
    19          7
    24          6
    25         24
    26        215
    27        234
    28        103
    29        192
    30          7
    31        228
    32         11
    33         21
    36          3
    37          7
    38          8
    39         68
    40         18
    41        371
    42        112
    43        220
    44         55
    45         87
    46          5
    50          4
    51          5
    52          7
    53         46
    54        231
    55        165
    56        609
    57        131
    58          6
    59          4
    60          5
    67          3
    68         15
    69         12
    71         33
    72         51
    73         54
    74          6
    79          4
    80          6
    81         20
    82         20
    83          4
    87          6
    97          4
    98        104
    99        999
   100        134
   101         14
   108          4
   117         87
   118          5
   126          8
   127          3
   128          3
   129          7
   155          5
   173          4