##TITLE=Library Entry 27842
##JCAMP-DX=Revision 4.10 
##DATA TYPE=MASS SPECTRUM
##SAMPLE DESCRIPTION=RADIAN CORP
##NAMES=HP
##CAS NAME=2-Propenamide, N-[2-(dimethylamino)ethyl]-
##MOLFORM=C7H14N2O
##CAS REGISTRY NO=925-76-8
##MP= -300
##BP= -300
##MW= 142
##$RETENTION INDEX=0
##$CONDENSED SPECTRUM=NO
##NPOINTS= 23
##XYDATA=(XY..XY) 1 
    15          3
    26          5
    27         43
    29          7
    30         35
    41          7
    42        109
    43         23
    44         25
    45          5
    54          4
    55         96
    56         43
    57         28
    58        999
    59         38
    70         13
    71        105
    72         25
    73          2
    86          2
    88          6
    99         13