##TITLE=Library Entry 7894
##JCAMP-DX=Revision 4.10 
##DATA TYPE=MASS SPECTRUM
##SAMPLE DESCRIPTION=Japan AIST/NIMC Database- Spectrum MS-NW-3983
##NAMES=HP
##CAS NAME=3-Nonanone
##MOLFORM=C9H18O
##CAS REGISTRY NO=925-78-0
##MP= -300
##BP= -300
##MW= 142
##$RETENTION INDEX=1090
##$CONDENSED SPECTRUM=NO
##NPOINTS= 70
##XYDATA=(XY..XY) 1 
    14          1
    15          9
    18          4
    26         12
    27        169
    28         41
    29        445
    30         10
    31          6
    32          1
    37          1
    38          4
    39         71
    40         12
    41        205
    42         32
    43        999
    44         34
    45          7
    50          3
    51          5
    52          2
    53         18
    54          8
    55         59
    56         28
    57        769
    58         49
    59          9
    63          1
    64          1
    65          3
    66          1
    67          9
    68         15
    69         26
    70          9
    71         22
    72        694
    73         97
    74          5
    77          2
    79          2
    81          4
    82          2
    83          5
    84          5
    85        289
    86         26
    87          1
    90          1
    91          1
    93          1
    95         34
    96          3
    97          1
    99         20
   100         16
   101          1
   105          1
   109          1
   111          1
   112          2
   113        403
   114         34
   115          2
   123          1
   124          3
   142         39
   143          5