##TITLE=Library Entry 38296
##JCAMP-DX=Revision 4.10 
##DATA TYPE=MASS SPECTRUM
##SAMPLE DESCRIPTION=V.G.Zaikin, TIPS, Russian Acad. Sci.
##NAMES=HP
##CAS NAME=4-Pentadecanone
##MOLFORM=C15H30O
##CAS REGISTRY NO=925-51-9
##MP= -300
##BP= -300
##MW= 226
##$RETENTION INDEX=0
##$CONDENSED SPECTRUM=NO
##NPOINTS= 33
##XYDATA=(XY..XY) 1 
    39        140
    40         40
    41        360
    42        120
    43        800
    44         60
    53         60
    54         40
    55        330
    56        180
    57         40
    58        100
    59        140
    68         70
    69         40
    70        100
    71        999
    72        160
    73        250
    85        250
    86        180
    87         80
    99        100
   112         20
   113         80
   127         60
   141         60
   155         30
   169         30
   183        250
   184         50
   226         30
   227          5