##TITLE=Library Entry 74135
##JCAMP-DX=Revision 4.10 
##DATA TYPE=MASS SPECTRUM
##SAMPLE DESCRIPTION=V.G. Zaikin, R.S.Borisov, TIPS RAS, Moscow, Russia
##NAMES=HP
##CAS NAME=Butanedioic acid, bis(2-methylpropyl) ester
##MOLFORM=C12H22O4
##CAS REGISTRY NO=925-06-4
##MP= -300
##BP= -300
##MW= 230
##$RETENTION INDEX=1451
##$CONDENSED SPECTRUM=NO
##NPOINTS= 48
##XYDATA=(XY..XY) 1 
    26          2
    27         14
    29         30
    31          2
    36          5
    39         15
    40          2
    41         62
    42          7
    43         18
    44          2
    45          6
    53          1
    55         35
    56         83
    57        357
    58         14
    71          4
    72          3
    73         32
    74         17
    75          3
    84          9
    85          1
    86          2
    99          3
   100         15
   101        999
   102         37
   103          9
   114         14
   115          4
   118          3
   119        130
   120          5
   130         15
   131          2
   132          2
   141          7
   155          2
   156          4
   157        141
   158         12
   159          5
   175         37
   176          3
   215          1
   231          2