##TITLE=Library Entry 66049
##JCAMP-DX=Revision 4.10 
##DATA TYPE=MASS SPECTRUM
##SAMPLE DESCRIPTION=D.HENNEBERG, MAX-PLANCK INSTITUTE, MULHEIM, WEST GERMAN
Y
##NAMES=HP
##CAS NAME=1,3,6-Heptatriene, 5-methyl-
##MOLFORM=C8H12
##CAS REGISTRY NO=925-52-0
##MP= -300
##BP= -300
##MW= 108
##$RETENTION INDEX=1549
##$CONDENSED SPECTRUM=NO
##NPOINTS= 69
##XYDATA=(XY..XY) 1 
    26         84
    27        334
    28         60
    29        166
    30          4
    31          0
    34          0
    37          2
    38          8
    39        426
    40         76
    41        409
    42         26
    43         12
    44          2
    45          3
    46          1
    47          0
    48          0
    49          2
    50         30
    51        103
    52         77
    53        274
    54         88
    55        273
    56         28
    57          2
    58          1
    59          1
    62          2
    63         25
    64         11
    65        206
    66        190
    67        122
    68         32
    69          8
    70          2
    74          1
    75          7
    76          3
    77        921
    78        176
    79        591
    80        406
    81        125
    82          8
    83          1
    84          0
    89         15
    90          6
    91        721
    92         86
    93        999
    94         76
    95         44
    96          3
    97          0
   101          0
   102          0
   103          7
   104          2
   105         30
   106          4
   107         66
   108        209
   109         18
   110          5