##TITLE=Library Entry 3879
##JCAMP-DX=Revision 4.10 
##DATA TYPE=MASS SPECTRUM
##SAMPLE DESCRIPTION=NIST Mass Spectrometry Data Center, 1990.
##NAMES=HP
##CAS NAME=Diallyl succinate
##MOLFORM=C10H14O4
##CAS REGISTRY NO=925-16-6
##MP= -300
##BP= -300
##MW= 198
##$RETENTION INDEX=1310
##$CONDENSED SPECTRUM=NO
##NPOINTS= 57
##XYDATA=(XY..XY) 1 
    14          2
    15          8
    18          0
    25          2
    26         30
    27         94
    28        123
    29         78
    30          5
    31         12
    37          3
    38         20
    39        188
    40          2
    41        999
    42         62
    43         26
    44          2
    45         27
    53          4
    54         17
    55        151
    56        105
    57         98
    58          6
    66          2
    67          8
    68         10
    69         10
    70          7
    71         10
    72          2
    73         80
    74          5
    79          3
    80         11
    81         23
    83         11
    84         10
    85          2
    94          8
    95          6
    96          3
    97          6
    98         10
    99          5
   100          2
   101        327
   102         14
   111          3
   112         10
   113         11
   114         12
   140         75
   141        204
   142         16
   143          2