##TITLE=Library Entry 84316
##JCAMP-DX=Revision 4.10 
##DATA TYPE=MASS SPECTRUM
##SAMPLE DESCRIPTION=T. Jones, LC, NHLBI, NIH, Bethesda, MD 20892
##NAMES=HP
##CAS NAME=2-Methyl-6-(3-hydroxynonyl)pyridine
##MOLFORM=C15H25NO
##CAS REGISTRY NO=92512-83-9
##MP= -300
##BP= -300
##MW= 235
##$RETENTION INDEX=0
##$CONDENSED SPECTRUM=NO
##NPOINTS= 177
##XYDATA=(XY..XY) 1 
    41         99
    42         34
    43         97
    44        111
    45          7
    46          2
    47          0
    48          1
    50          4
    51         13
    52         10
    53         18
    54          8
    55         44
    56          8
    57         17
    58          3
    59          1
    60          1
    61          1
    62          1
    63          6
    64          7
    65         45
    66         32
    67         13
    68          2
    69          8
    70          5
    71          5
    72          1
    73          3
    74          0
    75          3
    76          2
    77         46
    78         14
    79         31
    80          8
    81          6
    82          3
    83          3
    84          1
    85          3
    86          0
    87          1
    89          2
    90          2
    91         11
    92         41
    93         55
    94         20
    95          4
    96          2
    97          4
    98          1
    99          0
   100          1
   101          0
   102          1
   103          2
   104          6
   105          4
   106         56
   107        999
   108         84
   109          6
   110          1
   111          2
   112          0
   113          2
   115          2
   116          3
   117         12
   118         14
   119          9
   120        358
   121        157
   122         15
   123          1
   124          1
   125          0
   126          1
   127          0
   128          2
   129          0
   130          8
   131         20
   132         44
   133         28
   134         10
   135          3
   136          6
   137          2
   138          0
   139          0
   140          0
   141          2
   142          3
   143          1
   144         10
   145          4
   146         26
   147         11
   148         28
   149          4
   150        395
   151         43
   152          4
   153          0
   154          0
   155          1
   156          1
   157          1
   158          4
   159          1
   162          3
   163          4
   164         11
   165          2
   166          1
   167          0
   168          2
   169          1
   170          1
   172          2
   173          0
   174          8
   175          1
   176         11
   177          2
   178          9
   179          1
   181          2
   182          1
   183          0
   184          0
   185          0
   186          0
   187          0
   188          9
   189          2
   190          1
   191          1
   192          4
   193          1
   194          1
   195          1
   196          0
   197          1
   200          0
   201          0
   202         11
   203          2
   204          1
   205          0
   206          5
   207          5
   208          1
   209          1
   210          0
   211          0
   213          0
   214          0
   215          0
   216          5
   217          2
   218         34
   219          7
   220          3
   221          2
   223          0
   226          1
   234         15
   235          6
   236          3
   238          0