##TITLE=Library Entry 86641
##JCAMP-DX=Revision 4.10 
##DATA TYPE=MASS SPECTRUM
##SAMPLE DESCRIPTION=V.A.Korolev, Moscow, Russia
##NAMES=HP
##CAS NAME=1-[(4-Fluorophenyl)methyl]piperidin-4-amine
##MOLFORM=C12H17FN2
##CAS REGISTRY NO=92539-14-5
##MP= -300
##BP= -300
##MW= 208
##$RETENTION INDEX=0
##$CONDENSED SPECTRUM=NO
##NPOINTS= 77
##XYDATA=(XY..XY) 1 
    35          4
    36          2
    37          5
    38          7
    39         41
    40         23
    41         46
    42        154
    43         88
    44        130
    45          4
    50         11
    51         14
    52          8
    53          6
    54         26
    55         52
    56        180
    57         50
    58         44
    59         10
    62          4
    63         22
    64          4
    65          4
    67          2
    68         10
    69         12
    70        148
    71         17
    75          8
    76          2
    77          5
    80          5
    81         13
    82         61
    83        121
    84          5
    86          4
    89         19
    91          2
    94          2
    95          5
    96         22
    97          1
    99        162
   100          7
   101          2
   107         29
   108         12
   109        999
   110         94
   122         20
   123          5
   124          6
   135          7
   136         45
   137         29
   138         13
   149          4
   150         20
   151         25
   152          6
   162          5
   163          4
   164         34
   165         15
   176         17
   181         12
   189          2
   190         79
   191        183
   192         25
   201          1
   208         98
   209         10
   210          2