##TITLE=Library Entry 6592
##JCAMP-DX=Revision 4.10 
##DATA TYPE=MASS SPECTRUM
##SAMPLE DESCRIPTION=Chemical Concepts
##NAMES=HP
##CAS NAME=1,5-Diacetyl-3,7-bis(3-chloropropionyl)-octahydro-1,3,5,7-tetraaz
ocine
##MOLFORM=C14H22Cl2N4O4
##CAS REGISTRY NO=92531-04-9
##MP= -300
##BP= -300
##MW= 380
##$RETENTION INDEX=0
##$CONDENSED SPECTRUM=NO
##NPOINTS= 170
##XYDATA=(XY..XY) 1 
    33          3
    36        148
    38         45
    40         76
    42        884
    43        999
    45        116
    46          6
    49          8
    50          5
    52          7
    53          9
    55        240
    56         88
    57        118
    58         19
    59          8
    60         16
    63        224
    65         71
    68         18
    69         38
    70         25
    71         48
    72        101
    73          9
    74          2
    75          2
    76          3
    77          4
    78          2
    79          1
    80          2
    81          4
    82         13
    85        356
    87         75
    89          9
    91        101
    93         35
    94          3
    95          5
    96         16
    97         32
    99         83
   100         48
   101         14
   102          2
   103          1
   104          2
   105          4
   106          1
   108          9
   109          7
   110          8
   111         17
   113        149
   114         10
   115          3
   116          1
   117          3
   118          5
   120         37
   122         15
   123          7
   124          6
   125          7
   126         17
   127         22
   128         16
   129          6
   130          4
   132         31
   133         40
   135        102
   137         29
   138          2
   139          4
   140         13
   141         20
   142          4
   143          2
   144          1
   147         39
   148         67
   149         51
   150         18
   151         12
   152          3
   153          4
   154         12
   155         38
   156          5
   157          1
   158          3
   161         53
   162         12
   163         12
   164          4
   166         14
   168         26
   169         25
   170          9
   171          3
   172          1
   173          1
   174          3
   175          7
   177         90
   178          9
   179         20
   180          2
   182          6
   183          1
   188          3
   189         10
   191         80
   192         11
   193         17
   194          2
   200          1
   202         22
   204        145
   205         20
   206         37
   207          4
   214          1
   216          1
   218         10
   219          9
   220          5
   221          1
   225          4
   226          3
   227          2
   229          1
   230          4
   231          3
   232          2
   233          1
   238          3
   246          2
   247          2
   248          5
   250          2
   254          2
   255          1
   256          1
   260          3
   261          1
   262          3
   264          1
   266          6
   268          4
   272          1
   273          9
   274          3
   275          3
   276          1
   277          1
   296          4
   297          1
   298          2
   309          6
   310          1
   321          1
   345          9
   346          1
   347          3
   380          1