##TITLE=Library Entry 97942
##JCAMP-DX=Revision 4.10 
##DATA TYPE=MASS SPECTRUM
##SAMPLE DESCRIPTION=Div. of Experiment Therapeutics WRAIR, WRAMC, Washingto
n DC 20307
##NAMES=HP
##CAS NAME=2,5-Diphenyl-2,5-dihydro-3,4-diketo thiophene-1,1-dioxide
##MOLFORM=C16H12O4S
##CAS REGISTRY NO=92540-20-0
##MP= -300
##BP= -300
##MW= 300
##$RETENTION INDEX=0
##$CONDENSED SPECTRUM=NO
##NPOINTS= 100
##XYDATA=(XY..XY) 1 
    41          8
    43          3
    45         10
    50         31
    51        114
    52         16
    53         22
    55          4
    57          1
    61          6
    62         47
    63        174
    64         71
    65         44
    66         10
    67          0
    69          9
    74          9
    75         20
    76         27
    77        154
    78         29
    79         21
    82         11
    83          1
    86          6
    87         11
    88         13
    89        449
    90        553
    91         88
    92          6
    93          0
    95         25
   101          5
   102         58
   103         22
   104         11
   105        264
   106         21
   107         37
   108          4
   109         10
   110          3
   111          0
   113          1
   115          5
   117         12
   118        999
   119         94
   120          3
   121        264
   122         24
   123         13
   124          1
   126          3
   127          0
   129          6
   130         52
   131         29
   132          2
   135         66
   136          6
   137         10
   138          3
   139          6
   145          7
   147          3
   150          3
   151          5
   152         11
   153          3
   163          3
   164          1
   165         44
   166          7
   176          8
   177          7
   178         57
   179         69
   180         13
   181          2
   189         16
   190          5
   191          9
   192          2
   193          5
   206          6
   207         73
   208         46
   209          6
   218          3
   224          0
   235         11
   236         26
   237          4
   300        244
   301         45
   302         15
   303          1