##TITLE=Library Entry 45203
##JCAMP-DX=Revision 4.10 
##DATA TYPE=MASS SPECTRUM
##SAMPLE DESCRIPTION=Dennis Rohrbaugh, CBDCOM/ERDEC, Edgewood, MD
##NAMES=HP
##CAS NAME=Ethane, 1-[(2-chloroethyl)thio]-2-(ethylthio)-
##MOLFORM=C6H13ClS2
##CAS REGISTRY NO=92569-22-7
##MP= -300
##BP= -300
##MW= 184
##$RETENTION INDEX=0
##$CONDENSED SPECTRUM=NO
##NPOINTS= 38
##XYDATA=(XY..XY) 1 
    33        109
    35        489
    41        193
    45        757
    46        354
    47        627
    49        150
    50         79
    57        119
    59        821
    60        510
    61        639
    63        522
    65        169
    73        190
    75        999
    77        201
    78         50
    88        110
    89        764
    90        122
    91         99
    92        143
    93        202
   109        221
   121        108
   122        113
   123        248
   124         68
   125         72
   127         92
   148        170
   149         60
   150         48
   152         28
   184        283
   185         48
   186        129