##TITLE=Library Entry 33392
##JCAMP-DX=Revision 4.10 
##DATA TYPE=MASS SPECTRUM
##SAMPLE DESCRIPTION=Chemical Concepts
##NAMES=HP
##CAS NAME=1,3-Oxathiolan-5-one, 2-(1,1-dimethylethyl)-4-(1-hydroxy-2-cycloh
exen-1-yl)-4-methyl-, [2.alpha.,4.beta.(S*)]-(.+-.)-
##MOLFORM=C14H22O3S
##CAS REGISTRY NO=92572-66-2
##MP= -300
##BP= -300
##MW= 270
##$RETENTION INDEX=0
##$CONDENSED SPECTRUM=NO
##NPOINTS= 112
##XYDATA=(XY..XY) 1 
    26         53
    27        326
    28         89
    29        276
    30          6
    31         16
    34          6
    35         25
    37         22
    38         50
    39        421
    40        241
    41        608
    42         87
    43        107
    44         15
    45         87
    46          6
    47         15
    49          6
    50         29
    51         45
    52         18
    53         84
    54         20
    55        144
    56        105
    57        907
    58         35
    59        211
    60        230
    61        242
    62         24
    63         25
    65         36
    66         15
    67         62
    68        999
    69         80
    70        399
    71         56
    72          6
    73          5
    74         27
    75          6
    76          5
    77         45
    78         16
    79         58
    80          6
    81         21
    82          5
    83          8
    84          4
    85         26
    86         12
    87         63
    88         83
    89        413
    90         26
    91         52
    92          6
    93          6
    95         15
    96        220
    97        231
    98         16
    99          5
   101          8
   102          6
   103         21
   104         23
   105         88
   106         12
   107         19
   109          8
   111          7
   112          4
   113          5
   115          8
   116         13
   117        325
   118         43
   119         45
   121          5
   123         16
   127         10
   131         26
   132         24
   133          9
   134          6
   135         35
   136          3
   137          8
   138         14
   139         11
   140          7
   141          8
   149         34
   150         15
   151         53
   152          8
   157          8
   160          5
   167         10
   168          4
   174        229
   175         22
   176         11
   223          1
   224          0
   252          0