##TITLE=Library Entry 29652
##JCAMP-DX=Revision 4.10 
##DATA TYPE=MASS SPECTRUM
##SAMPLE DESCRIPTION=Chemical Concepts
##NAMES=HP
##CAS NAME=4-Allyl-2-t-butyl-4-methyl-1,3-oxathiolan-5-one
##MOLFORM=C11H18O2S
##CAS REGISTRY NO=92572-53-7
##MP= -300
##BP= -300
##MW= 214
##$RETENTION INDEX=0
##$CONDENSED SPECTRUM=NO
##NPOINTS= 134
##XYDATA=(XY..XY) 1 
    26         13
    27        114
    28         14
    29        133
    30          3
    31          2
    33          1
    34          2
    35          6
    36          1
    37          4
    38         10
    39        165
    40         25
    41        357
    42         26
    43         52
    44          6
    45         67
    46          4
    47         17
    48          1
    49          1
    50          5
    51         12
    52          4
    53         44
    54          6
    55         48
    56         23
    57        298
    58         37
    59        999
    60         82
    61         79
    62          6
    63          5
    64          0
    65         26
    66          7
    67         89
    68         26
    69        116
    70         18
    71         34
    72          5
    73         17
    74         18
    75          3
    76          1
    77          5
    78          1
    79         10
    80          2
    81         11
    82          2
    83          5
    84          3
    85        150
    86         10
    87         29
    88         22
    89         70
    90          4
    91          5
    92          1
    93          2
    94          1
    95         26
    96         14
    97          6
    98          2
    99         36
   100        130
   101         75
   102         11
   103         10
   104          1
   105          2
   107          0
   108          1
   109          2
   110          1
   111          6
   112          2
   113         19
   114          5
   115          4
   116          7
   117         53
   118          7
   119          7
   120          0
   121          1
   123          1
   124          0
   125          1
   126          0
   127          3
   128         19
   129         91
   130         10
   131          9
   132          2
   133          1
   134          0
   135          1
   137          0
   139          1
   141          2
   142          0
   143          0
   144          1
   145         19
   146          3
   147          1
   148          0
   157         32
   158          5
   159          7
   160          1
   161          0
   167          1
   169          1
   170          1
   171          4
   172          6
   173        207
   174         40
   175         15
   176          2
   214         19
   215          3
   216          1