##TITLE=Library Entry 39465
##JCAMP-DX=Revision 4.10 
##DATA TYPE=MASS SPECTRUM
##SAMPLE DESCRIPTION=Chemical Concepts
##NAMES=HP
##CAS NAME=1,3-Dioxolan-4-one, 2-(1,1-dimethylethyl)-5-(phenylmethyl)-5-prop
yl-, (2S-cis)-
##MOLFORM=C17H24O3
##CAS REGISTRY NO=92572-46-8
##MP= -300
##BP= -300
##MW= 276
##$RETENTION INDEX=0
##$CONDENSED SPECTRUM=NO
##NPOINTS= 101
##XYDATA=(XY..XY) 1 
    27         36
    28          6
    29         47
    31          5
    39         32
    40          3
    41        106
    42         14
    43        357
    44         16
    45          5
    50          2
    51         12
    52          3
    53          7
    54          1
    55         21
    56         12
    57        113
    58          6
    59          4
    63          7
    64          2
    65         45
    66          3
    67          6
    68          1
    69         13
    70         19
    71        999
    72         60
    73          5
    76          2
    77         19
    78         12
    79         10
    83          2
    84          1
    85         22
    86          4
    87          7
    89         10
    90          7
    91        323
    92         43
    93          6
    97          2
   100          3
   102          4
   103         17
   104          8
   105         21
   106          3
   107         27
   108          2
   115         34
   116         13
   117         32
   118          9
   119         13
   120          2
   121         29
   122          2
   127          4
   128         12
   129         10
   130          5
   131          5
   132          2
   133          8
   134          3
   141          2
   143          4
   144          3
   145         48
   146          9
   147         10
   149          3
   156          5
   157        120
   158         12
   162          8
   163        431
   164         51
   165          4
   173         22
   174         28
   175         13
   176          2
   177          1
   184        103
   185         59
   186          8
   191          1
   218          3
   219         34
   220          5
   275          4
   276         50
   277         10
   278          1