##TITLE=Library Entry 37250
##JCAMP-DX=Revision 4.10 
##DATA TYPE=MASS SPECTRUM
##SAMPLE DESCRIPTION=Chemical Concepts
##NAMES=HP
##CAS NAME=4-(1,3)Dioxolanone, 2-(1,1-dimethylethyl)-5-(1-hydroxypropyl)-5-m
ethyl-
##MOLFORM=C11H20O4
##CAS REGISTRY NO=92572-59-3
##MP= -300
##BP= -300
##MW= 216
##$RETENTION INDEX=0
##$CONDENSED SPECTRUM=NO
##NPOINTS= 71
##XYDATA=(XY..XY) 1 
    26         10
    27         94
    28         53
    29        188
    30         10
    31        109
    38          2
    39         53
    40         11
    41        246
    42         95
    43        482
    44         27
    45         48
    47          7
    51          3
    53         15
    54          6
    55        226
    56         22
    57        245
    58        105
    59        131
    60          4
    61         26
    65          2
    67         12
    68          5
    69         99
    70        999
    71        190
    72         19
    73         10
    74         16
    75          6
    83          8
    84          4
    85        223
    86         66
    87        388
    88         21
    89          4
    90         24
    91          2
    95          5
    97          4
    98          2
    99          7
   100          4
   101         46
   102          5
   103        302
   104         16
   105          2
   113         28
   114          3
   115         28
   116          2
   129          2
   130          3
   131         43
   132          2
   143          3
   158        424
   159        112
   160         10
   175          2
   179          2
   187          1
   201          0
   217          5