##TITLE=Library Entry 61587
##JCAMP-DX=Revision 4.10 
##DATA TYPE=MASS SPECTRUM
##SAMPLE DESCRIPTION=Chemical Concepts
##NAMES=HP
##CAS NAME=1,3-Dioxolan-4-one, 2-(1,1-dimethylethyl)-5-(phenylmethyl)-5-(2-p
ropenyl)-, (2S-cis)-
##MOLFORM=C17H22O3
##CAS REGISTRY NO=92572-47-9
##MP= -300
##BP= -300
##MW= 274
##$RETENTION INDEX=0
##$CONDENSED SPECTRUM=NO
##NPOINTS= 110
##XYDATA=(XY..XY) 1 
    27         23
    28          4
    29         50
    38          3
    39         62
    40         10
    41        227
    42         22
    43         35
    44          1
    45          2
    50          5
    51         19
    52          5
    53          8
    54          1
    55         25
    56          4
    57         90
    58          4
    62          3
    63         14
    64          5
    65         80
    66          8
    67          3
    68         24
    69        234
    70         29
    71         41
    72          3
    74          1
    75          4
    76          4
    77         22
    78         11
    79          5
    82          1
    83          1
    84          0
    85          6
    86          1
    87         16
    88          3
    89         21
    90         21
    91        999
    92        112
    93          6
    96          2
    97          3
    98          2
   102          6
   103         12
   104          4
   105          9
   106          1
   107          2
   111          2
   114          1
   115         30
   116          9
   117          7
   118         14
   119        288
   120         33
   121          3
   126          1
   127          8
   128         31
   129         17
   130          2
   131          5
   132          1
   133          1
   139          2
   141         11
   142          9
   143         12
   144          3
   145          2
   147          1
   153          1
   154          4
   155         23
   156          3
   160          3
   161         37
   162          5
   167          5
   171         22
   172         13
   173          4
   181          1
   182         11
   183          5
   188          6
   189         14
   190          2
   205        120
   206         20
   207          2
   217         20
   218          4
   230          3
   233         65
   234         11
   235          2
   274          5
   275          1