##TITLE=Library Entry 23315
##JCAMP-DX=Revision 4.10 
##DATA TYPE=MASS SPECTRUM
##SAMPLE DESCRIPTION=Chemical Concepts
##NAMES=HP
##CAS NAME=[1,3]Oxathiolane-4-acetic acid, 2-(1,1-dimethylethyl)-5-oxo-
##MOLFORM=C9H14O4S
##CAS REGISTRY NO=92587-19-4
##MP= -300
##BP= -300
##MW= 218
##$RETENTION INDEX=0
##$CONDENSED SPECTRUM=NO
##NPOINTS= 100
##XYDATA=(XY..XY) 1 
    25         13
    26         82
    27        252
    28         81
    29        373
    30          8
    31         14
    33          8
    34         13
    35         12
    36          7
    37          8
    38         17
    39        168
    40         19
    41        664
    42         47
    43        124
    44         34
    45        118
    46          8
    47         12
    50          9
    51         13
    52          4
    53         29
    54         31
    55        118
    56         69
    57        999
    58         58
    59        115
    60        112
    61         18
    62          7
    63         17
    65          6
    66          4
    67         16
    68          6
    69         73
    70        153
    71         73
    72         15
    73         12
    74         10
    75          8
    76          7
    77          7
    79         10
    81         12
    82          7
    83         15
    84          5
    85         14
    86         77
    87        180
    88         13
    89         10
    91          8
    92          4
    93          5
    95          9
    97         12
    98          6
    99         58
   100         43
   101         18
   102          8
   103          7
   104         90
   105        255
   106         17
   107         14
   109          6
   111          7
   115         27
   116         24
   117          5
   118         10
   123          4
   129          6
   132         13
   133         62
   134          5
   141          7
   144         20
   145         10
   149          5
   157         11
   161        130
   162         14
   163         12
   172         76
   173          8
   174          5
   200         24
   201          4
   218         78
   219         11