##TITLE=Library Entry 32343
##JCAMP-DX=Revision 4.10 
##DATA TYPE=MASS SPECTRUM
##SAMPLE DESCRIPTION=NIST Mass Spectrometry Data Center, 1990.
##NAMES=HP
##CAS NAME=1,3-Pentadiene, 2-methyl-, (E)-
##MOLFORM=C6H10
##CAS REGISTRY NO=926-54-5
##MP= -300
##BP= -300
##MW= 82
##$RETENTION INDEX=627
##$CONDENSED SPECTRUM=NO
##NPOINTS= 31
##XYDATA=(XY..XY) 1 
    14         20
    15         30
    26         24
    27        128
    28        153
    29         22
    32         44
    37         22
    38         64
    39        412
    40         88
    41        352
    42         62
    50         67
    51         80
    52         37
    53        138
    54        123
    55         35
    56         18
    62         20
    63         34
    65        175
    67        999
    68         56
    77         40
    79         97
    80         19
    81        100
    82        398
    83         30