##TITLE=Library Entry 52844
##JCAMP-DX=Revision 4.10 
##DATA TYPE=MASS SPECTRUM
##SAMPLE DESCRIPTION=Japan AIST/NIMC Database- Spectrum MS-NW-9478
##NAMES=HP
##CAS NAME=Acetonitrile, (dimethylamino)-
##MOLFORM=C4H8N2
##CAS REGISTRY NO=926-64-7
##MP= -300
##BP= -300
##MW= 84
##$RETENTION INDEX=713
##$CONDENSED SPECTRUM=NO
##NPOINTS= 37
##XYDATA=(XY..XY) 1 
    13          2
    14          7
    15         57
    25          1
    26          5
    27         14
    28         51
    29          9
    30         27
    32          1
    34          1
    38          9
    39         20
    40         75
    41         56
    42        472
    43        125
    44         49
    45          4
    47          1
    51          3
    52          5
    53          3
    54          7
    55          2
    56         22
    57         33
    58        499
    59         18
    66          7
    67         34
    68          2
    69         14
    82          8
    83        999
    84        560
    85         27