##TITLE=Library Entry 23446
##JCAMP-DX=Revision 4.10 
##DATA TYPE=MASS SPECTRUM
##SAMPLE DESCRIPTION=NIST Mass Spectrometry Data Center, 1990.
##NAMES=HP
##CAS NAME=Heptane, 3,5-dimethyl-
##MOLFORM=C9H20
##CAS REGISTRY NO=926-82-9
##MP= -300
##BP= -300
##MW= 128
##$RETENTION INDEX=834
##$CONDENSED SPECTRUM=NO
##NPOINTS= 44
##XYDATA=(XY..XY) 1 
    14          9
    15          4
    16          4
    27         93
    28          9
    29        162
    30          4
    37          1
    39        124
    41        376
    42         79
    43        212
    44         11
    50          5
    51         11
    52          6
    53         39
    54          1
    55        166
    56        212
    57        999
    58         45
    59          2
    63          2
    65          7
    66          2
    67         13
    68          4
    69         44
    70        143
    71        162
    72          8
    77          3
    79          3
    81          1
    83          8
    84          2
    85          4
    98         67
    99        142
   100         10
   113          3
   128         17
   129          1