##TITLE=Library Entry 16240
##JCAMP-DX=Revision 4.10 
##DATA TYPE=MASS SPECTRUM
##SAMPLE DESCRIPTION=Japan AIST/NIMC Database- Spectrum MS-NW-9114
##NAMES=HP
##CAS NAME=L-Alanine, N-[N-(N-L-alanyl-L-alanyl)-L-alanyl]-
##MOLFORM=C12H22N4O5
##CAS REGISTRY NO=926-79-4
##MP= -300
##BP= -300
##MW= 302
##$RETENTION INDEX=0
##$CONDENSED SPECTRUM=NO
##NPOINTS= 124
##XYDATA=(XY..XY) 1 
    15          8
    16          3
    17          8
    18         76
    26          3
    27         14
    28         49
    29         10
    30          6
    31          2
    32          2
    39          3
    40          4
    41         12
    42         35
    43         26
    44        999
    45         31
    46          2
    52          1
    53          2
    54          7
    55         19
    56         25
    57         12
    58         38
    59          3
    60          1
    67          2
    68          3
    69          7
    70         26
    71         29
    72         13
    73          4
    74          1
    80          1
    81          4
    82          9
    83          7
    84          8
    85          4
    86          3
    87         21
    88          3
    89         10
    90         41
    91          2
    95          2
    96          2
    97          4
    98          5
    99         74
   100         15
   101          2
   107          1
   109          2
   110          1
   111          3
   112          2
   113         10
   114          4
   115         97
   116         17
   117          2
   123          2
   124          4
   125          4
   126          3
   127         84
   128          7
   129          2
   133          2
   137          1
   138          1
   139          1
   140          1
   141         13
   142          6
   143        124
   144         10
   145         15
   146          1
   149          1
   150          2
   151          2
   152          3
   153          2
   157          2
   158          1
   159          1
   160          2
   161          6
   166          1
   167          3
   168          2
   169         21
   170          5
   171          1
   172          1
   178          2
   185          2
   186         10
   187          9
   188         10
   189          1
   195          2
   196          1
   198          5
   199          1
   213          2
   214          6
   215          1
   216        107
   217         11
   218          1
   224          1
   231          9
   232          1
   241          1
   258          2
   259          4
   260          1
   303          3