##TITLE=Library Entry 6677
##JCAMP-DX=Revision 4.10 
##DATA TYPE=MASS SPECTRUM
##SAMPLE DESCRIPTION=Japan AIST/NIMC Database- Spectrum MS-IW-3819
##NAMES=HP
##CAS NAME=Propane, 2-(ethenyloxy)-
##MOLFORM=C5H10O
##CAS REGISTRY NO=926-65-8
##MP= -300
##BP= -300
##MW= 86
##$RETENTION INDEX=0
##$CONDENSED SPECTRUM=NO
##NPOINTS= 45
##XYDATA=(XY..XY) 1 
    13          1
    14          9
    15         42
    16          1
    18          2
    25          2
    26         25
    27        281
    28         18
    29         48
    30          1
    31         35
    32          1
    37          8
    38         18
    39        157
    40         33
    41        614
    42        191
    43        999
    44        863
    45        316
    46          9
    47          1
    50          1
    51          1
    53          2
    55          5
    56          2
    57         28
    58        177
    59         65
    60          2
    61          1
    67          2
    68          3
    69          2
    70          1
    71         32
    72          9
    73          1
    85         21
    86        473
    87         39
    88          2