##TITLE=Library Entry 1006
##JCAMP-DX=Revision 4.10 
##DATA TYPE=MASS SPECTRUM
##SAMPLE DESCRIPTION=Japan AIST/NIMC Database- Spectrum MS-IW-4280
##NAMES=HP
##CAS NAME=Glycyl-dl-alanine
##MOLFORM=C5H10N2O3
##CAS REGISTRY NO=926-77-2
##MP= -300
##BP= -300
##MW= 146
##$RETENTION INDEX=0
##$CONDENSED SPECTRUM=NO
##NPOINTS= 99
##XYDATA=(XY..XY) 1 
    12          2
    13          2
    14          8
    15         26
    16          7
    17         22
    18         82
    19          1
    24          1
    25          5
    26         58
    27        196
    28        400
    29        101
    30        999
    31        196
    32          6
    36          1
    37          3
    38          9
    39         19
    40         48
    41         87
    42        113
    43         81
    44        667
    45         51
    46          4
    47          1
    50          2
    51          9
    52         18
    53         24
    54         42
    55         45
    56         71
    57         66
    58          8
    59          5
    60          1
    63          1
    64          2
    65          3
    66          2
    67          9
    68          4
    69          5
    70         44
    71         10
    72          9
    73         30
    74         16
    75          1
    77          1
    78          1
    80          1
    81          7
    82          7
    83          6
    84          5
    85        208
    86         12
    87          2
    88         17
    89          3
    90         10
    91          1
    92          1
    94          1
    95          1
    96          1
    97          2
    98          3
    99          8
   100         23
   101         39
   102          4
   103        105
   104          5
   105          1
   110          6
   111          4
   112          5
   113          2
   114          2
   117          1
   118         15
   119          1
   124          1
   125          1
   126          3
   127          5
   128         58
   129         10
   130          1
   131          1
   146         32
   147         37
   148          2