##TITLE=Library Entry 23468
##JCAMP-DX=Revision 4.10 
##DATA TYPE=MASS SPECTRUM
##SAMPLE DESCRIPTION=MINISTRY OF TECH. E.R.D.E., WALTHAM ABBEY, UK
##NAMES=HP
##CAS NAME=1-Propanol, 2,2-dimethyl-, nitrate
##MOLFORM=C5H11NO3
##CAS REGISTRY NO=926-42-1
##MP= -300
##BP= -300
##MW= 133
##$RETENTION INDEX=798
##$CONDENSED SPECTRUM=NO
##NPOINTS= 25
##XYDATA=(XY..XY) 1 
    15         25
    26         13
    27        157
    28         77
    29        421
    30        106
    31         28
    39        197
    40         30
    41        563
    42         67
    43        551
    44         34
    45         11
    46        424
    53         17
    55         79
    56         37
    57        999
    58         52
    71        164
    72         76
    76         16
   118          4
   132          1