##TITLE=Library Entry 76766
##JCAMP-DX=Revision 4.10 
##DATA TYPE=MASS SPECTRUM
##SAMPLE DESCRIPTION=TNO Volatile Compounds in Food - Chemical Concepts
##NAMES=HP
##CAS NAME=Thioacetic acid, O-ethyl ester
##MOLFORM=C4H8OS
##CAS REGISTRY NO=926-67-0
##MP= -300
##BP= -300
##MW= 104
##$RETENTION INDEX=0
##$CONDENSED SPECTRUM=NO
##NPOINTS= 36
##XYDATA=(XY..XY) 1 
    25          4
    26         43
    27        212
    28         70
    29        219
    30          7
    31          6
    32         22
    33          9
    34          6
    35          4
    39          2
    41          5
    42         58
    43        913
    44         96
    45         90
    46         15
    47         21
    57         34
    58        149
    59        581
    60        261
    61        176
    62         22
    63          8
    71        113
    72          4
    75         11
    76        230
    77         11
    78         10
    86         13
   104        999
   105         57
   106         47