##TITLE=Library Entry 49392
##JCAMP-DX=Revision 4.10 
##DATA TYPE=MASS SPECTRUM
##SAMPLE DESCRIPTION=NIST Mass Spectrometry Data Center, 1990.
##NAMES=HP
##CAS NAME=1-Penten-3-yne, 2-methyl-
##MOLFORM=C6H8
##CAS REGISTRY NO=926-55-6
##MP= -300
##BP= -300
##MW= 80
##$RETENTION INDEX=0
##$CONDENSED SPECTRUM=NO
##NPOINTS= 42
##XYDATA=(XY..XY) 1 
    12          4
    13          4
    14          8
    15         31
    16          3
    25          7
    26         50
    27        183
    28         19
    29          4
    31          8
    32          1
    36         15
    37         88
    38        157
    39        690
    40        103
    41        120
    42          4
    48          6
    49         39
    50        200
    51        242
    52        215
    53        147
    54         37
    60         15
    61         59
    62        108
    63        180
    64         46
    65        296
    66         15
    73         20
    74         53
    75         19
    76         15
    77        576
    78        107
    79        622
    80        999
    81         64