##TITLE=Library Entry 8577
##JCAMP-DX=Revision 4.10 
##DATA TYPE=MASS SPECTRUM
##SAMPLE DESCRIPTION=Chemical Concepts
##NAMES=HP
##CAS NAME=Heptanoic acid, 2,2-dimethyl-6-oxo-, methyl ester
##MOLFORM=C10H18O3
##CAS REGISTRY NO=926-27-2
##MP= -300
##BP= -300
##MW= 186
##$RETENTION INDEX=0
##$CONDENSED SPECTRUM=NO
##NPOINTS= 113
##XYDATA=(XY..XY) 1 
    26          5
    27         64
    28         20
    29         67
    30          2
    31          9
    33          3
    38          5
    39         96
    40         26
    41        331
    42         54
    43        999
    44         26
    45         25
    50          3
    51         10
    52          4
    53         34
    54         12
    55        143
    56        115
    57         41
    58        106
    59        131
    60          7
    61          3
    63          3
    64          2
    65         10
    66          4
    67         46
    68         31
    69        737
    70        116
    71        168
    72         12
    73        420
    74         43
    75          4
    76          2
    77          9
    78          2
    79          9
    80          2
    81         15
    82         19
    83        147
    85         77
    86          6
    87        176
    88         30
    89          3
    91          9
    93         29
    94         11
    95         20
    96          6
    97         94
    98         47
    99          8
   100          3
   101        122
   102        712
   103         55
   104          9
   105          4
   107          5
   108         75
   109        311
   110         31
   111        145
   112         44
   113          9
   114          2
   115         29
   116         36
   117          4
   121          4
   122          2
   123          6
   124          4
   125          6
   126         78
   127        142
   128         16
   129        319
   130         27
   131          4
   135          4
   136          2
   137          1
   138          2
   139         27
   140          4
   141          2
   142          6
   143         36
   144         23
   145          4
   151          2
   154         91
   155         37
   156          3
   157          2
   158          2
   166          2
   167          4
   168          2
   170          1
   171          2
   186         32
   187          4