##TITLE=Library Entry 29956
##JCAMP-DX=Revision 4.10 
##DATA TYPE=MASS SPECTRUM
##SAMPLE DESCRIPTION=Chemical Concepts
##NAMES=HP
##CAS NAME=Butanamide, 3,3-dimethyl-
##MOLFORM=C6H13NO
##CAS REGISTRY NO=926-04-5
##MP= -300
##BP= -300
##MW= 115
##$RETENTION INDEX=1205
##$CONDENSED SPECTRUM=NO
##NPOINTS= 37
##XYDATA=(XY..XY) 1 
    25          7
    27         92
    28         22
    29        138
    30         20
    31          7
    37          3
    38         12
    39        135
    40         18
    41        269
    42         36
    43         54
    44        223
    45          3
    50         10
    51         13
    52          4
    53         21
    54          5
    55         49
    56         36
    57        424
    58         78
    59        999
    60         27
    69          2
    70          1
    71          7
    72          2
    83          2
    84          7
    99          4
   100         42
   101          0
   115          8
   116          0