##TITLE=Library Entry 58329
##JCAMP-DX=Revision 4.10 
##DATA TYPE=MASS SPECTRUM
##SAMPLE DESCRIPTION=Japan AIST/NIMC Database- Spectrum MS-NW- 945
##NAMES=HP
##CAS NAME=1,3-Dichloro-2-butene
##MOLFORM=C4H6Cl2
##CAS REGISTRY NO=926-57-8
##MP= -300
##BP= -300
##MW= 124
##$RETENTION INDEX=812
##$CONDENSED SPECTRUM=NO
##NPOINTS= 67
##XYDATA=(XY..XY) 1 
    14          2
    15          4
    25          6
    26         49
    27        234
    28          7
    29          2
    35         10
    36         33
    37         17
    38         19
    39         75
    40          5
    41          4
    42          2
    43         53
    44          8
    45          2
    47          6
    48          5
    49         44
    50         71
    51        121
    52         36
    53        824
    54         51
    55          5
    57          1
    60          8
    61         39
    62         24
    63         45
    64          9
    65         10
    70          1
    71          7
    72          3
    73         18
    74          2
    75         10
    77          2
    79          1
    83          9
    84          1
    85          6
    86          1
    87         22
    88         31
    89        999
    90         54
    91        320
    92         12
    96          1
    97          3
    98          1
    99          2
   105          1
   109         15
   111          9
   113          2
   123          1
   124        193
   125         10
   126        122
   127          7
   128         19
   129          1