##TITLE=Library Entry 33444
##JCAMP-DX=Revision 4.10 
##DATA TYPE=MASS SPECTRUM
##SAMPLE DESCRIPTION=NIST Mass Spectrometry Data Center
##NAMES=HP
##CAS NAME=Fragranyl propanoate
##MOLFORM=C13H22O2
##CAS REGISTRY NO=926039-04-5
##MP= -300
##BP= -300
##MW= 210
##$RETENTION INDEX=1441
##$CONDENSED SPECTRUM=NO
##NPOINTS= 43
##XYDATA=(XY..XY) 1 
    27         63
    28         45
    29        110
    38          7
    39         60
    40         20
    41        128
    42         33
    43         34
    51         15
    52          9
    53         88
    54         14
    55        100
    56         20
    57        404
    58         11
    59          9
    63         10
    65         34
    67        504
    68        999
    69        123
    75          7
    77         28
    79         58
    80         39
    81         76
    82         37
    91         39
    92         31
    93        216
    94         62
    95         49
    96         10
   105         16
   107        204
   108        199
   109         80
   110         10
   121        170
   122          8
   136          9