##TITLE=Library Entry 73500
##JCAMP-DX=Revision 4.10 
##DATA TYPE=MASS SPECTRUM
##SAMPLE DESCRIPTION=United States Army Criminal Investigation Laboratory (U
SACIL)
##NAMES=HP
##CAS NAME=(4-Methoxyphenyl)-[2-methyl-1-(2-morpholin-4-ylethyl)indol-3-yl]m
ethanone
##MOLFORM=C23H26N2O3
##CAS REGISTRY NO=92623-83-1
##MP= -300
##BP= -300
##MW= 378
##$RETENTION INDEX=0
##$CONDENSED SPECTRUM=NO
##NPOINTS= 287
##XYDATA=(XY..XY) 1 
    38          1
    39          1
    40          1
    41          4
    42         11
    43          2
    44          4
    45          2
    50          1
    51          1
    52          1
    53          1
    54          3
    55          7
    56         50
    57          3
    58          1
    62          1
    63          2
    64          4
    65          1
    66          1
    67          1
    68          1
    69          1
    70         20
    71          2
    72          7
    73          1
    74          1
    75          1
    76          4
    77         23
    78          3
    79          1
    80          1
    81          1
    82          1
    83          1
    84          1
    85          1
    86          1
    87          1
    88          1
    89          3
    90          1
    91          1
    92         14
    93          1
    94          1
    95          1
    96          1
    97          1
    98         13
    99          3
   100        999
   101         60
   102          8
   103          2
   104          2
   105          1
   106          1
   107         11
   108          1
   109          1
   110          1
   111          1
   112          2
   113          2
   114          3
   115         15
   116          4
   117          4
   118          1
   119          1
   120          1
   121          4
   122          1
   123          1
   124          1
   125          1
   126          1
   127          2
   128          6
   129          6
   130          2
   131          1
   132          1
   133          1
   134          1
   135         98
   136          9
   137          1
   138          1
   139          1
   140          1
   141          1
   142          7
   143          7
   144          2
   145          1
   146          1
   147          1
   148          1
   149          1
   150          1
   151          2
   152          3
   153          1
   154          3
   155          1
   156          2
   157          2
   158          1
   159          1
   161          1
   162          1
   163          1
   164          1
   165          2
   166          1
   167          1
   168          1
   169          1
   170          1
   171          1
   172          1
   173          1
   174          1
   175          1
   176          1
   177          1
   178          2
   179          1
   180          1
   181          1
   182          1
   183          1
   184          1
   185          1
   186          1
   187          1
   188          1
   189          1
   190          2
   191          4
   192          4
   193          1
   194          1
   195          1
   196          1
   197          1
   198          1
   200          1
   201          1
   202          1
   203          1
   204          5
   205          3
   206          3
   207          1
   208          1
   210          1
   211          1
   213          1
   214          1
   215          1
   216          1
   217          2
   218          3
   219          2
   220          4
   221          1
   222          1
   223          1
   225          1
   226          1
   227          1
   228          1
   229          1
   230          1
   231          1
   232          1
   233          2
   234          6
   235          1
   236          2
   237          1
   238          1
   239          1
   240          1
   241          1
   242          1
   243          1
   244          1
   245          1
   246          2
   247          2
   248          3
   249          1
   250          1
   251          1
   252          1
   254          1
   255          1
   257          1
   258          1
   259          1
   260          1
   261          1
   262          3
   263          1
   264          2
   265          3
   266          1
   267          1
   268          1
   269          1
   270          1
   271          1
   274          1
   275          1
   276          3
   277          2
   278         11
   279          4
   280          1
   281          1
   282          1
   284          1
   285          1
   288          1
   289          1
   290          3
   291          2
   292          1
   293          1
   295          1
   303          1
   304          1
   305          2
   306          1
   313          1
   315          1
   317          1
   318          1
   319          1
   320          1
   321          1
   322          1
   325          1
   326          1
   327          2
   328          1
   329          1
   331          1
   332          1
   333          2
   334          1
   335          1
   341          1
   342          1
   343          1
   344          1
   345          1
   346          1
   347         13
   348         23
   349          5
   350          1
   355          1
   356          1
   357          1
   358          1
   359          1
   360         12
   361          3
   362          1
   363          3
   364          1
   365          1
   374          1
   375          1
   376          2
   377          2
   378         53
   379         14