##TITLE=Library Entry 66419
##JCAMP-DX=Revision 4.10 
##DATA TYPE=MASS SPECTRUM
##SAMPLE DESCRIPTION=Chemical Concepts
##NAMES=HP
##CAS NAME=1-Pentalenecarboxanilide, 1,2,3,3a,4,5,6,6a-octahydro-
##MOLFORM=C15H19NO
##CAS REGISTRY NO=92651-70-2
##MP= -300
##BP= -300
##MW= 229
##$RETENTION INDEX=0
##$CONDENSED SPECTRUM=NO
##NPOINTS= 101
##XYDATA=(XY..XY) 1 
    26          2
    27         49
    29         29
    30          1
    38          5
    39         60
    41         82
    42          7
    43         10
    50          3
    51         17
    52          6
    53         22
    54          8
    55         44
    56          2
    62          1
    63          5
    64          8
    65         50
    66         30
    67        236
    68         14
    69          3
    73          0
    74          0
    75          1
    76          1
    77         57
    78          7
    79         50
    80         11
    81         35
    82          5
    83          0
    86          1
    89          0
    90          0
    91         21
    92         36
    93        999
    94         77
    95          4
   100          0
   103          1
   104          2
   105          2
   106          5
   107         16
   108          6
   109        359
   110         34
   111          1
   112          0
   115          0
   117          3
   118          2
   119         12
   120         17
   121          1
   122          0
   125          0
   128          0
   129          0
   130          2
   131          1
   132          4
   133          1
   134          2
   135         15
   136         30
   137         50
   138          5
   143          1
   144          2
   145          0
   146          1
   147          0
   148         19
   149          0
   154          0
   156          0
   157          0
   158          2
   161          4
   169          0
   170          1
   172          1
   174          1
   186          6
   187          1
   188         11
   189          2
   200          1
   201          3
   214          0
   227          3
   228         11
   229        219
   230         39
   231          5