##TITLE=Library Entry 54162
##JCAMP-DX=Revision 4.10 
##DATA TYPE=MASS SPECTRUM
##SAMPLE DESCRIPTION=Humboldt-Universitat zu Berlin, Department of Chemistry
, Analytical Group
##NAMES=HP
##CAS NAME=6-Phenyltetrahydropyran-2,4-dione
##MOLFORM=C11H10O3
##CAS REGISTRY NO=92687-12-2
##MP= -300
##BP= -300
##MW= 190
##$RETENTION INDEX=0
##$CONDENSED SPECTRUM=NO
##NPOINTS= 127
##XYDATA=(XY..XY) 1 
    12          3
    13          4
    14         43
    15         44
    16          6
    17         43
    18        162
    25          2
    26         23
    27         90
    28        112
    29         38
    30          2
    31          5
    32          2
    36          1
    37          8
    38         28
    39        126
    40         13
    41         41
    42        380
    43        120
    44         35
    45          7
    46          1
    49          7
    50        132
    51        311
    52         83
    53         18
    54          3
    55         14
    56        256
    57         18
    58          2
    59          1
    60          2
    61          7
    62         22
    63         66
    64         12
    65         52
    66          7
    67          3
    69         45
    70          4
    71         25
    72          1
    73          7
    74         38
    75         32
    76         47
    77        399
    78        359
    79         74
    80          4
    81          1
    82          3
    84        999
    85         93
    86         14
    87          7
    88          1
    89         26
    90          8
    91         68
    92         15
    93          2
    94          3
    95          2
    97          2
    98          7
    99          2
   100          1
   101          5
   102         36
   103        213
   104        826
   105        704
   106        140
   107        131
   108         10
   109          1
   111          1
   112          2
   113          2
   114          1
   115         19
   116          6
   117         10
   118          4
   119          8
   120         25
   121          3
   126          1
   127          5
   128          5
   129          4
   130          1
   131         39
   132          5
   133          1
   141          2
   142          2
   143          1
   144         10
   145         22
   146         21
   147          8
   148          1
   149          1
   155          1
   160          1
   161          4
   162          4
   170          1
   171          3
   172          8
   173          3
   185          1
   186          1
   187          3
   188          1
   190        292
   191         35
   192          4