##TITLE=Library Entry 100274
##JCAMP-DX=Revision 4.10 
##DATA TYPE=MASS SPECTRUM
##SAMPLE DESCRIPTION=NIST Mass Spectrometry Data Center
##NAMES=HP
##CAS NAME=(1R,4R,4aS,8aR)-4,7-Dimethyl-1-(prop-1-en-2-yl)-1,2,3,4,4a,5,6,8a
-octahydronaphthalene
##MOLFORM=C15H24
##CAS REGISTRY NO=92692-39-2
##MP= -300
##BP= -300
##MW= 204
##$RETENTION INDEX=1458
##$CONDENSED SPECTRUM=NO
##NPOINTS= 107
##XYDATA=(XY..XY) 1 
    27         21
    29         38
    30          2
    38          2
    39         92
    40         21
    41        166
    42         17
    43         18
    50          5
    51         36
    52         18
    53        130
    54         15
    55        176
    56         55
    57         21
    58          2
    62          2
    63         14
    64          7
    65         75
    66         22
    67        143
    68         75
    70         15
    73          1
    74          2
    75          2
    76          4
    77        303
    78         66
    79        469
    80         70
    81        284
    82         43
    83         15
    84          9
    86          1
    88          1
    89         11
    90          2
    91        475
    92        166
    93        578
    94        197
    95        125
    97         13
   101          2
   102          8
   103         41
   104         14
   105        431
   106        126
   107        249
   108         84
   115         50
   116         17
   117         49
   118         22
   119        999
   120        158
   121        795
   122        108
   123         46
   126          1
   127          8
   128         25
   129         20
   130         10
   131         32
   132          8
   133        177
   134        118
   135         43
   136         21
   141         11
   142          3
   143          3
   144          3
   145         17
   146          3
   147        238
   148        137
   149        133
   150         16
   153          2
   155          2
   156          5
   159          9
   160          3
   161        139
   162        202
   163         30
   164          3
   173          2
   174          1
   175        105
   176         34
   178          2
   189        313
   190         45
   191          4
   203          9
   204        320
   205         50
   206          4