##TITLE=Library Entry 1972
##JCAMP-DX=Revision 4.10 
##DATA TYPE=MASS SPECTRUM
##SAMPLE DESCRIPTION=Japan AIST/NIMC Database- Spectrum MS-NW-6058
##NAMES=HP
##CAS NAME=3-Butyn-1-ol
##MOLFORM=C4H6O
##CAS REGISTRY NO=927-74-2
##MP= -300
##BP= -300
##MW= 70
##$RETENTION INDEX=660
##$CONDENSED SPECTRUM=NO
##NPOINTS= 41
##XYDATA=(XY..XY) 1 
    12          2
    13          2
    14          5
    15         13
    16          1
    17          3
    18          9
    24          2
    25          8
    26         21
    27         73
    28         25
    29         89
    30          9
    31        406
    32          5
    33          1
    34          1
    36         10
    37         59
    38         88
    39        450
    40        999
    41        145
    42         86
    43         43
    44         11
    48          3
    49         17
    50         48
    51         50
    52         69
    53         22
    54          2
    55         46
    56          2
    66          3
    67          1
    68          2
    69        101
    70          9