##TITLE=Library Entry 15150
##JCAMP-DX=Revision 4.10 
##DATA TYPE=MASS SPECTRUM
##SAMPLE DESCRIPTION=Japan AIST/NIMC Database- Spectrum MS-NW-2401
##NAMES=HP
##CAS NAME=dl-Alanylglycylglycine
##MOLFORM=C7H13N3O4
##CAS REGISTRY NO=927-21-9
##MP= -300
##BP= -300
##MW= 203
##$RETENTION INDEX=0
##$CONDENSED SPECTRUM=NO
##NPOINTS= 117
##XYDATA=(XY..XY) 1 
    12          2
    13          3
    14         10
    15         36
    16         13
    17          9
    18         43
    25          2
    26         16
    27         57
    28        304
    29         80
    30        711
    31         15
    32          2
    37          1
    38          5
    39          9
    40         22
    41         45
    42        114
    43         73
    44        999
    45         29
    46          2
    51          2
    52          6
    53          6
    54         21
    55         39
    56         79
    57        102
    58         10
    59         15
    60          3
    65          1
    66          2
    67          7
    68         17
    69         17
    70         14
    71         18
    72          6
    73          9
    74          5
    75         14
    76          7
    79          1
    80          2
    81          5
    82          8
    83          6
    84          8
    85        328
    86         19
    87          1
    88          1
    89          1
    91          1
    92          1
    93          1
    94          3
    95          3
    96          9
    97          6
    98          3
    99         11
   100         11
   101          6
   102          1
   108          1
   109          2
   110          9
   111          3
   112          4
   113         12
   114         14
   115          1
   117          3
   122          3
   123          2
   124          9
   125          3
   126          3
   127          3
   128         83
   129          9
   130          1
   132          2
   133          1
   136          1
   137          1
   138          4
   139         10
   140          2
   141          1
   142          3
   143          1
   146          4
   149          1
   150          1
   151          1
   152          4
   153          4
   156          1
   157          1
   159          2
   160         13
   161          1
   165          2
   166          1
   167         22
   168          5
   170          2
   171          1
   185          1
   203          1