##TITLE=Library Entry 4910
##JCAMP-DX=Revision 4.10 
##DATA TYPE=MASS SPECTRUM
##SAMPLE DESCRIPTION=Chuck Anderson, Aldrich Chemical Co.
##NAMES=HP
##CAS NAME=2-Propenal, 3-(dimethylamino)-
##MOLFORM=C5H9NO
##CAS REGISTRY NO=927-63-9
##MP= -300
##BP= -300
##MW= 99
##$RETENTION INDEX=0
##$CONDENSED SPECTRUM=NO
##NPOINTS= 55
##XYDATA=(XY..XY) 1 
    13          2
    14         11
    15        141
    16          2
    17          1
    18         19
    25          7
    26         60
    27        146
    28        209
    29        140
    30         77
    31          5
    32          2
    35          6
    36          2
    37         12
    38         22
    39         57
    40         53
    41        177
    42        999
    43        135
    44        166
    45         80
    46         18
    49          4
    50          9
    51         13
    52         40
    53         38
    54         93
    55        382
    56        100
    57         27
    58          5
    64          1
    65          6
    66         10
    67         34
    68         73
    69         15
    70        116
    71          9
    72          3
    80         15
    82        641
    83         36
    84         77
    85          3
    96          9
    98        333
    99        580
   100         38
   101          2