##TITLE=Library Entry 23276
##JCAMP-DX=Revision 4.10 
##DATA TYPE=MASS SPECTRUM
##SAMPLE DESCRIPTION=KONINKLIJKE SHELL LABORATORIUM AMSTERDAM
##NAMES=HP
##CAS NAME=Diazene, bis(1,1-dimethylethyl)-
##MOLFORM=C8H18N2
##CAS REGISTRY NO=927-83-3
##MP= -300
##BP= -300
##MW= 142
##$RETENTION INDEX=0
##$CONDENSED SPECTRUM=NO
##NPOINTS= 76
##XYDATA=(XY..XY) 1 
    29        513
    30         21
    31          1
    32         10
    36          0
    37          7
    38         17
    39        197
    40         40
    41        620
    42         73
    43         70
    44          9
    45          0
    48          0
    49          1
    50          6
    51          7
    52          3
    53         10
    54          7
    55         37
    56         51
    57        999
    58         46
    59          2
    60          1
    61          0
    62          0
    63          0
    64          0
    65          0
    66          0
    67          0
    68          0
    69          0
    70          1
    71         62
    72          2
    73          0
    74          0
    75          0
    76          0
    77          0
    78          0
    79          0
    80          0
    81          0
    82          0
    83          0
    84          0
    85          1
    86          0
    87          0
    88          0
    89          0
    90          0
    91          0
    92          0
    93          0
    94          0
    95          0
    96          0
    97          0
    98          0
    99          0
   100          0
   101          0
   102          0
   103          0
   104          0
   105          0
   111          0
   112          0
   127          2
   128          0