##TITLE=Library Entry 21024
##JCAMP-DX=Revision 4.10 
##DATA TYPE=MASS SPECTRUM
##SAMPLE DESCRIPTION=D.HENNEBERG, MAX-PLANCK INSTITUTE, MULHEIM, WEST GERMAN
Y
##NAMES=HP
##CAS NAME=1,4-Hexadiene, 2,5-dimethyl-
##MOLFORM=C8H14
##CAS REGISTRY NO=927-97-9
##MP= -300
##BP= -300
##MW= 110
##$RETENTION INDEX=0
##$CONDENSED SPECTRUM=NO
##NPOINTS= 66
##XYDATA=(XY..XY) 1 
    21          0
    22          1
    26         18
    27        343
    28         35
    29        550
    30         11
    32          2
    36          1
    37         12
    38         25
    39        499
    40         77
    41        368
    42         45
    43         45
    44          1
    45          2
    46          1
    48          1
    49          3
    50         22
    51         58
    52         22
    53        241
    54         60
    55        999
    56         74
    57          4
    61          1
    62          5
    63         13
    64          3
    65         32
    66         42
    67        548
    68        668
    69         84
    70          9
    74          2
    75          2
    77         47
    78          9
    79         48
    80         20
    81        208
    82         43
    83          2
    86          0
    87          0
    89          0
    91         32
    92          3
    93         40
    94          6
    95        717
    96         50
    97          1
   103          0
   105          3
   106          3
   107          1
   108          2
   109          9
   110         35
   111          2