##TITLE=Library Entry 10615
##JCAMP-DX=Revision 4.10 
##DATA TYPE=MASS SPECTRUM
##SAMPLE DESCRIPTION=Japan AIST/NIMC Database- Spectrum MS-NW-5175
##NAMES=HP
##CAS NAME=6-Undecanone
##MOLFORM=C11H22O
##CAS REGISTRY NO=927-49-1
##MP= -300
##BP= -300
##MW= 170
##$RETENTION INDEX=1237
##$CONDENSED SPECTRUM=NO
##NPOINTS= 78
##XYDATA=(XY..XY) 1 
    15          8
    17          1
    18          3
    26          7
    27        139
    28         23
    29        219
    30          5
    31          5
    32          1
    37          1
    38          3
    39         72
    40         12
    41        203
    42         49
    43        999
    44         34
    45          6
    48          1
    50          1
    51          4
    52          2
    53         17
    54          6
    55        108
    56         18
    57         37
    58        576
    59        152
    60         11
    61          1
    63          1
    65          2
    66          1
    67         13
    68          3
    69         16
    70         15
    71        678
    72        113
    73          9
    74          1
    77          2
    79          2
    80          3
    81         22
    82          2
    83          9
    84          2
    85         71
    86         17
    87          2
    91          1
    95          2
    96         16
    97          7
    98         11
    99        784
   100         54
   101          4
   109          5
   112          2
   113          1
   114        110
   115         29
   116          3
   117          3
   120          1
   127         79
   128         17
   129          1
   141         14
   142          2
   155          1
   169          1
   170         55
   171          8