##TITLE=Library Entry 23494
##JCAMP-DX=Revision 4.10 
##DATA TYPE=MASS SPECTRUM
##SAMPLE DESCRIPTION=V.A.Korolev, Moscow, Russia
##NAMES=HP
##CAS NAME=Propionic acid, 3-(tert-butylthio)-
##MOLFORM=C7H14O2S
##CAS REGISTRY NO=927-91-3
##MP= -300
##BP= -300
##MW= 162
##$RETENTION INDEX=0
##$CONDENSED SPECTRUM=NO
##NPOINTS= 60
##XYDATA=(XY..XY) 1 
    28         41
    29         35
    33         16
    34         13
    35          3
    37         16
    38         42
    39        411
    40         54
    41        858
    42         84
    43         48
    44         26
    45        516
    46         77
    47         54
    48          4
    49         14
    50         19
    51         23
    52          5
    53         36
    54          7
    55        125
    56        205
    57        999
    58        178
    59        280
    60         67
    61         69
    62          2
    63         27
    64          4
    65          2
    67          3
    68          2
    69          6
    71         10
    72          1
    73         22
    74         21
    75          7
    77          6
    85          2
    87         43
    88         58
    89         44
    90          4
    91          3
   102         18
   103          2
   104          2
   105        109
   106         34
   107          4
   129         10
   147         11
   162        350
   163         37
   164         18