##TITLE=Library Entry 62
##JCAMP-DX=Revision 4.10 
##DATA TYPE=MASS SPECTRUM
##SAMPLE DESCRIPTION=TNO Volatile Compounds in Food - Chemical Concepts
##NAMES=HP
##CAS NAME=Ethoxyacetylene
##MOLFORM=C4H6O
##CAS REGISTRY NO=927-80-0
##MP= -300
##BP= -300
##MW= 70
##$RETENTION INDEX=498
##$CONDENSED SPECTRUM=NO
##NPOINTS= 23
##XYDATA=(XY..XY) 1 
    25         21
    26        133
    27        999
    29        837
    30         23
    31         14
    36          1
    37          1
    38          5
    39         65
    40         10
    41        137
    42        798
    43         50
    44         28
    45          5
    46          1
    53          2
    54          1
    55        153
    56          3
    69          6
    70        284