##TITLE=Library Entry 2284
##JCAMP-DX=Revision 4.10 
##DATA TYPE=MASS SPECTRUM
##SAMPLE DESCRIPTION=V.Zaikin,Topchiev Inst.Petrochem.Synth.,Moscow
##NAMES=HP
##CAS NAME=Butanoyl chloride, 4-bromo-
##MOLFORM=C4H6BrClO
##CAS REGISTRY NO=927-58-2
##MP= -300
##BP= -300
##MW= 184
##$RETENTION INDEX=0
##$CONDENSED SPECTRUM=NO
##NPOINTS= 77
##XYDATA=(XY..XY) 1 
    27        243
    28         86
    29        108
    30         12
    31          8
    34          3
    35         34
    36         70
    37         76
    38        120
    39        479
    40        137
    41        999
    42        733
    43         55
    44         23
    45          9
    47          4
    48          4
    49         23
    50         13
    51         17
    52          4
    53         18
    54          5
    55        148
    56        108
    57         24
    60          2
    61          6
    62          4
    63         87
    64          3
    65         34
    67          4
    68         10
    69         93
    70         19
    71          3
    74          2
    75          8
    76          4
    77         48
    78        153
    79         60
    80         66
    81         47
    82         26
    83          5
    84          3
    85         33
    86         77
    87          6
    91          4
    92          3
    93         48
    94          2
    95         48
    97          4
   104          5
   105         82
   106         11
   107         42
   108          9
   109          9
   119          5
   120          5
   121         63
   122          7
   123         60
   140          3
   145          2
   148         49
   149        314
   150         59
   151        322
   152         13