##TITLE=Library Entry 1826
##JCAMP-DX=Revision 4.10 
##DATA TYPE=MASS SPECTRUM
##SAMPLE DESCRIPTION=Chemical Concepts
##NAMES=HP
##CAS NAME=Palladium, [(1,2,3,4,5-.eta.)-1-methyl-2,4-cyclopentadien-1-yl](.
eta.3-2-propenyl)-
##MOLFORM=C9H12Pd
##CAS REGISTRY NO=92719-24-9
##MP= -300
##BP= -300
##MW= 226
##$RETENTION INDEX=0
##$CONDENSED SPECTRUM=NO
##NPOINTS= 121
##XYDATA=(XY..XY) 1 
    27        274
    36         29
    37        153
    38        220
    39        999
    40        179
    41        377
    42        197
    43         10
    49         33
    50        288
    51        377
    52        332
    53        111
    54         10
    60          8
    61         26
    62         25
    63         88
    64          7
    65         42
    66         33
    73         13
    74         54
    75         36
    76         64
    77        385
    78        760
    79        354
    80         82
    81          6
    89          6
    91         56
    92         10
    93          8
   102         11
   103          7
   104        129
   105        280
   106        347
   107         12
   108        340
   109         11
   110        144
   111          7
   115         14
   117         12
   119         24
   120         18
   121         20
   122          5
   123         17
   125          8
   130          8
   131         22
   132         32
   133         28
   134         13
   135         25
   136          9
   137          9
   141          7
   142         14
   143         47
   144         76
   145        124
   146        146
   147        209
   148         22
   149        189
   150         12
   151         74
   152          6
   154          5
   155         20
   156         32
   157         54
   158         22
   159         65
   160          7
   161         40
   162          7
   163          9
   169         13
   170         35
   171         46
   172         19
   173         33
   174         15
   175         13
   176          8
   179          8
   180         16
   181         58
   182        203
   183        347
   184        328
   185        296
   186        377
   187        103
   188        247
   189         32
   190         61
   197          8
   198          6
   199          5
   202          5
   210          5
   211         18
   212         20
   214         13
   216         10
   222          8
   224         90
   225        220
   226        247
   227         24
   228        200
   229         22
   230         96
   231         13