##TITLE=Library Entry 1004
##JCAMP-DX=Revision 4.10 
##DATA TYPE=MASS SPECTRUM
##SAMPLE DESCRIPTION=Japan AIST/NIMC Database- Spectrum MS-IW-5889
##NAMES=HP
##CAS NAME=1-((1-Acetamidoethyl)benzene-p-sulfonyl)-3-butylurea
##MOLFORM=C15H23N3O4S
##CAS REGISTRY NO=92728-32-0
##MP= -300
##BP= -300
##MW= 341
##$RETENTION INDEX=0
##$CONDENSED SPECTRUM=NO
##NPOINTS= 214
##XYDATA=(XY..XY) 1 
    14          5
    15         35
    16          5
    17          1
    25          1
    26         16
    27        129
    28        161
    29         72
    30        999
    31         27
    32          4
    33          1
    34          4
    37          6
    38         17
    39         84
    40         48
    41        308
    42        174
    43        658
    44        273
    45         15
    46         13
    47          1
    48          9
    49          2
    50         45
    51         71
    52         23
    53         15
    54         13
    55         45
    56        173
    57         24
    58         22
    59         10
    60         14
    61          3
    62          8
    63         33
    64         22
    65         32
    66          9
    67          9
    68          7
    69          8
    70         44
    71         24
    72         50
    73        112
    74         17
    75         22
    76         54
    77        224
    78         70
    79         17
    80          8
    81          7
    82          9
    83          5
    84          6
    85          4
    86         12
    87          5
    88          3
    89         19
    90         22
    91         84
    92         18
    93         20
    94          9
    95         13
    96          2
    97          4
    98         56
    99         11
   100          4
   101         10
   102         45
   103        303
   104        211
   105        110
   106         20
   107          9
   108          6
   109          9
   110          4
   111          5
   112          1
   113          2
   114          1
   115          4
   116         10
   117         26
   118         64
   119        463
   120        261
   121         57
   122         16
   123          5
   124          1
   125          2
   127          4
   128          5
   129          5
   130          5
   131          3
   132          4
   133          5
   134         13
   135         57
   136         68
   137         14
   138         18
   139          3
   140          2
   141         15
   142          2
   143          5
   144          4
   145          6
   146         16
   147         10
   148          3
   149          3
   150          2
   151          8
   152          9
   153         12
   154          2
   155          2
   157          2
   158          7
   159          1
   160          3
   161        398
   162         90
   163         11
   164          3
   165         10
   166         57
   167        107
   168         32
   169          8
   170          1
   171          1
   172         10
   173          2
   177          1
   178          9
   179          3
   180          5
   181          1
   182          8
   183         64
   184        214
   185        352
   186         46
   187         17
   188          1
   191          5
   192          1
   193          2
   194          1
   195          8
   196          1
   197          3
   198          2
   199         72
   200         11
   201          4
   202          1
   206          1
   208          8
   209         83
   210         41
   211        641
   212         68
   213         36
   214          4
   223          4
   224          7
   225        181
   226        214
   227         60
   228         13
   229          3
   237          8
   238          2
   239          6
   240          1
   241          7
   242         95
   243         17
   244          6
   249          3
   250          2
   251          2
   253         24
   254          3
   255          2
   256          7
   257          4
   267         10
   268        283
   269         61
   270         19
   271          3
   272          2
   283          7
   284          7
   285          1
   298          2