##TITLE=Library Entry 85826
##JCAMP-DX=Revision 4.10 
##DATA TYPE=MASS SPECTRUM
##SAMPLE DESCRIPTION=K. KIMURA, DEP. FOOD & NUTR., JPN WOMEN'S UNIV., TOKYO,
 JAPAN
##NAMES=HP
##CAS NAME=2,3-Dehydro-1,8-cineole
##MOLFORM=C10H16O
##CAS REGISTRY NO=92760-25-3
##MP= -300
##BP= -300
##MW= 152
##$RETENTION INDEX=991
##$CONDENSED SPECTRUM=NO
##NPOINTS= 36
##XYDATA=(XY..XY) 1 
    39         30
    41         12
    43         70
    45         30
    53         25
    58         26
    65         24
    67         62
    69         21
    77         84
    78         30
    79        367
    80         52
    81         43
    82         29
    83         23
    84         35
    85         22
    91        126
    92         48
    93         95
    94        261
    95         57
   105         42
   106         26
   108         33
   109        999
   110         86
   111         48
   117         21
   119         78
   124        225
   125         32
   134         55
   137         33
   152         74