##TITLE=Library Entry 43179
##JCAMP-DX=Revision 4.10 
##DATA TYPE=MASS SPECTRUM
##SAMPLE DESCRIPTION=J.M. Halket, Trace Anal. Unit (TAU), London, UK
##NAMES=HP
##CAS NAME=L-Leucine, 2TBDMS derivative
##MOLFORM=C18H41NO2Si2
##CAS REGISTRY NO=92771-65-8
##MP= -300
##BP= -300
##MW= 359
##$RETENTION INDEX=1703
##$CONDENSED SPECTRUM=NO
##NPOINTS= 121
##XYDATA=(XY..XY) 1 
    39         30
    41        185
    42         16
    43         82
    44         29
    45         93
    46         10
    47         25
    53          5
    54          7
    55         26
    56         36
    57        217
    58         57
    59        232
    60         30
    61         17
    66          3
    67          3
    68          3
    69          9
    70          9
    71          7
    73        999
    74        110
    75        138
    76         10
    77          5
    80          1
    81          3
    82          3
    83          5
    84          8
    85         17
    86         23
    87          8
    88         16
    89          2
    95          1
    96          4
    97          4
    98          5
    99         24
   100         37
   101         12
   102         10
   103         42
   104          6
   105          9
   110          1
   111          1
   112          6
   113          6
   114          6
   115         42
   116         10
   117         21
   118          8
   119         11
   120          1
   126          4
   128         62
   129         23
   130         43
   131         18
   132         44
   133         96
   134         18
   135          8
   142         21
   143          8
   144         13
   145         10
   147        270
   148         49
   149         29
   150          4
   156          1
   157          3
   158          7
   159          6
   160         25
   161          6
   162          3
   170         17
   171          5
   172          5
   173          6
   174         17
   175          4
   176          1
   184          9
   185          1
   186          3
   188          3
   189         15
   190          4
   200        729
   201        124
   202         47
   203          6
   212          1
   216          3
   218          3
   244          1
   245          2
   246          2
   258          2
   274        321
   275         81
   276         31
   277          5
   302        195
   303         51
   304         19
   305          4
   316         12
   317          3
   344         13
   345          4
   346          1