##TITLE=Library Entry 32502
##JCAMP-DX=Revision 4.10 
##DATA TYPE=MASS SPECTRUM
##SAMPLE DESCRIPTION=A.Pleshkova, Nesmeyanov Inst.Org.Elem.Cpds, Moscow
##NAMES=HP
##CAS NAME=N-Pyrrylcarbinol
##MOLFORM=C5H7NO
##CAS REGISTRY NO=92776-61-9
##MP= -300
##BP= -300
##MW= 97
##$RETENTION INDEX=0
##$CONDENSED SPECTRUM=NO
##NPOINTS= 30
##XYDATA=(XY..XY) 1 
    26         53
    27        141
    28        547
    29        172
    30         29
    31        349
    32         21
    37        111
    38        225
    39        690
    40        435
    41        788
    42         43
    50         29
    51         55
    52         49
    53        162
    54         11
    66         85
    67        999
    68         85
    69         10
    78         24
    79         71
    80        535
    81         43
    82          7
    97        787
    98         55
    99          1