##TITLE=Library Entry 23207
##JCAMP-DX=Revision 4.10 
##DATA TYPE=MASS SPECTRUM
##SAMPLE DESCRIPTION=Japan AIST/NIMC Database- Spectrum MS-NW-1249
##NAMES=HP
##CAS NAME=2-Hexen-1-ol, (E)-
##MOLFORM=C6H12O
##CAS REGISTRY NO=928-95-0
##MP= -300
##BP= -300
##MW= 100
##$RETENTION INDEX=862
##$CONDENSED SPECTRUM=NO
##NPOINTS= 60
##XYDATA=(XY..XY) 1 
    14          2
    15         12
    17          3
    18         14
    19          3
    26         14
    27        205
    28         22
    29        159
    30          9
    31         96
    32          2
    37          4
    38         13
    39        144
    40         27
    41        432
    42         90
    43        149
    44        182
    45         35
    46          1
    47          1
    49          1
    50          9
    51         17
    52          6
    53         47
    54         48
    55        111
    56        135
    57        999
    58         66
    59         14
    60          1
    61          1
    62          2
    63          3
    65          8
    66          4
    67        149
    68         11
    69         48
    70         12
    71        101
    72         45
    73          3
    77          3
    79          5
    80          1
    81         15
    82        205
    83         21
    84          4
    85          8
    97          2
    98          3
    99          3
   100         26
   101          2