##TITLE=Library Entry 48715
##JCAMP-DX=Revision 4.10 
##DATA TYPE=MASS SPECTRUM
##SAMPLE DESCRIPTION=Japan AIST/NIMC Database- Spectrum MS-NW-9673
##NAMES=HP
##CAS NAME=5-Hexyn-1-ol
##MOLFORM=C6H10O
##CAS REGISTRY NO=928-90-5
##MP= -300
##BP= -300
##MW= 98
##$RETENTION INDEX=0
##$CONDENSED SPECTRUM=NO
##NPOINTS= 71
##XYDATA=(XY..XY) 1 
    14          2
    15         12
    17          3
    18         10
    25          1
    26         23
    27        202
    28         80
    29        176
    30         12
    31        685
    32         11
    33          3
    36          2
    37         22
    38         58
    39        526
    40        462
    41        636
    42        177
    43        231
    44         89
    45         26
    46          1
    47          1
    49          7
    50         65
    51        106
    52        372
    53        230
    54        474
    55        319
    56         70
    57        524
    58         32
    59         30
    60          2
    61          8
    62         14
    63         28
    64          6
    65        198
    66         46
    67        272
    68         63
    69        126
    70        788
    71         45
    72          3
    73          2
    74          5
    75          4
    76          2
    77        202
    78         36
    79        999
    80         97
    81         41
    82          5
    83        185
    84         10
    85          1
    91          6
    92          1
    93          2
    94          4
    95          8
    96          6
    97        192
    98         78
    99          6