##TITLE=Library Entry 3198
##JCAMP-DX=Revision 4.10 
##DATA TYPE=MASS SPECTRUM
##SAMPLE DESCRIPTION=Japan AIST/NIMC Database- Spectrum MS-NW-8553
##NAMES=HP
##CAS NAME=3-Hexen-1-ol, (E)-
##MOLFORM=C6H12O
##CAS REGISTRY NO=928-97-2
##MP= -300
##BP= -300
##MW= 100
##$RETENTION INDEX=852
##$CONDENSED SPECTRUM=NO
##NPOINTS= 58
##XYDATA=(XY..XY) 1 
    14          1
    15          9
    17          1
    18          5
    19          2
    26         11
    27        139
    28         27
    29        124
    30          6
    31        181
    32          2
    37          5
    38         16
    39        197
    40         33
    41        999
    42        221
    43         68
    44         62
    45         18
    49          1
    50         14
    51         23
    52          9
    53         87
    54         78
    55        374
    56         58
    57        121
    58         12
    59          5
    61          2
    62          4
    63          6
    64          1
    65         17
    66          9
    67        506
    68         66
    69        398
    70        130
    71         20
    72         27
    73          1
    74          1
    77          4
    78          1
    79          9
    80          2
    81         40
    82        379
    83         34
    84          1
    85          2
    99          1
   100         19
   101          1