##TITLE=Library Entry 32480
##JCAMP-DX=Revision 4.10 
##DATA TYPE=MASS SPECTRUM
##SAMPLE DESCRIPTION=Japan AIST/NIMC Database- Spectrum MS-IW-2622
##NAMES=HP
##CAS NAME=4-Hexen-1-ol, (Z)-
##MOLFORM=C6H12O
##CAS REGISTRY NO=928-91-6
##MP= -300
##BP= -300
##MW= 100
##$RETENTION INDEX=879
##$CONDENSED SPECTRUM=NO
##NPOINTS= 57
##XYDATA=(XY..XY) 1 
    14          1
    15          9
    18          2
    26         14
    27        178
    28         49
    29        196
    30         10
    31        165
    32          1
    37          6
    38         18
    39        270
    40         49
    41        717
    42        153
    43         74
    44        152
    45         66
    46          2
    49          2
    50         15
    51         27
    52         13
    53        126
    54        266
    55        409
    56        131
    57        200
    58         26
    59          4
    61          2
    62          3
    63          6
    64          1
    65         31
    66         14
    67        999
    68         88
    69        113
    70         28
    71         29
    72         46
    73          2
    74          1
    77          7
    78          1
    79         23
    80          4
    81        118
    82        538
    83         39
    84          1
    85          2
    99          1
   100         63
   101          4