##TITLE=Library Entry 19004
##JCAMP-DX=Revision 4.10 
##DATA TYPE=MASS SPECTRUM
##SAMPLE DESCRIPTION=NIST Mass Spectrometry Data Center, 1990.
##NAMES=HP
##CAS NAME=1-Pentene, 5-chloro-
##MOLFORM=C5H9Cl
##CAS REGISTRY NO=928-50-7
##MP= -300
##BP= -300
##MW= 104
##$RETENTION INDEX=730
##$CONDENSED SPECTRUM=NO
##NPOINTS= 47
##XYDATA=(XY..XY) 1 
    14          4
    15         35
    26        116
    27        519
    28        131
    29        227
    31         13
    32          1
    35         11
    36         12
    37         67
    38        139
    39        849
    40        223
    41        955
    42        554
    43         24
    44          7
    47          9
    48         10
    49         92
    50         58
    51         95
    52         36
    53        331
    54          7
    55        999
    56         45
    60          5
    61         24
    62         62
    63        105
    64         14
    65         66
    66          5
    67        686
    68        644
    69        174
    70         12
    75         50
    76         78
    77         17
    78         31
    89          9
   104        110
   105          7
   106         35