##TITLE=Library Entry 70906
##JCAMP-DX=Revision 4.10 
##DATA TYPE=MASS SPECTRUM
##SAMPLE DESCRIPTION=Japan AIST/NIMC Database- Spectrum MS-NW-2948
##NAMES=HP
##CAS NAME=2-Butenediamide, (Z)-
##MOLFORM=C4H6N2O2
##CAS REGISTRY NO=928-01-8
##MP= -300
##BP= -300
##MW= 114
##$RETENTION INDEX=0
##$CONDENSED SPECTRUM=NO
##NPOINTS= 67
##XYDATA=(XY..XY) 1 
    12          9
    13          9
    14         10
    15         24
    16         14
    17         24
    18         19
    24          9
    25         46
    26        541
    27         94
    28         95
    29         28
    30         17
    31          5
    32          4
    34          1
    36          7
    37         12
    38         23
    39         17
    40         40
    41         43
    42         59
    43         73
    44        874
    45        222
    46          5
    50         13
    51        100
    52        172
    53        180
    54        338
    55        233
    56          8
    57          2
    59          1
    62          3
    63          1
    67          4
    68         51
    69        149
    70        285
    71        377
    72         14
    73          1
    76          7
    77         34
    78        142
    79          9
    80         80
    81          9
    82         14
    83          1
    84          1
    86         63
    87         15
    95          1
    96        185
    97        377
    98        999
    99         50
   100          5
   113          1
   114        197
   115         10
   116          1