##TITLE=Library Entry 84637
##JCAMP-DX=Revision 4.10 
##DATA TYPE=MASS SPECTRUM
##SAMPLE DESCRIPTION=LAC, NIDDK, NIH, Bethesda, MD 20892
##NAMES=HP
##CAS NAME=(CH3)2NSSN(CH3)2
##MOLFORM=C4H12N2S2
##CAS REGISTRY NO=928-05-2
##MP= -300
##BP= -300
##MW= 152
##$RETENTION INDEX=904
##$CONDENSED SPECTRUM=NO
##NPOINTS= 62
##XYDATA=(XY..XY) 1 
    41         36
    42        958
    43        495
    44        726
    45         47
    46         30
    47         33
    48         10
    49         19
    51          7
    55          1
    56          1
    57          1
    58          8
    59          7
    60         34
    61        124
    62          7
    63          2
    64         98
    65         16
    66          9
    67          2
    69          1
    70          1
    71          1
    72          1
    74          4
    76        710
    77         30
    78         34
    79          8
    80          0
    81          1
    83          0
    84          8
    85          1
    86          5
    88          1
    91          1
    96         12
    97          7
    98          1
    99          1
   105          1
   107          9
   108        999
   110        192
   111          4
   112          3
   119          1
   120        129
   121          8
   122          6
   128          6
   129          0
   130          1
   151          9
   152        193
   153         12
   154         17
   155          0