##TITLE=Library Entry 24985
##JCAMP-DX=Revision 4.10 
##DATA TYPE=MASS SPECTRUM
##SAMPLE DESCRIPTION=NIST Mass Spectrometry Data Center, 2009
##NAMES=HP
##CAS NAME=Ethyl-1-propenyl ether
##MOLFORM=C5H10O
##CAS REGISTRY NO=928-55-2
##MP= -300
##BP= -300
##MW= 86
##$RETENTION INDEX=706
##$CONDENSED SPECTRUM=NO
##NPOINTS= 36
##XYDATA=(XY..XY) 1 
    14          1
    15          5
    25          2
    26         32
    27        128
    28         77
    29        231
    30         85
    31         28
    37          5
    38         15
    39        100
    40         53
    41         74
    42         12
    43         46
    44          4
    45         37
    46          1
    50          1
    52          1
    53          5
    54          2
    55         35
    56          6
    57        999
    58        455
    59         17
    60          1
    69          3
    70          1
    71          2
    85          1
    86        398
    87         22
    88          2