##TITLE=Library Entry 6943
##JCAMP-DX=Revision 4.10 
##DATA TYPE=MASS SPECTRUM
##SAMPLE DESCRIPTION=MINISTRY OF TECH., E.R.D.E., WALTHAM ABBEY, UK
##NAMES=HP
##CAS NAME=Nitric acid, butyl ester
##MOLFORM=C4H9NO3
##CAS REGISTRY NO=928-45-0
##MP= -300
##BP= -300
##MW= 119
##$RETENTION INDEX=801
##$CONDENSED SPECTRUM=NO
##NPOINTS= 36
##XYDATA=(XY..XY) 1 
    12          1
    13          1
    14          8
    15         42
    16          2
    25          5
    26         33
    27        359
    28         90
    29        243
    30        142
    31         79
    37         37
    38         76
    39        120
    40         22
    41        533
    42         59
    43        999
    44         62
    45          8
    46        801
    50          4
    51          4
    53          6
    55         39
    56         38
    57        192
    58          2
    60         13
    71          8
    72          6
    76        654
    77          7
    90          2
   104          1