##TITLE=Library Entry 23656
##JCAMP-DX=Revision 4.10 
##DATA TYPE=MASS SPECTRUM
##SAMPLE DESCRIPTION=Japan AIST/NIMC Database- Spectrum MS-NW-9936
##NAMES=HP
##CAS NAME=2-Hexen-1-ol, (Z)-
##MOLFORM=C6H12O
##CAS REGISTRY NO=928-94-9
##MP= -300
##BP= -300
##MW= 100
##$RETENTION INDEX=868
##$CONDENSED SPECTRUM=NO
##NPOINTS= 62
##XYDATA=(XY..XY) 1 
    15          8
    17          1
    18          5
    19          2
    26         11
    27        165
    28         34
    29        179
    30         10
    31         84
    32          1
    37          4
    38         12
    39        153
    40         29
    41        442
    42         84
    43        144
    44        189
    45         45
    46          1
    47          1
    49          1
    50         11
    51         20
    52          8
    53         56
    54         68
    55        124
    56        130
    57        999
    58         72
    59         40
    60          1
    61          1
    62          2
    63          4
    65         12
    66          6
    67        302
    68         22
    69         52
    70         15
    71        111
    72         51
    73         10
    74          1
    75          1
    77          5
    78          1
    79          9
    80          2
    81         27
    82        326
    83         41
    84          4
    85          9
    97          2
    98          3
    99          3
   100         13
   101          1