##TITLE=Library Entry 7571
##JCAMP-DX=Revision 4.10 
##DATA TYPE=MASS SPECTRUM
##SAMPLE DESCRIPTION=W. UTILIZATION R & D DIV., U.S. DEPT. OF AGRIC., ALBANY
, CAL.
##NAMES=HP
##CAS NAME=Ethanethioic acid, S-butyl ester
##MOLFORM=C6H12OS
##CAS REGISTRY NO=928-47-2
##MP= -300
##BP= -300
##MW= 132
##$RETENTION INDEX=950
##$CONDENSED SPECTRUM=NO
##NPOINTS= 39
##XYDATA=(XY..XY) 1 
    27         46
    28          7
    29         58
    35          5
    39         44
    40          2
    41        110
    42         18
    43        999
    44         25
    45         38
    46         19
    47         60
    48          5
    49          4
    53         11
    54          7
    55         57
    56        174
    57         29
    58         11
    59         21
    60         13
    61         27
    71          3
    72         87
    73          9
    76         26
    77         46
    85         12
    88         33
    89         27
    90         20
    99         14
   103          4
   117          1
   132        156
   133          9
   134          8