##TITLE=Library Entry 17014
##JCAMP-DX=Revision 4.10 
##DATA TYPE=MASS SPECTRUM
##SAMPLE DESCRIPTION=Japan AIST/NIMC Database- Spectrum MS-IW-2371
##NAMES=HP
##CAS NAME=1,5-Hexanediol
##MOLFORM=C6H14O2
##CAS REGISTRY NO=928-40-5
##MP= -300
##BP= -300
##MW= 118
##$RETENTION INDEX=0
##$CONDENSED SPECTRUM=NO
##NPOINTS= 72
##XYDATA=(XY..XY) 1 
    14          2
    15         16
    17          2
    18          8
    19          7
    26          8
    27        109
    28        106
    29        176
    30          7
    31        167
    32          5
    33          2
    37          2
    38          6
    39         75
    40         29
    41        605
    42        119
    43        441
    44        121
    45        999
    46         31
    47          6
    49          3
    50          3
    51          7
    52          2
    53         20
    54         27
    55        238
    56        987
    57        247
    58         77
    59         14
    60          1
    61          1
    62          5
    63          7
    65          5
    66          2
    67        176
    68         11
    69         34
    70         58
    71         88
    72         53
    73         37
    74         74
    75        368
    76         12
    77          3
    79          3
    81         15
    82         55
    83         16
    84          2
    85        208
    86         12
    87          3
    88          6
    90          1
    97          1
    98          2
    99         10
   100          4
   101          1
   103         10
   104          1
   115          1
   117          1
   118          1