##TITLE=Library Entry 25582
##JCAMP-DX=Revision 4.10 
##DATA TYPE=MASS SPECTRUM
##SAMPLE DESCRIPTION=NIST Mass Spectrometry Data Center, 1990.
##NAMES=HP
##CAS NAME=3-Decanone
##MOLFORM=C10H20O
##CAS REGISTRY NO=928-80-3
##MP= -300
##BP= -300
##MW= 156
##$RETENTION INDEX=1187
##$CONDENSED SPECTRUM=NO
##NPOINTS= 41
##XYDATA=(XY..XY) 1 
    26         15
    27        124
    28         10
    29        251
    30          6
    39         93
    40         30
    41        257
    42         92
    43        246
    44         11
    51          9
    53         30
    54         19
    55        151
    56          9
    57        999
    58         43
    59          9
    67         38
    68          7
    69         20
    70         13
    71          7
    72        576
    73        110
    81          7
    82         16
    83         16
    84         16
    85        103
    86         10
    98          4
    99         13
   100          7
   109         37
   113          7
   114         13
   127        250
   128         21
   156         14