##TITLE=Library Entry 4411
##JCAMP-DX=Revision 4.10 
##DATA TYPE=MASS SPECTRUM
##SAMPLE DESCRIPTION=NIST Mass Spectrometry Data Center, 1992
##NAMES=HP
##CAS NAME=4-Chloro-1-butanol
##MOLFORM=C4H9ClO
##CAS REGISTRY NO=928-51-8
##MP= -300
##BP= -300
##MW= 108
##$RETENTION INDEX=0
##$CONDENSED SPECTRUM=NO
##NPOINTS= 60
##XYDATA=(XY..XY) 1 
    13          5
    14         22
    15         66
    16          2
    17          1
    18         11
    19         14
    25         12
    26         97
    27        408
    28        145
    29        293
    30          1
    31        892
    32         30
    33          6
    34          3
    35          4
    36         19
    37         31
    38         66
    39        335
    40        110
    41        654
    42        999
    43        296
    44        266
    45         41
    47          4
    49         88
    50         25
    51         45
    52          6
    53         51
    54        221
    55        686
    56         31
    57        105
    58          5
    61         17
    62        132
    63         29
    64         41
    65         12
    69          5
    71        452
    72         85
    73         12
    74          5
    75         32
    76         20
    77         13
    78          9
    80         23
    82          7
    90        179
    91         13
    92         56
   107         12
   109          3