##TITLE=Library Entry 32420
##JCAMP-DX=Revision 4.10 
##DATA TYPE=MASS SPECTRUM
##SAMPLE DESCRIPTION=NIST Mass Spectrometry Data Center
##NAMES=HP
##CAS NAME=4-Hexen-1-ol, (E)-
##MOLFORM=C6H12O
##CAS REGISTRY NO=928-92-7
##MP= -300
##BP= -300
##MW= 100
##$RETENTION INDEX=883
##$CONDENSED SPECTRUM=NO
##NPOINTS= 60
##XYDATA=(XY..XY) 1 
    14          1
    15          5
    19          4
    25          1
    26         13
    27        118
    28         34
    29        134
    30          7
    31        120
    32          2
    37          7
    38         21
    39        265
    40         47
    41        533
    42        110
    43         80
    44        112
    45         48
    46          2
    47          1
    49          2
    50         23
    51         38
    52         17
    53        134
    54        190
    55        383
    56        101
    57        161
    58         17
    59          2
    61          2
    62          5
    63          8
    64          1
    65         44
    66         17
    67        999
    68         68
    69         71
    70         17
    71         20
    72         31
    73          2
    74          1
    77          8
    78          2
    79         32
    80          5
    81         89
    82        373
    83         28
    84          1
    85          1
    97          1
    98          1
   100         43
   101          3