##TITLE=Library Entry 75855
##JCAMP-DX=Revision 4.10 
##DATA TYPE=MASS SPECTRUM
##SAMPLE DESCRIPTION=Japan AIST/NIMC Database- Spectrum MS-NW-9719
##NAMES=HP
##CAS NAME=1,5-Pentanedithiol
##MOLFORM=C5H12S2
##CAS REGISTRY NO=928-98-3
##MP= -300
##BP= -300
##MW= 136
##$RETENTION INDEX=1167
##$CONDENSED SPECTRUM=NO
##NPOINTS= 80
##XYDATA=(XY..XY) 1 
    15          4
    26          8
    27        112
    28         22
    29         70
    30          1
    32          5
    33          5
    34         10
    35         50
    36          2
    37          4
    38          7
    39        120
    40         23
    41        508
    42         42
    43         33
    44          8
    45        134
    46         65
    47        443
    48         16
    49         21
    50          6
    51          7
    52          2
    53         56
    54         34
    55        295
    56        107
    57         17
    58         24
    59         69
    60        219
    61        244
    62         17
    63         11
    64          3
    65          9
    66          6
    67        240
    68        445
    69        507
    70         28
    71         10
    72          4
    73         66
    74        123
    75         10
    76          7
    77          1
    78          1
    79          9
    80          1
    81          1
    82          4
    83          6
    84          1
    85          9
    86          1
    87        404
    88         22
    89         46
    90          2
    91          2
    93          1
    97          1
    99          3
   100          1
   101         26
   102        999
   103         76
   104         48
   105          4
   134         26
   135          2
   136         96
   137          7
   138          8