##TITLE=Library Entry 64309
##JCAMP-DX=Revision 4.10 
##DATA TYPE=MASS SPECTRUM
##SAMPLE DESCRIPTION=Japan AIST/NIMC Database- Spectrum MS-IW-6245
##NAMES=HP
##CAS NAME=p-Benzyloxybenzaldehyde semicarbazone
##MOLFORM=C15H15N3O2
##CAS REGISTRY NO=92852-35-2
##MP= -300
##BP= -300
##MW= 269
##$RETENTION INDEX=0
##$CONDENSED SPECTRUM=NO
##NPOINTS= 83
##XYDATA=(XY..XY) 1 
    16          2
    17          5
    18          1
    27          2
    28          9
    29          2
    38          2
    39         12
    40          1
    41          4
    42          5
    43         15
    44          9
    50          4
    51         12
    52          4
    53          4
    55          1
    60          1
    61          2
    62          2
    63         11
    64          6
    65         57
    66          4
    73          1
    75          1
    76          3
    77          9
    78          6
    79          3
    80          7
    81          1
    89          9
    90          8
    91        999
    92         86
    93          5
    94          2
   103          2
   104          1
   105          5
   106          3
   107          5
   108          3
   115          1
   118          1
   119         20
   120          3
   121          1
   134          1
   135         23
   136          3
   151          2
   152          2
   153          1
   155          1
   165          2
   167          1
   178          3
   179          1
   180          2
   181          2
   182          1
   183          1
   190          2
   191          1
   196          4
   197          1
   198          1
   208          2
   209          8
   210          9
   211          4
   214          1
   225          8
   226         41
   227          6
   252         10
   253          2
   269        153
   270         27
   271          3