##TITLE=Library Entry 23580
##JCAMP-DX=Revision 4.10 
##DATA TYPE=MASS SPECTRUM
##SAMPLE DESCRIPTION=NIST Mass Spectrometry Data Center, 1994
##NAMES=HP
##CAS NAME=5-Pentadecanone
##MOLFORM=C15H30O
##CAS REGISTRY NO=92862-23-2
##MP= -300
##BP= -300
##MW= 226
##$RETENTION INDEX=0
##$CONDENSED SPECTRUM=NO
##NPOINTS= 115
##XYDATA=(XY..XY) 1 
     5          0
     6          0
     8          0
     9          0
    10          1
    12          0
    15          7
    17          0
    18          2
    19          0
    24          0
    25          0
    26         11
    27        285
    28         78
    29        684
    30         11
    37          1
    39        164
    40         37
    41        972
    42        188
    43        682
    44         22
    45          5
    48          0
    50          3
    51          4
    52          3
    53         45
    54         35
    55        379
    56        107
    57        999
    58        967
    59        118
    60          4
    63          0
    65          7
    66          5
    67         65
    68         27
    69         92
    70         41
    71        324
    72         95
    73          6
    77          5
    78          1
    79         11
    80          0
    81         60
    82         54
    83         74
    84          1
    85        697
    86         51
    87          5
    91          1
    92          1
    93          5
    94          1
    95        127
    96         50
    97         30
    98         23
    99         25
   100        213
   101        166
   102         11
   103          0
   104          0
   107          1
   109         38
   110         18
   111          7
   112          0
   113        116
   114         21
   115          2
   121          1
   122          1
   123          6
   124         56
   125          6
   126         16
   127         42
   128         14
   129          1
   137          3
   138          2
   139          1
   141         15
   142         17
   143          1
   151          5
   152          2
   155          7
   156          6
   157          0
   166          6
   167          1
   169        236
   170         29
   171          1
   183          4
   184         21
   185          4
   197         18
   198          2
   208          1
   211          0
   225          0
   226         10
   227          1