##TITLE=Library Entry 86937
##JCAMP-DX=Revision 4.10 
##DATA TYPE=MASS SPECTRUM
##SAMPLE DESCRIPTION=Darrick Lee, Cayman Chemical, Ann Arbor, MI
##NAMES=HP
##CAS NAME=5-methoxy DALT
##MOLFORM=C17H22N2O
##CAS REGISTRY NO=928822-98-4
##MP= -300
##BP= -300
##MW= 270
##$RETENTION INDEX=0
##$CONDENSED SPECTRUM=NO
##NPOINTS= 107
##XYDATA=(XY..XY) 1 
    41        193
    42         60
    43          4
    44          3
    50          2
    51          7
    52          4
    53          7
    54          4
    55         19
    56          6
    62          3
    63         11
    64          4
    65          6
    66          2
    67          5
    68         38
    69          6
    70          9
    74          2
    75          4
    76          6
    77         16
    78          5
    79         27
    80          6
    81         35
    82          8
    84          2
    87          1
    88          2
    89         23
    90         18
    91          6
    93          1
    94          4
    95          1
    96          8
   101          4
   102          9
   103         12
   104          6
   108          6
   110        999
   111         80
   112          4
   114          2
   115         10
   116         14
   117         54
   118          8
   127          2
   128          7
   129          7
   130         31
   131         14
   132          4
   140          2
   141          3
   142          5
   143         10
   144         13
   145         56
   146         10
   147          4
   154          3
   155          3
   156          4
   157          3
   158         11
   159         19
   160         89
   161         15
   168          1
   170          2
   171          1
   172          3
   173         25
   174         27
   175          4
   183          2
   184          2
   185          3
   186          4
   187          2
   188          2
   198          2
   199         10
   200          6
   201          3
   207          1
   213          1
   214          2
   226          1
   227          2
   228          3
   229          9
   230          2
   239          7
   241         36
   242          7
   253          1
   268          2
   269          3
   270         20
   271          4