##TITLE=Library Entry 59372
##JCAMP-DX=Revision 4.10 
##DATA TYPE=MASS SPECTRUM
##SAMPLE DESCRIPTION=V.Zaikin,Topchiev Inst.Petrochem.Synth.,Moscow
##NAMES=HP
##CAS NAME=Benzeneacetic acid, 2-octyl ester
##MOLFORM=C16H24O2
##CAS REGISTRY NO=92883-25-5
##MP= -300
##BP= -300
##MW= 248
##$RETENTION INDEX=0
##$CONDENSED SPECTRUM=NO
##NPOINTS= 88
##XYDATA=(XY..XY) 1 
    26          5
    27         41
    28         12
    29         76
    30          2
    36          5
    37          2
    38          4
    39         60
    40         10
    41        192
    42         59
    43        362
    44         12
    45          7
    50          7
    51         17
    52          6
    53         13
    54          7
    55        132
    56         60
    57        798
    58         36
    59          1
    61          1
    62          5
    63         22
    64          8
    65        108
    66          7
    67         11
    68          9
    69         60
    70         61
    71        694
    72         38
    73          2
    74          1
    75          2
    76          2
    77         24
    78          5
    79          8
    81          6
    82          9
    83         43
    84         24
    85         10
    87          1
    89         42
    90         41
    91        999
    92        256
    93         19
    94          1
    95          2
    96          6
    97         18
    98          2
   105          4
   106          2
   107          3
   110          2
   111          4
   112        225
   113         58
   114          4
   115          2
   117          2
   118         20
   119        128
   120         12
   121          1
   129          3
   133          2
   135          2
   136         63
   137        156
   138         14
   139          2
   143          4
   149          1
   157        104
   158         10
   163         19
   164          2
   248         32