##TITLE=Library Entry 47665
##JCAMP-DX=Revision 4.10 
##DATA TYPE=MASS SPECTRUM
##SAMPLE DESCRIPTION=B.M. ZOLOTAREV, INST. ORG. CHEM. N.D. ZELINSKI, MOSCOW,
 USSR
##NAMES=HP
##CAS NAME=(3-Ethylthio-2-benzo[b]thienylidene)aniline
##MOLFORM=C17H15NS2
##CAS REGISTRY NO=92886-22-1
##MP= -300
##BP= -300
##MW= 297
##$RETENTION INDEX=0
##$CONDENSED SPECTRUM=NO
##NPOINTS= 43
##XYDATA=(XY..XY) 1 
    39         70
    45         70
    50         60
    51        600
    69        120
    77        999
    78         80
    89        120
   109        120
   115         90
   120        210
   121        480
   122         70
   134        150
   146        170
   147         60
   159        200
   160         50
   161         60
   164         60
   165        400
   166         60
   171         90
   172        170
   190        380
   191        180
   192         80
   203         60
   204        430
   205        990
   206        180
   207        110
   208         90
   234         60
   235        210
   236        130
   240         80
   268        870
   269        170
   270        110
   297         20
   298          6
   299          2