##TITLE=Library Entry 44752
##JCAMP-DX=Revision 4.10 
##DATA TYPE=MASS SPECTRUM
##SAMPLE DESCRIPTION=NIST Mass Spectrometry Data Center
##NAMES=HP
##CAS NAME=Docosanoic acid, methyl ester
##MOLFORM=C23H46O2
##CAS REGISTRY NO=929-77-1
##MP= -300
##BP= -300
##MW= 354
##$RETENTION INDEX=2528
##$CONDENSED SPECTRUM=NO
##NPOINTS= 187
##XYDATA=(XY..XY) 1 
    14          1
    15          5
    16          1
    26          1
    27         19
    29         74
    30          3
    31          3
    33          1
    39         25
    40          6
    41        266
    42         59
    43        534
    44         17
    45         12
    51          1
    52          1
    53         14
    54         29
    55        383
    56         79
    57        344
    58         20
    59         88
    60          5
    61          3
    65          3
    66          2
    67         43
    68         19
    69        180
    70         33
    71        107
    72          8
    73         25
    74        999
    75        284
    76         13
    77          3
    78          1
    79          9
    80          3
    81         34
    82         15
    83        118
    84         39
    85         56
    87        734
    88         55
    89          5
    91          2
    93          8
    94          3
    95         29
    96         13
    97        100
    98         40
    99         12
   100          3
   101         64
   102          6
   103          1
   105          1
   107          8
   108          2
   109         17
   110          7
   111         45
   112         10
   113          7
   114          2
   115         23
   116         13
   117          1
   119          1
   121         12
   122          2
   123          9
   124          4
   125         22
   126          4
   127          3
   128          1
   129         71
   130         20
   131          2
   133          1
   135         10
   136          2
   137          4
   138          2
   139         10
   140          2
   141          2
   143        230
   144         22
   145          2
   148          1
   149          8
   150          1
   151          1
   152          1
   153          6
   154          2
   155          1
   157         22
   158          3
   163          4
   164          1
   165          1
   166          1
   167          4
   168          1
   169          1
   171         10
   172          3
   173          1
   177          2
   178          1
   179          1
   180          1
   181          2
   182          1
   185         33
   186          8
   187          1
   191          1
   193          1
   195          2
   196          1
   199         58
   200          9
   201          1
   205          1
   208          1
   209          1
   210          1
   213         17
   214          2
   215          1
   219          1
   222          1
   223          1
   224          1
   227         10
   228          2
   233          1
   235          1
   236          1
   237          2
   238          1
   241         17
   242          4
   251          1
   252          1
   255         55
   256          9
   257          1
   261          1
   265          1
   269         23
   270          4
   271          1
   278          1
   279          1
   280          1
   283          7
   284          1
   297         14
   298          4
   299          1
   304          1
   305          1
   311         91
   312         20
   313          3
   321          1
   322          1
   323         26
   324          7
   325         16
   326          4
   327          1
   354        167
   355         44
   356          5