##TITLE=Library Entry 48736
##JCAMP-DX=Revision 4.10 
##DATA TYPE=MASS SPECTRUM
##SAMPLE DESCRIPTION=Exported from NIST MS Search
##NAMES=HP
##CAS NAME=1,3,6-Octatriene
##MOLFORM=C8H12
##CAS REGISTRY NO=929-20-4
##MP= -300
##BP= -300
##MW= 108
##$RETENTION INDEX=1051
##$CONDENSED SPECTRUM=NO
##NPOINTS= 77
##XYDATA=(XY..XY) 1 
    13          1
    14          1
    15         13
    24          1
    25          2
    26         30
    27        296
    28         49
    29         96
    30          2
    31          1
    34          1
    35          1
    36          2
    37         15
    38         47
    39        511
    40         84
    41        412
    42         23
    43         10
    44          2
    45          3
    46          1
    47          2
    48          1
    49          7
    50         67
    51        146
    52         79
    53        203
    54        172
    55         65
    56          1
    58          4
    59          3
    60          1
    61          7
    62         18
    63         46
    64         17
    65        168
    66        281
    67        194
    68         21
    69          2
    73          2
    74         12
    75         30
    76          6
    77        695
    78        180
    79        999
    80        179
    81         56
    82          4
    85          2
    86          1
    87          2
    88         22
    89         22
    90         22
    91         22
    92         52
    93        489
    94         39
    95          2
   101          1
   102          2
   103          9
   104          2
   105         29
   106         12
   107         32
   108        237
   109         21
   110          2