##TITLE=Library Entry 1030
##JCAMP-DX=Revision 4.10 
##DATA TYPE=MASS SPECTRUM
##SAMPLE DESCRIPTION=James Little,Eastman Chem.Co.,Kingsport,TN
##NAMES=HP
##CAS NAME=1,8-Diamino-3,6-dioxaoctane
##MOLFORM=C6H16N2O2
##CAS REGISTRY NO=929-59-9
##MP= -300
##BP= -300
##MW= 148
##$RETENTION INDEX=0
##$CONDENSED SPECTRUM=NO
##NPOINTS= 33
##XYDATA=(XY..XY) 1 
    27         83
    29         68
    30        999
    31        168
    41         91
    42        117
    43        229
    44        651
    45         81
    55         53
    56         63
    57        208
    58         59
    61        341
    62         43
    69         24
    70         63
    72        141
    73        301
    81         31
    83         88
    84         24
    85         58
    87         81
    89        324
    98         20
   102         49
   106        109
   112         15
   118          8
   119        481
   120         30
   149         19