##TITLE=Library Entry 1017
##JCAMP-DX=Revision 4.10 
##DATA TYPE=MASS SPECTRUM
##SAMPLE DESCRIPTION=Japan AIST/NIMC Database- Spectrum MS-NW-4209
##NAMES=HP
##CAS NAME=Diglycolamine
##MOLFORM=C4H11NO2
##CAS REGISTRY NO=929-06-6
##MP= -300
##BP= -300
##MW= 105
##$RETENTION INDEX=0
##$CONDENSED SPECTRUM=NO
##NPOINTS= 40
##XYDATA=(XY..XY) 1 
    14          4
    15         27
    16          1
    17          5
    18         17
    19          1
    26          4
    27         41
    28         49
    29         25
    30        999
    31         32
    32          6
    33          1
    40          2
    41         10
    42         53
    43        107
    44        203
    45        110
    46          3
    48          4
    54          2
    55          2
    56          6
    57          2
    58         14
    59          9
    60         14
    61          1
    62          2
    70          1
    72          1
    73          1
    74          7
    75          7
    85          1
    86          1
    87          7
    88          1