##TITLE=Library Entry 3254
##JCAMP-DX=Revision 4.10 
##DATA TYPE=MASS SPECTRUM
##SAMPLE DESCRIPTION=A.S. MCGILL, TORRY RES. STAT., ABERDEEN, U.Km
##NAMES=HP
##CAS NAME=4-Heptenal, (E)-
##MOLFORM=C7H12O
##CAS REGISTRY NO=929-22-6
##MP= -300
##BP= -300
##MW= 112
##$RETENTION INDEX=905
##$CONDENSED SPECTRUM=NO
##NPOINTS= 14
##XYDATA=(XY..XY) 1 
    27        304
    29        260
    39        348
    41        999
    42        304
    55        739
    56        348
    67        348
    68        913
    69        239
    83        500
    84        608
    94        282
   112        100