##TITLE=Library Entry 60748
##JCAMP-DX=Revision 4.10 
##DATA TYPE=MASS SPECTRUM
##SAMPLE DESCRIPTION=NIST Mass Spectrometry Data Center
##NAMES=HP
##CAS NAME=1,4-Decadiyne
##MOLFORM=C10H14
##CAS REGISTRY NO=929-53-3
##MP= -300
##BP= -300
##MW= 134
##$RETENTION INDEX=0
##$CONDENSED SPECTRUM=NO
##NPOINTS= 81
##XYDATA=(XY..XY) 1 
    12          2
    13          2
    14          3
    15         30
    16          1
    17          3
    18          7
    24          2
    25          7
    26         63
    27        527
    28        120
    29        608
    30         16
    32         10
    37         29
    38         84
    39        603
    40         72
    41        741
    42         82
    43         68
    44          4
    50        320
    51        653
    52        254
    53        124
    54         34
    55        255
    56         66
    57         76
    58          4
    60          3
    61         26
    62         81
    63        199
    64         49
    65        306
    66         57
    67        398
    68         42
    69         15
    70         10
    74        113
    75         73
    76        114
    77        610
    78        538
    79        365
    80         47
    81         46
    82         70
    83          5
    84          1
    85          6
    86         14
    87         15
    89         62
    91        999
    92        152
    93         99
    95        813
    96         62
    97          4
    98          5
   101          3
   103        121
   104         41
   105        252
   106         44
   107          7
   108          1
   115         27
   116         10
   117         66
   118         10
   119         94
   120          9
   131          4
   133         11
   134          3