##TITLE=Library Entry 8320
##JCAMP-DX=Revision 4.10 
##DATA TYPE=MASS SPECTRUM
##SAMPLE DESCRIPTION=FDA, Los Angeles District Laboratory
##NAMES=HP
##CAS NAME=2-Chloroethyl palmitate
##MOLFORM=C18H35ClO2
##CAS REGISTRY NO=929-16-8
##MP= -300
##BP= -300
##MW= 318
##$RETENTION INDEX=2205
##$CONDENSED SPECTRUM=NO
##NPOINTS= 62
##XYDATA=(XY..XY) 1 
    41        335
    42        150
    43        999
    44         60
    53         25
    54         55
    55        609
    56        135
    57        385
    58         45
    60         70
    61         35
    62        669
    63        370
    64        210
    65        155
    67         60
    68         50
    69        250
    70         90
    71        220
    73         90
    81         65
    82         40
    83        210
    84        125
    85         95
    86        260
    87        160
    95         40
    96         25
    97        155
    98         70
    99         50
   101         25
   107         25
   109         25
   111         55
   112         20
   121         25
   122        594
   123        185
   124        195
   125         85
   135        495
   136         50
   137        220
   138         25
   149         45
   163         25
   177         55
   179         20
   191        150
   193         40
   219         40
   233         30
   239        155
   240         35
   247         25
   275         45
   318         75
   320         25