##TITLE=Library Entry 29573
##JCAMP-DX=Revision 4.10 
##DATA TYPE=MASS SPECTRUM
##SAMPLE DESCRIPTION=Chemical Concepts
##NAMES=HP
##CAS NAME=Octane, 1-ethoxy-
##MOLFORM=C10H22O
##CAS REGISTRY NO=929-61-3
##MP= -300
##BP= -300
##MW= 158
##$RETENTION INDEX=1084
##$CONDENSED SPECTRUM=NO
##NPOINTS= 55
##XYDATA=(XY..XY) 1 
    26         14
    27        212
    29        387
    30         12
    31        789
    33          6
    37          1
    38          2
    39         86
    40         11
    41        450
    42        173
    43        279
    44         19
    45         50
    46          1
    47        259
    48          5
    50          1
    51          3
    52          2
    53         19
    54         21
    55        224
    56        359
    57        208
    58         15
    59        999
    60         32
    61          8
    63          1
    65          2
    66          1
    67         18
    68         84
    69        211
    70        195
    71         96
    72          7
    73          4
    74          5
    77          1
    79          1
    81          3
    82         55
    83        153
    84        252
    85         13
    97         13
    98          1
   101          4
   111          6
   112         81
   113          8
   115          2