##TITLE=Library Entry 59869
##JCAMP-DX=Revision 4.10 
##DATA TYPE=MASS SPECTRUM
##SAMPLE DESCRIPTION=A.A.Kutin, Moscow, Russia
##NAMES=HP
##CAS NAME=1H-1,2,4-Triazole, 1-benzyl-3-benzylthio-
##MOLFORM=C16H15N3S
##CAS REGISTRY NO=92969-14-7
##MP= -300
##BP= -300
##MW= 281
##$RETENTION INDEX=0
##$CONDENSED SPECTRUM=NO
##NPOINTS= 46
##XYDATA=(XY..XY) 1 
    33         36
    37          3
    38         33
    39         96
    40         31
    41         23
    44         21
    45         19
    49          3
    50         27
    51         52
    53          7
    55          3
    62         13
    63         56
    65        248
    66          5
    69          4
    70          3
    77         44
    78          8
    79          2
    88          1
    89         57
    91        999
    93         33
   104         58
   105          4
   106          5
   117          1
   118          2
   121         44
   122          2
   123          1
   131          8
   157          8
   190        165
   191          5
   192          3
   247          2
   248         80
   249         12
   279          3
   280         12
   281        113
   282         30