##TITLE=Library Entry 64295
##JCAMP-DX=Revision 4.10 
##DATA TYPE=MASS SPECTRUM
##SAMPLE DESCRIPTION=Japan AIST/NIMC Database- Spectrum MS-IW-5781
##NAMES=HP
##CAS NAME=Ethyl 2'-methylazobenzene-4-carboxylate
##MOLFORM=C16H16N2O2
##CAS REGISTRY NO=92966-26-2
##MP= -300
##BP= -300
##MW= 268
##$RETENTION INDEX=0
##$CONDENSED SPECTRUM=NO
##NPOINTS= 94
##XYDATA=(XY..XY) 1 
    17          4
    18          1
    26          1
    27          8
    28          7
    29         22
    31          1
    38          1
    39         24
    40          1
    41          9
    43          1
    45          2
    50         15
    51         17
    52          4
    53          2
    62          2
    63         13
    64          8
    65        161
    66          9
    74          2
    75         22
    76         49
    77         21
    78          6
    79          3
    83          2
    89         15
    90         10
    91        999
    92         92
    93         12
    96          1
    97          1
   102          1
   103        115
   104        100
   105         12
   106          6
   107          3
   111          5
   115          2
   117          1
   118          2
   119        238
   120         23
   121         54
   122          5
   128          3
   129          1
   134          1
   139          1
   140          1
   141          2
   149        314
   150         30
   151          5
   152         21
   153          4
   155          1
   163          1
   164          1
   165         25
   166         11
   167         22
   168          5
   169          1
   177         27
   178          4
   179          2
   180          1
   184          2
   192          1
   193          4
   194         11
   195         73
   196         11
   197          2
   211          2
   212          1
   221          1
   222          1
   223         61
   224          9
   225          1
   239         16
   240          5
   267         46
   268        550
   269         99
   270         12
   271          1