##TITLE=Library Entry 45963
##JCAMP-DX=Revision 4.10 
##DATA TYPE=MASS SPECTRUM
##SAMPLE DESCRIPTION=NIST Mass Spectrometry Data Center
##NAMES=HP
##CAS NAME=2-Octanol, TBDMS derivative
##MOLFORM=C14H32OSi
##CAS REGISTRY NO=92976-54-0
##MP= -300
##BP= -300
##MW= 244
##$RETENTION INDEX=1318
##$CONDENSED SPECTRUM=NO
##NPOINTS= 96
##XYDATA=(XY..XY) 1 
    27         10
    28          3
    29         28
    30          1
    31          1
    39         11
    40          2
    41         51
    42          7
    43         36
    44          3
    45         29
    46          2
    47         27
    48          1
    49          1
    51          1
    53          4
    54          1
    55         21
    56          6
    57         25
    58         17
    59         43
    60         10
    61         30
    62          2
    63          1
    65          1
    67          3
    68          2
    69         15
    70          4
    71          6
    72          9
    73        204
    74         32
    75        999
    76         80
    77         39
    78          1
    79          1
    81          3
    82          1
    83          3
    84          1
    85         11
    86          5
    87         17
    88          2
    89          6
    95          1
    97          6
    98          1
    99         19
   100          4
   101         42
   102         14
   103         42
   104          5
   105          2
   109          1
   111          3
   112          1
   113          4
   114          2
   115         48
   116          6
   117          4
   125          1
   127          3
   129         35
   130          4
   131          2
   133          1
   141          1
   143          9
   144          1
   145          1
   157          1
   159        119
   160         16
   161          5
   171          5
   172          1
   173          3
   185          1
   187        669
   188        113
   189         32
   190          3
   229         19
   230          4
   231          1
   243          2
   244          1