##TITLE=Library Entry 67636
##JCAMP-DX=Revision 4.10 
##DATA TYPE=MASS SPECTRUM
##SAMPLE DESCRIPTION=A.A.Kutin, Moscow, Russia
##NAMES=HP
##CAS NAME=2-Furancarboxylic acid, [(2-hydroxyphenyl)methylene]hydrazide
##MOLFORM=C12H10N2O3
##CAS REGISTRY NO=92982-43-9
##MP= -300
##BP= -300
##MW= 230
##$RETENTION INDEX=0
##$CONDENSED SPECTRUM=NO
##NPOINTS= 146
##XYDATA=(XY..XY) 1 
    33          1
    34          3
    37         75
    38        180
    39        617
    40         81
    41         35
    42         19
    43         23
    44         32
    45          4
    46          1
    47          0
    48          1
    50         86
    51        167
    52        101
    53         84
    54         22
    55         77
    56          7
    57          6
    58          0
    60          2
    61          9
    62         30
    63         89
    64         51
    65         69
    66         32
    67         56
    68         22
    69         12
    70          3
    71          1
    72          0
    73          3
    74         16
    75         15
    77        209
    78         96
    79         25
    80         51
    81         12
    83         40
    84         18
    85          1
    86          2
    87          3
    89          8
    90         34
    91         54
    92         20
    93         15
    95        999
    96         42
    97          5
    98          0
    99          0
   100          0
   101          1
   102         10
   103          2
   105         44
   106         12
   107         22
   108         20
   109          3
   111        343
   112        170
   113         11
   115          7
   117         14
   118          5
   119         33
   120         13
   121          9
   122          1
   123          1
   124          0
   126          0
   127          2
   128          2
   129          1
   130          1
   131          1
   132          1
   133          5
   134          3
   135         13
   136          1
   137          2
   139          0
   140          0
   141          1
   142          0
   143          0
   144          1
   145          0
   146          0
   147          0
   148          0
   149          0
   150          0
   151          0
   152          0
   153          0
   155          4
   156          2
   157          1
   158          1
   159          0
   161          0
   162          0
   163          0
   165          0
   166          0
   167          0
   168          0
   171          1
   172          0
   173          1
   174          0
   175          0
   178          0
   180          0
   181          0
   182          0
   183          0
   184          0
   186          0
   189          0
   196          0
   198          0
   199          1
   200          0
   201          0
   210          0
   211          0
   212          0
   213          0
   227          0
   228          0
   230         82
   231         10
   232          0