##TITLE=Library Entry 10994
##JCAMP-DX=Revision 4.10 
##DATA TYPE=MASS SPECTRUM
##SAMPLE DESCRIPTION=N.W. Davies, Centr. Sci. Lab., Univ. Tasmania, Hobart,
 Australia
##NAMES=HP
##CAS NAME=exo-2-Hydroxycineole
##MOLFORM=C10H18O2
##CAS REGISTRY NO=92999-78-5
##MP= -300
##BP= -300
##MW= 170
##$RETENTION INDEX=1224
##$CONDENSED SPECTRUM=NO
##NPOINTS= 81
##XYDATA=(XY..XY) 1 
    25         36
    26         79
    27         28
    30         28
    34         21
    36         23
    37         17
    38         12
    39        146
    40          9
    41        371
    42         98
    43        999
    44        174
    45         41
    53         81
    54         17
    55        244
    56         17
    57         64
    58        182
    59         98
    63         12
    65         55
    66         28
    67        158
    68        165
    69        399
    70         91
    71        564
    72         26
    73         36
    74         14
    77         23
    78         38
    79         76
    80         43
    81         79
    82        100
    83        213
    84         64
    85         14
    86         26
    87          7
    89         14
    91         43
    92          7
    93        397
    94         62
    95         31
    96         19
    97         95
    98         23
    99          7
   101         12
   102          7
   105          9
   106         31
   107         33
   108        705
   109        155
   110         33
   111        363
   112        100
   113         14
   115         14
   117          7
   119          7
   121         12
   123         36
   124         28
   125         43
   126        543
   127         62
   129          9
   131         19
   133         17
   134         36
   135         28
   137         26
   170         91