##TITLE=Library Entry 61820
##JCAMP-DX=Revision 4.10 
##DATA TYPE=MASS SPECTRUM
##SAMPLE DESCRIPTION=Japan AIST/NIMC Database- Spectrum MS-NW-2623
##NAMES=HP
##CAS NAME=Benzeneacetic acid, 2-methoxy-
##MOLFORM=C9H10O3
##CAS REGISTRY NO=93-25-4
##MP= -300
##BP= -300
##MW= 166
##$RETENTION INDEX=0
##$CONDENSED SPECTRUM=NO
##NPOINTS= 85
##XYDATA=(XY..XY) 1 
    14          3
    15         20
    16          1
    17          1
    18          5
    26          9
    27         27
    28         15
    29         12
    30          2
    31          3
    32          1
    37         10
    38         24
    39         97
    40          9
    41         16
    42          3
    43          6
    44          7
    45         45
    49          5
    50         62
    51        149
    52         76
    53         26
    54          3
    55          8
    60          2
    61         10
    62         28
    63         63
    64         17
    65        140
    66         15
    67          3
    68          1
    69          1
    73          4
    74         16
    75         13
    76         15
    77        182
    78        172
    79         55
    80          4
    81          5
    85          2
    86          5
    87          4
    88          2
    89         53
    90         47
    91        999
    92         97
    93         57
    94          7
    95          3
   102          3
   103          1
   104          2
   105         28
   106         13
   107        238
   108         20
   109          5
   118          2
   119          9
   120          8
   121        549
   122        331
   123         29
   124          3
   130          1
   133         24
   134          8
   135          3
   136          1
   137          3
   147          1
   148         22
   149          3
   166        400
   167         40
   168          5