##TITLE=Library Entry 85239
##JCAMP-DX=Revision 4.10 
##DATA TYPE=MASS SPECTRUM
##SAMPLE DESCRIPTION=Japan AIST/NIMC Database- Spectrum MS-NW-1552
##NAMES=HP
##CAS NAME=Acetamide, N-(2-methoxyphenyl)-
##MOLFORM=C9H11NO2
##CAS REGISTRY NO=93-26-5
##MP= -300
##BP= -300
##MW= 165
##$RETENTION INDEX=0
##$CONDENSED SPECTRUM=NO
##NPOINTS= 79
##XYDATA=(XY..XY) 1 
    14          8
    15         73
    17          1
    18          3
    26         10
    27         23
    28         17
    29          7
    30          2
    31          1
    37          8
    38         22
    39         58
    40          6
    41         25
    42         15
    43        289
    44          8
    49          3
    50         35
    51         89
    52        150
    53         67
    54         11
    55          3
    56          1
    61          6
    62         12
    63         43
    64         29
    65        147
    66         22
    67          8
    68          1
    73          1
    74          5
    75          6
    76         10
    77         40
    78         41
    79         35
    80        429
    81         26
    88          1
    89          1
    90          6
    91         17
    92         79
    93         31
    94         38
    95         22
    96          2
   102          1
   104          9
   105          9
   106         14
   107          5
   108        999
   109         76
   110          5
   120         17
   121          7
   122         12
   123        743
   124         61
   125          4
   132          3
   133          4
   134         13
   135          9
   136          6
   146          1
   147          3
   149          8
   150          4
   164          2
   165        482
   166         51
   167          5