##TITLE=Library Entry 28759
##JCAMP-DX=Revision 4.10 
##DATA TYPE=MASS SPECTRUM
##SAMPLE DESCRIPTION=AAFS Toxicology Section MS DB Committee, U. Alberta, Ca
nada
##NAMES=HP
##CAS NAME=Methoxyphenamine
##MOLFORM=C11H17NO
##CAS REGISTRY NO=93-30-1
##MP= -300
##BP= -300
##MW= 179
##$RETENTION INDEX=1371
##$CONDENSED SPECTRUM=NO
##NPOINTS= 65
##XYDATA=(XY..XY) 1 
    39          9
    40          2
    41          6
    42         17
    43          8
    44          1
    50          6
    51         15
    52         10
    53          4
    54          2
    55          2
    56         40
    57         15
    58        999
    59         34
    62          4
    63         10
    64          3
    65         39
    70          2
    74         12
    76          4
    77         36
    78         40
    79         11
    80          2
    82          2
    89         16
    90          7
    91        138
    92         11
    93          5
    94          2
   102          3
   103         12
   104          5
   105          9
   106          4
   107         15
   108          9
   115         18
   116          6
   117         10
   118          6
   119          8
   120          3
   121         43
   122         17
   123          2
   130          4
   131         10
   132         14
   133         10
   134          4
   146          7
   147          5
   148          7
   149         11
   162          3
   163          2
   164         20
   165          2
   178          9
   179          7