##TITLE=Library Entry 79836
##JCAMP-DX=Revision 4.10 
##DATA TYPE=MASS SPECTRUM
##SAMPLE DESCRIPTION=NIST Mass Spectrometry Data Center, 1994
##NAMES=HP
##CAS NAME=2-Naphthyl benzoate
##MOLFORM=C17H12O2
##CAS REGISTRY NO=93-44-7
##MP= -300
##BP= -300
##MW= 248
##$RETENTION INDEX=0
##$CONDENSED SPECTRUM=NO
##NPOINTS= 62
##XYDATA=(XY..XY) 1 
    18          0
    26          0
    27          5
    28         10
    32          1
    37          1
    38          3
    39         14
    40          1
    44          0
    50         28
    51         72
    52          4
    53          1
    58          0
    61          1
    62         11
    63         25
    64          3
    65         12
    66          1
    74         11
    75         11
    77        322
    78         20
    79          0
    85          0
    86          4
    87          6
    88          9
    89         30
    90          3
    98          1
    99          0
   101          2
   102          0
   105        999
   106         76
   107          4
   111          0
   113         10
   115        121
   116         13
   117          0
   126          6
   127          6
   128          1
   139          0
   143          4
   144          5
   145          0
   163          1
   164          0
   165          2
   189          7
   190          2
   191          1
   202          1
   218          1
   248        169
   249         32
   250          4