##TITLE=Library Entry 83600
##JCAMP-DX=Revision 4.10 
##DATA TYPE=MASS SPECTRUM
##SAMPLE DESCRIPTION=Japan AIST/NIMC Database- Spectrum MS-NW-3395
##NAMES=HP
##CAS NAME=Benzenemethanol, .alpha.-ethyl-
##MOLFORM=C9H12O
##CAS REGISTRY NO=93-54-9
##MP= -300
##BP= -300
##MW= 136
##$RETENTION INDEX=1908
##$CONDENSED SPECTRUM=NO
##NPOINTS= 74
##XYDATA=(XY..XY) 1 
    15          3
    18          3
    26          7
    27         43
    28          4
    29         35
    30          1
    31         10
    32          1
    37          3
    38          8
    39         39
    40          4
    41         10
    42          1
    43         16
    44          1
    49          3
    50         37
    51         95
    52         26
    53         19
    54          1
    55          6
    57         23
    58          5
    59          3
    61          3
    62          9
    63         21
    64          4
    65         17
    66          3
    73          2
    74         13
    75         10
    76          9
    77        288
    78         71
    79        579
    80         42
    81          1
    85          1
    86          2
    87          3
    88          1
    89         10
    90          4
    91         56
    92          5
    93          2
    94          1
   101          1
   102          6
   103         14
   104          8
   105         55
   106         10
   107        999
   108         73
   109          4
   113          1
   115         25
   116          7
   117         53
   118         37
   119          5
   120          2
   121          1
   133          1
   134          1
   135          5
   136         91
   137          9