##TITLE=Library Entry 83602
##JCAMP-DX=Revision 4.10 
##DATA TYPE=MASS SPECTRUM
##SAMPLE DESCRIPTION=Japan AIST/NIMC Database- Spectrum MS-IW-5630
##NAMES=HP
##CAS NAME=1,2-Ethanediol, 1-phenyl-
##MOLFORM=C8H10O2
##CAS REGISTRY NO=93-56-1
##MP= -300
##BP= -300
##MW= 138
##$RETENTION INDEX=1308
##$CONDENSED SPECTRUM=NO
##NPOINTS= 74
##XYDATA=(XY..XY) 1 
    15          2
    17          5
    18         22
    26          2
    27         14
    28          5
    29         18
    30          1
    31         15
    37          3
    38          8
    39         40
    40          3
    41          6
    42          2
    43          9
    44          1
    45          2
    46          1
    49          2
    50         31
    51         88
    52         20
    53         14
    54          1
    55          3
    58          1
    59          1
    60          2
    61          4
    62          9
    63         24
    64          5
    65         53
    66          4
    67          1
    68          1
    73          2
    74         10
    75          9
    76          8
    77        327
    78         50
    79        553
    80         37
    81          1
    83          1
    85          1
    86          2
    87          2
    88          1
    89         21
    90         13
    91        276
    92         61
    93          5
    94          1
   101          1
   102          2
   103         12
   104         12
   105         94
   106         15
   107        999
   108         86
   109          5
   119          3
   120         60
   121         15
   122         17
   123          1
   136          1
   138         52
   139          5