##TITLE=Library Entry 79339
##JCAMP-DX=Revision 4.10 
##DATA TYPE=MASS SPECTRUM
##SAMPLE DESCRIPTION=Chuck Anderson, Aldrich Chemical Co.
##NAMES=HP
##CAS NAME=Benzoic acid, methyl ester
##MOLFORM=C8H8O2
##CAS REGISTRY NO=93-58-3
##MP= -300
##BP= -300
##MW= 136
##$RETENTION INDEX=1094
##$CONDENSED SPECTRUM=NO
##NPOINTS= 77
##XYDATA=(XY..XY) 1 
    13          0
    14          0
    15         12
    16          0
    25          0
    26          3
    27         21
    28          5
    29         10
    30          3
    31          2
    32          0
    36          0
    37         10
    38         21
    39         26
    40          1
    41          0
    42          0
    43          0
    44          1
    45          1
    48          0
    49          8
    50        115
    51        253
    52         15
    53          6
    54          0
    55          0
    58          0
    59          8
    60          0
    61          2
    62          4
    63          7
    64          3
    65          6
    66          1
    67          0
    69          0
    72          0
    73          6
    74         35
    75         23
    76         36
    77        624
    78         43
    79          2
    80          0
    84          0
    85          0
    86          0
    87          0
    89          0
    90          1
    91         28
    92         38
    93          3
    94          0
   103          2
   105        999
   106         70
   107          4
   108          0
   118          3
   119          5
   120          2
   121          1
   122          0
   128          0
   133          0
   135         29
   136        385
   137         31
   138          2
   139          0