##TITLE=Library Entry 77784
##JCAMP-DX=Revision 4.10 
##DATA TYPE=MASS SPECTRUM
##SAMPLE DESCRIPTION=Chuck Anderson, Aldrich Chemical Co.
##NAMES=HP
##CAS NAME=Benzene, (1,2-dibromoethyl)-
##MOLFORM=C8H8Br2
##CAS REGISTRY NO=93-52-7
##MP= -300
##BP= -300
##MW= 262
##$RETENTION INDEX=0
##$CONDENSED SPECTRUM=NO
##NPOINTS= 59
##XYDATA=(XY..XY) 1 
    26         10
    27         34
    28          1
    36          2
    37          9
    38         24
    39         67
    40          3
    41          1
    49          5
    50         63
    51        142
    52         36
    53          5
    61          5
    62         16
    63         41
    64          5
    65          6
    73          3
    74         29
    75         22
    76         30
    77        151
    78        134
    79         12
    80          2
    81          4
    82          2
    85          1
    86          2
    87          5
    89         16
    90         10
    91         15
    92         19
    97          0
    98          5
    99          1
   101          7
   102         76
   103        346
   104        999
   105         80
   106          3
   158          1
   160          0
   169         11
   171         11
   182          1
   183        458
   184         36
   185        460
   186         34
   187          0
   262         11
   264         22
   265          1
   266         10