##TITLE=Library Entry 78674
##JCAMP-DX=Revision 4.10 
##DATA TYPE=MASS SPECTRUM
##SAMPLE DESCRIPTION=NIST Mass Spectrometry Data Center, 1990.
##NAMES=HP
##CAS NAME=1-Propanone, 1-phenyl-
##MOLFORM=C9H10O
##CAS REGISTRY NO=93-55-0
##MP= -300
##BP= -300
##MW= 134
##$RETENTION INDEX=1176
##$CONDENSED SPECTRUM=NO
##NPOINTS= 36
##XYDATA=(XY..XY) 1 
    14          2
    26         10
    27         41
    28          2
    29         25
    32          1
    37          3
    38          8
    39         18
    50         82
    51        219
    52         16
    53          5
    55          8
    56          3
    57          7
    61          3
    62          8
    63         13
    65          9
    73          6
    74         27
    75         19
    76          3
    77        586
    78         43
    79          7
    89          5
    91          7
   103          5
   105        999
   106         75
   107          5
   115          3
   134        164
   135         16