##TITLE=Library Entry 90744
##JCAMP-DX=Revision 4.10 
##DATA TYPE=MASS SPECTRUM
##SAMPLE DESCRIPTION=Japan AIST/NIMC Database- Spectrum MS-IW- 273
##NAMES=HP
##CAS NAME=N-(2-Hydroxyethyl)iminodiacetic acid
##MOLFORM=C6H11NO5
##CAS REGISTRY NO=93-62-9
##MP= -300
##BP= -300
##MW= 177
##$RETENTION INDEX=0
##$CONDENSED SPECTRUM=NO
##NPOINTS= 84
##XYDATA=(XY..XY) 1 
    14          6
    15         47
    16          1
    17          4
    18         14
    26          7
    27         26
    28         83
    29         22
    30         25
    31         18
    32          1
    36          1
    38          1
    39          5
    40         11
    41         51
    42        568
    43         54
    44         49
    45         40
    46          3
    50          2
    51          1
    52          2
    54          9
    55          7
    56        284
    57         21
    58         15
    59         28
    60         99
    61          2
    68          2
    69          4
    70         37
    71          5
    72         15
    73          7
    74         57
    75          2
    77          2
    78          2
    83          1
    84          5
    85          2
    86        291
    87         50
    88        186
    89          8
    90          1
    94          3
    97          1
    98          1
    99          2
   100         31
   101        130
   102         75
   103          4
   104          5
   113          7
   114        999
   115        115
   116         11
   117          1
   118         25
   119          1
   128          4
   129          3
   130          8
   131          3
   132        135
   133          9
   134          1
   141          1
   146        240
   147         14
   148          2
   158          2
   159        305
   160         30
   161          3
   177         10
   178          8