##TITLE=Library Entry 83394
##JCAMP-DX=Revision 4.10 
##DATA TYPE=MASS SPECTRUM
##SAMPLE DESCRIPTION=TNO Volatile Compounds in Food - Chemical Concepts
##NAMES=HP
##CAS NAME=o-Tolylbiguanide
##MOLFORM=C9H13N5
##CAS REGISTRY NO=93-69-6
##MP= -300
##BP= -300
##MW= 191
##$RETENTION INDEX=0
##$CONDENSED SPECTRUM=NO
##NPOINTS= 108
##XYDATA=(XY..XY) 1 
    31          8
    32         10
    36          4
    37         15
    38         35
    39        117
    40         17
    41         64
    42        126
    43        745
    44        368
    45         15
    49          5
    50         40
    51         84
    52         36
    53         22
    54         14
    55         21
    56         10
    57         20
    58          2
    59         27
    60        203
    61          7
    62         12
    63         37
    64         16
    65         92
    66         21
    67         11
    68         93
    69          8
    70          7
    71          9
    72          5
    73          2
    74         15
    75         13
    76         19
    77        118
    78         96
    79         67
    80         13
    81          8
    82          5
    83          6
    84          9
    85        658
    86         32
    87          8
    88          7
    89         41
    90         23
    91        116
    92         15
    93          7
    94          3
    95          3
    96         11
    97          8
    99          3
   102          7
   103          6
   104        119
   105         46
   106        389
   107        999
   108         81
   109          6
   111          4
   113          3
   114          3
   115          3
   116         60
   117         14
   118          6
   119          4
   121          2
   126          3
   129          6
   130          5
   131        132
   132        186
   133         96
   134         48
   135          5
   141         13
   145          3
   146         22
   147          8
   148         62
   149         85
   150          9
   157          6
   158         10
   159         10
   171          2
   172          2
   173         16
   174         15
   175         17
   176         53
   177          6
   190         23
   191        659
   192         71
   193          4