##TITLE=Library Entry 84456
##JCAMP-DX=Revision 4.10 
##DATA TYPE=MASS SPECTRUM
##SAMPLE DESCRIPTION=Japan AIST/NIMC Database- Spectrum MS-NW- 314
##NAMES=HP
##CAS NAME=Butanamide, N-(2-methylphenyl)-3-oxo-
##MOLFORM=C11H13NO2
##CAS REGISTRY NO=93-68-5
##MP= -300
##BP= -300
##MW= 191
##$RETENTION INDEX=0
##$CONDENSED SPECTRUM=NO
##NPOINTS= 74
##XYDATA=(XY..XY) 1 
    15          9
    26          2
    27         15
    28          8
    29          3
    30          7
    31          3
    37          1
    38          5
    39         32
    40          4
    41          9
    42          9
    43        243
    44          5
    50         10
    51         28
    52         19
    53         12
    54          4
    55          3
    57          1
    58         21
    59          3
    62          3
    63         11
    64          6
    65         26
    66          5
    67          2
    69          7
    73          1
    74          3
    75          2
    76          5
    77         75
    78         36
    79         35
    80          9
    81          1
    84          2
    85         39
    86          2
    89         13
    90         13
    91         42
    92          5
    93          3
   102          1
   103          2
   104         33
   105         30
   106        343
   107        999
   108         83
   109          3
   117          1
   118          3
   120          7
   130          7
   131          3
   132          9
   133        192
   134         34
   135          2
   146          2
   147          1
   148          7
   149          2
   158          1
   176          2
   191        352
   192         44
   193          4