##TITLE=Library Entry 82990
##JCAMP-DX=Revision 4.10 
##DATA TYPE=MASS SPECTRUM
##SAMPLE DESCRIPTION=Japan AIST/NIMC Database- Spectrum MS-NW-5078
##NAMES=HP
##CAS NAME=Formamide, N-methyl-N-phenyl-
##MOLFORM=C8H9NO
##CAS REGISTRY NO=93-61-8
##MP= -300
##BP= -300
##MW= 135
##$RETENTION INDEX=2027
##$CONDENSED SPECTRUM=NO
##NPOINTS= 76
##XYDATA=(XY..XY) 1 
    14          2
    15         16
    17          1
    18          8
    26          6
    27         25
    28         30
    29         32
    30         34
    32          2
    36          1
    37         14
    38         31
    39        108
    40         13
    41          9
    42         87
    43          3
    44          5
    45          2
    46          3
    49          6
    50         56
    51        164
    52         39
    53         15
    54          6
    55          5
    56          1
    57          7
    58          2
    59          1
    60          1
    61          7
    62         12
    63         44
    64         35
    65         96
    66        185
    67         11
    68          2
    73          5
    74         19
    75         12
    76         14
    77        324
    78         97
    79        108
    80          9
    81          3
    87          1
    88          2
    89          2
    90          8
    91         44
    92         23
    93          4
    94        204
    95         13
    96          1
   103          3
   104         56
   105         22
   106        999
   107        205
   108         13
   117          1
   118          2
   119          5
   120          6
   121          4
   133          1
   134         29
   135        909
   136         84
   137          5