##TITLE=Library Entry 5724
##JCAMP-DX=Revision 4.10 
##DATA TYPE=MASS SPECTRUM
##SAMPLE DESCRIPTION=Chemical Concepts
##NAMES=HP
##CAS NAME=2,4,5-T Isopropyl ester
##MOLFORM=C11H11Cl3O3
##CAS REGISTRY NO=93-78-7
##MP= -300
##BP= -300
##MW= 296
##$RETENTION INDEX=1834
##$CONDENSED SPECTRUM=NO
##NPOINTS= 33
##XYDATA=(XY..XY) 1 
    15        274
    27        508
    29        196
    41        528
    42        286
    43        999
    62         66
    73         58
    74        105
    97         97
    99         38
   108         44
   109        110
   111         51
   143         80
   145        104
   146         77
   179         86
   181         89
   196        120
   198        108
   200         34
   209        194
   211        174
   213         54
   219         76
   221         47
   254         43
   255         33
   256         40
   292         13
   296         91
   298         81