##TITLE=Library Entry 23280
##JCAMP-DX=Revision 4.10 
##DATA TYPE=MASS SPECTRUM
##SAMPLE DESCRIPTION=VERIFIN - Methodology B3-1982
##NAMES=HP
##CAS NAME=Acetic acid, (2,4,5-trichlorophenoxy)-, butyl ester
##MOLFORM=C12H13Cl3O3
##CAS REGISTRY NO=93-79-8
##MP= -300
##BP= -300
##MW= 310
##$RETENTION INDEX=2003
##$CONDENSED SPECTRUM=NO
##NPOINTS= 47
##XYDATA=(XY..XY) 1 
    27         70
    29        330
    32         50
    39         50
    41        390
    42         80
    43         80
    44         40
    55         90
    56         60
    57        999
    58         50
    73         30
    74         50
    97         70
   109         70
   143         70
   144         40
   145         70
   146         80
   147         30
   148         40
   167         50
   169         50
   179        120
   181        130
   183         60
   195         40
   196        170
   197         30
   198        170
   200         60
   209        190
   210         50
   211        200
   212         30
   219        320
   220         30
   221        210
   223         40
   254        140
   256        120
   258         30
   310        250
   312        240
   313         40
   314         80