##TITLE=Library Entry 57232
##JCAMP-DX=Revision 4.10 
##DATA TYPE=MASS SPECTRUM
##SAMPLE DESCRIPTION=J. SHAW, BORRISTON RESEARCH, ROCKVILLE, MD, USA
##NAMES=HP
##CAS NAME=Butanoic acid, 4-(2,4,5-trichlorophenoxy)-
##MOLFORM=C10H9Cl3O3
##CAS REGISTRY NO=93-80-1
##MP= -300
##BP= -300
##MW= 282
##$RETENTION INDEX=0
##$CONDENSED SPECTRUM=NO
##NPOINTS= 166
##XYDATA=(XY..XY) 1 
    12          2
    13          2
    14         16
    15         65
    16          3
    17          6
    18         15
    19         11
    26         43
    27        349
    28         67
    29        117
    30         10
    31         86
    35          9
    36          8
    37         19
    38         26
    39        234
    40         47
    41        470
    42        142
    43        492
    45        711
    46         12
    47          7
    48          1
    49          7
    50         10
    51          4
    53         19
    55         19
    56          2
    57         12
    58          2
    59         13
    60         30
    61         37
    62         68
    63         25
    64          1
    65          2
    66          1
    69        149
    70          7
    71          6
    72         18
    73         34
    74         34
    75         15
    76          1
    77          3
    83         20
    84         12
    85         45
    87        999
    88         41
    89          7
    90          2
    91          1
    95          3
    96         25
    97        192
    98         20
    99         67
   100          5
   101          3
   102          2
   103          1
   105          2
   107         49
   108         16
   109         62
   110          9
   111         18
   112          1
   113          5
   115          1
   117          2
   118          1
   119          5
   120          2
   121          2
   122          1
   123          3
   124          1
   125          7
   126          4
   127          9
   128          2
   129          1
   131         14
   132         51
   133         64
   134         33
   135         38
   136          8
   137          7
   138          1
   139          1
   141          2
   143         30
   144         15
   145         26
   146         15
   147          9
   148          6
   149          6
   150          1
   151          3
   153          1
   159          7
   160         18
   161         13
   162         19
   163          9
   164          7
   165          4
   167         80
   169         79
   171         29
   172          2
   173          4
   174          1
   175          1
   177          7
   179         24
   181         23
   183          9
   185          1
   187          2
   188          1
   189          1
   192         64
   194         49
   196        672
   198        661
   200        234
   201         36
   203          2
   205          1
   207          1
   209          7
   211          6
   213          1
   222          1
   223          5
   224          2
   225          4
   226          1
   237          1
   239          1
   261          9
   263          6
   265        100
   267        101
   269         36
   270          2
   271          2
   278         29
   280         22
   282        168
   283          8
   284        187
   286         74
   288          5