##TITLE=Library Entry 81410
##JCAMP-DX=Revision 4.10 
##DATA TYPE=MASS SPECTRUM
##SAMPLE DESCRIPTION=Exported from NIST MS Search
##NAMES=HP
##CAS NAME=1,3-Butanedione, 1-phenyl-
##MOLFORM=C10H10O2
##CAS REGISTRY NO=93-91-4
##MP= -300
##BP= -300
##MW= 162
##$RETENTION INDEX=1656
##$CONDENSED SPECTRUM=NO
##NPOINTS= 91
##XYDATA=(XY..XY) 1 
    14          3
    15         22
    18          1
    26          4
    27         29
    28         22
    29         13
    31         10
    32          5
    36          1
    37          4
    38         11
    39         46
    40          5
    41         24
    42         12
    43        255
    44          7
    45          5
    49          3
    50         62
    51        187
    52         21
    53         10
    55         16
    56          1
    57          3
    58          3
    59         11
    61          4
    62         11
    63         26
    64          6
    65         42
    66         13
    67         21
    69        555
    70         19
    71          4
    73          5
    74         27
    75         23
    76         30
    77        516
    78        121
    79         21
    80          3
    81          4
    84          6
    85        161
    86         10
    87          4
    89         19
    90          9
    91         47
    92          7
    93          2
    94          1
    97          3
    98          2
    99          2
   101          5
   102         14
   103         28
   105        999
   106         79
   107          5
   115         13
   116          4
   117          4
   118          6
   119          5
   120         85
   121         10
   127          2
   129          3
   131          3
   132          3
   133          6
   134          9
   135          1
   143          4
   144          5
   145         16
   147        685
   148         69
   149          6
   161        490
   162        942
   163        109
   164         10