##TITLE=Library Entry 77536
##JCAMP-DX=Revision 4.10 
##DATA TYPE=MASS SPECTRUM
##SAMPLE DESCRIPTION=Chuck Anderson, Aldrich Chemical Co.
##NAMES=HP
##CAS NAME=Benzenemethanol, .alpha.-methyl-, acetate
##MOLFORM=C10H12O2
##CAS REGISTRY NO=93-92-5
##MP= -300
##BP= -300
##MW= 164
##$RETENTION INDEX=1192
##$CONDENSED SPECTRUM=NO
##NPOINTS= 93
##XYDATA=(XY..XY) 1 
    12          0
    13          0
    14          3
    15         32
    16          1
    19          0
    20          0
    25          0
    26          5
    27         65
    28          9
    29         10
    30          0
    31          1
    32          0
    35          0
    36          0
    37          3
    38         11
    39         63
    40          5
    41          6
    42         13
    43        760
    44         20
    45          8
    46          0
    49          2
    50         64
    51        196
    52         46
    53         22
    54          1
    55          1
    59          0
    60          1
    61          5
    62         11
    63         33
    64          6
    65         20
    66          3
    67          0
    73          2
    74         20
    75         16
    76         24
    77        406
    78        291
    79        276
    80         18
    81          0
    84          0
    85          0
    86          2
    87          3
    88          0
    89         21
    90          5
    91         25
    92          2
    93          4
    94          1
    95          0
    96          0
    97          0
    98          2
    99          0
   101          3
   102         30
   103        289
   104        999
   105        661
   106         54
   107        363
   108         28
   109          2
   115          0
   119          1
   120          2
   121         83
   122        867
   123         74
   124          5
   125          0
   131          0
   133          0
   149         10
   150          1
   164        208
   165         22
   166          2
   167          0