##TITLE=Library Entry 79609
##JCAMP-DX=Revision 4.10 
##DATA TYPE=MASS SPECTRUM
##SAMPLE DESCRIPTION=Japan AIST/NIMC Database- Spectrum MS-NW-5744
##NAMES=HP
##CAS NAME=Benzamide, N-phenyl-
##MOLFORM=C13H11NO
##CAS REGISTRY NO=93-98-1
##MP= -300
##BP= -300
##MW= 197
##$RETENTION INDEX=1989
##$CONDENSED SPECTRUM=NO
##NPOINTS= 82
##XYDATA=(XY..XY) 1 
    14          4
    15          5
    16          2
    17          2
    26          2
    27          8
    28          1
    29         13
    30          2
    31         22
    32          1
    37          3
    38          8
    39         28
    40          4
    41          2
    42          1
    43          1
    44          3
    49          1
    50         25
    51         96
    52         10
    53          2
    54          1
    56          1
    57          1
    61          2
    62          3
    63         11
    64          9
    65         34
    66          8
    67          1
    69          1
    70          1
    71          1
    73          2
    74          9
    75          8
    76         14
    77        421
    78         33
    79          2
    81          1
    83          1
    89          2
    90          2
    91          7
    92          9
    93         15
    94          4
    98          1
    99          1
   101          1
   103          2
   104          4
   105        999
   106         79
   107          6
   108          1
   115          3
   119          2
   120          1
   123          1
   136          2
   139          3
   140          1
   141          1
   151          1
   152          2
   153          1
   166          2
   167          7
   168          3
   170          1
   178          1
   195          4
   196          5
   197        374
   198         59
   199          5