##TITLE=Library Entry 80495
##JCAMP-DX=Revision 4.10 
##DATA TYPE=MASS SPECTRUM
##SAMPLE DESCRIPTION=Chemical Concepts
##NAMES=HP
##CAS NAME=Acetic acid, oxo((1-phenylethyl)amino)-, hydrazide
##MOLFORM=C10H13N3O2
##CAS REGISTRY NO=93-95-8
##MP= -300
##BP= -300
##MW= 207
##$RETENTION INDEX=0
##$CONDENSED SPECTRUM=NO
##NPOINTS= 122
##XYDATA=(XY..XY) 1 
    25          0
    26          2
    27         55
    29         20
    30         15
    31         97
    33          5
    35          0
    36          0
    37          1
    38          2
    39         27
    40         35
    41          9
    42         36
    43         10
    44         17
    45          7
    46          4
    50         15
    51         65
    52         12
    53         10
    54          0
    55          2
    56          1
    57          1
    58          6
    59         13
    60          6
    61          1
    62          2
    63         11
    64          3
    65         10
    66          1
    67          0
    68          1
    69          0
    70          3
    71          1
    72          0
    73          1
    74          2
    75          5
    76          9
    77        187
    78         40
    79        142
    80          7
    81          1
    82          0
    83          0
    84          0
    85          0
    86          0
    87          0
    89          5
    90          4
    91         11
    92          3
    93          1
    94          0
    95          0
    96          2
    97          0
    98          0
    99          0
   100          1
   101          1
   102          6
   103        534
   104        113
   105        999
   106        137
   107          7
   108          0
   109          0
   111          0
   114          0
   116          0
   117          1
   118         24
   119         20
   120         24
   121          5
   128          0
   129          0
   130          1
   131          0
   132         25
   133          3
   134          1
   135          1
   141          0
   146         11
   147         15
   148          2
   149          1
   150          0
   151          0
   152          0
   157          0
   158          0
   159          0
   167          0
   174          0
   175          3
   176          0
   177          0
   178          0
   190          1
   191          8
   192         13
   193          1
   201          0
   203          0
   204          0
   206          1
   207        392
   208         50
   209          3