##TITLE=Library Entry 80657
##JCAMP-DX=Revision 4.10 
##DATA TYPE=MASS SPECTRUM
##SAMPLE DESCRIPTION=NIST Mass Spectrometry Data Center, 1990.
##NAMES=HP
##CAS NAME=Benzene, 1,1'-(oxydiethylidene)bis-
##MOLFORM=C16H18O
##CAS REGISTRY NO=93-96-9
##MP= -300
##BP= -300
##MW= 226
##$RETENTION INDEX=0
##$CONDENSED SPECTRUM=NO
##NPOINTS= 48
##XYDATA=(XY..XY) 1 
    15          6
    26          2
    27         33
    29          2
    37          1
    38          5
    39         31
    40          2
    41          3
    42          1
    43         66
    45          1
    49          2
    50         21
    51         78
    52         14
    53          8
    62          3
    63         16
    64          4
    65         13
    66          1
    74          6
    75          6
    77        186
    78         68
    79        122
    80          9
    89          7
    91         81
    92          6
    93          4
   101          2
   102         10
   103         84
   104         92
   105        999
   106        250
   107         53
   108          3
   121        147
   122         15
   148          3
   165          2
   166          1
   167          4
   211         31
   212          5