##TITLE=Library Entry 2667
##JCAMP-DX=Revision 4.10 
##DATA TYPE=MASS SPECTRUM
##SAMPLE DESCRIPTION=J.VOTH UNIV. OF CALIFORNIA, DAVIS, CALIFORNIA, 95616, U
SA
##NAMES=HP
##CAS NAME=Cyclopropane, butyl-
##MOLFORM=C7H14
##CAS REGISTRY NO=930-57-4
##MP= -300
##BP= -300
##MW= 98
##$RETENTION INDEX=713
##$CONDENSED SPECTRUM=NO
##NPOINTS= 60
##XYDATA=(XY..XY) 1 
    12          3
    13          6
    14         27
    15        117
    16          3
    17          1
    18          4
    25          4
    26         84
    27        722
    28        158
    29        642
    30         15
    31         34
    32          1
    33          5
    36          1
    37         20
    38         53
    39        573
    40         92
    41        999
    42        942
    43        187
    44          7
    45         10
    49          3
    50         28
    51         44
    52         18
    53        103
    54         95
    55        949
    56        698
    57        188
    58          8
    59         10
    61          3
    62          5
    63          9
    64          1
    65         11
    66          6
    67         35
    68         81
    69        317
    70        576
    71         33
    72          1
    73          2
    74          7
    77          4
    78          1
    79          3
    81          4
    82          2
    83         41
    84          3
    98         39
    99          3