##TITLE=Library Entry 29043
##JCAMP-DX=Revision 4.10 
##DATA TYPE=MASS SPECTRUM
##SAMPLE DESCRIPTION=James Little,Eastman Chem.Co.,Kingsport,TN
##NAMES=HP
##CAS NAME=1,3-Dithiole-2-thione
##MOLFORM=C3H2S3
##CAS REGISTRY NO=930-35-8
##MP= -300
##BP= -300
##MW= 134
##$RETENTION INDEX=0
##$CONDENSED SPECTRUM=NO
##NPOINTS= 26
##XYDATA=(XY..XY) 1 
    32        217
    33         24
    34         36
    44        440
    45        357
    46         60
    47         19
    57        228
    58        999
    59         51
    60         50
    64        138
    69        169
    71         12
    76        437
    77         45
    78         44
    88         22
    89         17
    90         99
   108         25
   134        719
   135         65
   136        108
   137         16
   138         12