##TITLE=Library Entry 34876
##JCAMP-DX=Revision 4.10 
##DATA TYPE=MASS SPECTRUM
##SAMPLE DESCRIPTION=Exported from NIST MS Search
##NAMES=HP
##CAS NAME=1H-Imidazole, 2-ethyl-4,5-dihydro-
##MOLFORM=C5H10N2
##CAS REGISTRY NO=930-52-9
##MP= -300
##BP= -300
##MW= 98
##$RETENTION INDEX=0
##$CONDENSED SPECTRUM=NO
##NPOINTS= 30
##XYDATA=(XY..XY) 1 
    38        100
    39        250
    40        280
    41        520
    42        410
    43        210
    44        160
    45         20
    52        130
    53         90
    54        730
    55        220
    56        200
    57        120
    58         80
    67        100
    68        200
    69        999
    70        140
    71         10
    81         62
    82         40
    83         20
    84          2
    95        290
    96        220
    97        310
    98        500
    99        110
   100         10