##TITLE=Library Entry 19417
##JCAMP-DX=Revision 4.10 
##DATA TYPE=MASS SPECTRUM
##SAMPLE DESCRIPTION=Exported from NIST MS Search
##NAMES=HP
##CAS NAME=Cyclopentane, 1-ethyl-2-methyl-, cis-
##MOLFORM=C8H16
##CAS REGISTRY NO=930-89-2
##MP= -300
##BP= -300
##MW= 112
##$RETENTION INDEX=825
##$CONDENSED SPECTRUM=NO
##NPOINTS= 66
##XYDATA=(XY..XY) 1 
    12          1
    13          1
    14          2
    15         45
    16          1
    26         18
    27        373
    28         92
    29        353
    30          9
    37          3
    38         10
    39        319
    40         63
    41        848
    42        494
    43        151
    44          5
    45          1
    46          1
    47          1
    50          7
    51         25
    52         14
    53        103
    54         67
    55        999
    56        770
    57        143
    58          6
    62          1
    63          3
    64          1
    65         17
    66         10
    67         98
    68         53
    69        333
    70        530
    71         57
    72          2
    74          1
    77         14
    78          3
    79         13
    80          3
    81         19
    82        216
    83        840
    84        359
    85         21
    86          1
    91          3
    92          1
    93          1
    94          1
    95          3
    96          1
    97         66
    98          5
    99          1
   110          1
   111          3
   112        151
   113         13
   114          1