##TITLE=Library Entry 51416
##JCAMP-DX=Revision 4.10 
##DATA TYPE=MASS SPECTRUM
##SAMPLE DESCRIPTION=Japan AIST/NIMC Database- Spectrum MS-IW-1321
##NAMES=HP
##CAS NAME=1H-Pyrazole, 1-methyl-
##MOLFORM=C4H6N2
##CAS REGISTRY NO=930-36-9
##MP= -300
##BP= -300
##MW= 82
##$RETENTION INDEX=743
##$CONDENSED SPECTRUM=NO
##NPOINTS= 33
##XYDATA=(XY..XY) 1 
    13          1
    14          3
    15         32
    25          3
    26         29
    27         33
    28        109
    29         26
    30         14
    37          5
    38         15
    39         22
    40         42
    41         24
    42        109
    43          7
    50          2
    51         16
    52         43
    53         86
    54        185
    55         32
    56          5
    65          1
    66          7
    67          1
    77          1
    79          5
    80          3
    81        410
    82        999
    83         62
    84          1