##TITLE=Library Entry 20749
##JCAMP-DX=Revision 4.10 
##DATA TYPE=MASS SPECTRUM
##SAMPLE DESCRIPTION=Japan AIST/NIMC Database- Spectrum MS-NW-1080
##NAMES=HP
##CAS NAME=1H-Imidazole, 4,5-dihydro-2,4-dimethyl-
##MOLFORM=C5H10N2
##CAS REGISTRY NO=930-61-0
##MP= -300
##BP= -300
##MW= 98
##$RETENTION INDEX=0
##$CONDENSED SPECTRUM=NO
##NPOINTS= 49
##XYDATA=(XY..XY) 1 
    14          9
    15        118
    16          2
    25          2
    26         44
    27        115
    28        210
    29         42
    30         54
    31          4
    37          4
    38          9
    39         37
    40         39
    41        106
    42        787
    43         56
    44        187
    45          7
    48          9
    51          6
    52         25
    53         10
    54        201
    55        999
    56        236
    57         51
    58          4
    59          8
    66          3
    67          5
    68        231
    69        462
    70         23
    71          2
    72          3
    73          4
    75          2
    81         12
    82         11
    83        856
    84         47
    85          1
    95         17
    96         24
    97         84
    98        494
    99         32
   100          1