##TITLE=Library Entry 33068
##JCAMP-DX=Revision 4.10 
##DATA TYPE=MASS SPECTRUM
##SAMPLE DESCRIPTION=F.GAYMARD FACULTY OF SCIENCE, NICE UNIV., NICE, FRANCE
##NAMES=HP
##CAS NAME=Cyclopentene, 1-chloro-
##MOLFORM=C5H7Cl
##CAS REGISTRY NO=930-29-0
##MP= -300
##BP= -300
##MW= 102
##$RETENTION INDEX=0
##$CONDENSED SPECTRUM=NO
##NPOINTS= 23
##XYDATA=(XY..XY) 1 
    37         30
    38         50
    39        195
    40         35
    41        100
    49         15
    50         25
    51         35
    52         10
    53         10
    61         15
    62         25
    63         40
    65        195
    66        105
    67        999
    68         60
    73         30
    75         15
   101         65
   102        245
   103         30
   104         80