##TITLE=Library Entry 69141
##JCAMP-DX=Revision 4.10 
##DATA TYPE=MASS SPECTRUM
##SAMPLE DESCRIPTION=Chuck Anderson, Aldrich Chemical Co.
##NAMES=HP
##CAS NAME=4-Cyclopentene-1,3-dione
##MOLFORM=C5H4O2
##CAS REGISTRY NO=930-60-9
##MP= -300
##BP= -300
##MW= 96
##$RETENTION INDEX=883
##$CONDENSED SPECTRUM=NO
##NPOINTS= 41
##XYDATA=(XY..XY) 1 
    13         20
    14         66
    15          5
    17          0
    18          1
    20          1
    24          8
    25         42
    26        343
    27         24
    28         20
    29         23
    34          7
    35          0
    36         18
    37         70
    38         78
    39        257
    40        269
    41        113
    42        700
    43         25
    44          7
    48          7
    49         28
    50         41
    51         16
    52         12
    53        101
    54        452
    55         31
    56          1
    60          2
    61          2
    66          0
    68        433
    69         41
    70          2
    96        999
    97         48
    98          4