##TITLE=Library Entry 51132
##JCAMP-DX=Revision 4.10 
##DATA TYPE=MASS SPECTRUM
##SAMPLE DESCRIPTION=Japan AIST/NIMC Database- Spectrum MS-NW-9299
##NAMES=HP
##CAS NAME=Furan, 3-methyl-
##MOLFORM=C5H6O
##CAS REGISTRY NO=930-27-8
##MP= -300
##BP= -300
##MW= 82
##$RETENTION INDEX=614
##$CONDENSED SPECTRUM=NO
##NPOINTS= 38
##XYDATA=(XY..XY) 1 
    13          1
    14          2
    15          2
    25          4
    26         40
    27        216
    28         86
    29         40
    31          1
    36          2
    37         19
    38         27
    39        263
    40         16
    41         19
    42          8
    43          4
    48          2
    49         18
    50         82
    51        102
    52         47
    53        600
    54        129
    55         26
    56          8
    61          1
    62          1
    63          3
    64          1
    66          1
    67          1
    79         10
    80          4
    81        542
    82        999
    83         56
    84          3