##TITLE=Library Entry 49893
##JCAMP-DX=Revision 4.10 
##DATA TYPE=MASS SPECTRUM
##SAMPLE DESCRIPTION=J.VOTH UNIV. OF CALIF, DAVIS, CALIFORNIA, 95616, USA
##NAMES=HP
##CAS NAME=Cyclohexene, 1-chloro-
##MOLFORM=C6H9Cl
##CAS REGISTRY NO=930-66-5
##MP= -300
##BP= -300
##MW= 116
##$RETENTION INDEX=894
##$CONDENSED SPECTRUM=NO
##NPOINTS= 80
##XYDATA=(XY..XY) 1 
    12          5
    13          6
    14         11
    15         76
    16          2
    24          1
    25          7
    26         79
    27        308
    28         53
    29         26
    31          8
    35         11
    36         13
    37         42
    38         69
    39        282
    40         45
    41        207
    42         14
    43          5
    45          2
    47         12
    48          7
    49         41
    50        100
    51        171
    52         92
    53        320
    54         83
    55         28
    56          8
    57          6
    58          2
    59          3
    60          6
    61         23
    62         20
    63         31
    64          7
    65         83
    66         19
    67         73
    68          6
    69          4
    70          1
    72          3
    73         22
    74         16
    75         80
    76         11
    77        129
    78         36
    79        214
    80        196
    81        999
    82         67
    83         21
    84          2
    85         14
    86          2
    87          6
    88        226
    89         13
    90         71
    91          4
    96          1
    98          1
    99          3
   100          3
   101         22
   102          2
   103          7
   112          1
   113          1
   115          9
   116        232
   117         35
   118         74
   119         10