##TITLE=Library Entry 24128
##JCAMP-DX=Revision 4.10 
##DATA TYPE=MASS SPECTRUM
##SAMPLE DESCRIPTION=Japan AIST/NIMC Database- Spectrum MS-NW-8442
##NAMES=HP
##CAS NAME=Octadecane, 1-(ethenyloxy)-
##MOLFORM=C20H40O
##CAS REGISTRY NO=930-02-9
##MP= -300
##BP= -300
##MW= 296
##$RETENTION INDEX=0
##$CONDENSED SPECTRUM=NO
##NPOINTS= 133
##XYDATA=(XY..XY) 1 
    14          2
    15          5
    17          2
    18         12
    26          4
    27         57
    28         58
    29        207
    30          5
    31         29
    32         11
    39         34
    40          8
    41        414
    42        100
    43        900
    44         46
    45         35
    46          1
    47          2
    51          1
    52          1
    53         17
    54         49
    55        542
    56        315
    57        999
    58         49
    59         58
    60          2
    65          3
    66         18
    67         98
    68        184
    69        475
    70        298
    71        493
    72         38
    73          4
    77          2
    78          1
    79          6
    80          9
    81         82
    82        347
    83        495
    84        188
    85        288
    86         19
    87          1
    91          2
    93          2
    94          6
    95         67
    96        183
    97        354
    98        105
    99         55
   100         18
   101          3
   105          1
   107          1
   108          2
   109         44
   110         64
   111        153
   112         58
   113         19
   114          3
   115          1
   121          1
   122          3
   123         31
   124         38
   125         57
   126         31
   127         13
   128          3
   136          2
   137         20
   138         22
   139         19
   140         18
   141         19
   142          2
   151          8
   152         10
   153          9
   154         10
   155          6
   156          1
   165          5
   166          9
   167          5
   168          8
   169          4
   179          3
   180          6
   181          3
   182          4
   183          3
   193          3
   194          7
   195          2
   196          4
   197          5
   207          2
   208          4
   209          1
   210          1
   211          1
   212          1
   221          1
   222         17
   223          4
   224          3
   225          3
   235          1
   239          1
   250         20
   251          4
   252          2
   253         26
   254          4
   263          1
   267          1
   268          5
   269          1
   281         37
   282          8
   283          1
   296          9
   297          2