##TITLE=Library Entry 17062
##JCAMP-DX=Revision 4.10 
##DATA TYPE=MASS SPECTRUM
##SAMPLE DESCRIPTION=Japan AIST/NIMC Database- Spectrum MS-NW-4346
##NAMES=HP
##CAS NAME=Oxirane, (methoxymethyl)-
##MOLFORM=C4H8O2
##CAS REGISTRY NO=930-37-0
##MP= -300
##BP= -300
##MW= 88
##$RETENTION INDEX=0
##$CONDENSED SPECTRUM=NO
##NPOINTS= 43
##XYDATA=(XY..XY) 1 
    13          3
    14         17
    15        163
    16          3
    17          2
    18          8
    25          4
    26         38
    27        165
    28        128
    29        282
    30         35
    31        186
    32          6
    33         34
    37          4
    38          6
    39         24
    40         11
    41         17
    42         56
    43        207
    44         24
    45        999
    46         22
    47          2
    53          2
    54          1
    55         18
    56         17
    57        337
    58        416
    59         23
    60          3
    69          2
    71          7
    72          3
    73          4
    85          1
    87          9
    88          7
    89         16
    90          1