##TITLE=Library Entry 1721
##JCAMP-DX=Revision 4.10 
##DATA TYPE=MASS SPECTRUM
##SAMPLE DESCRIPTION=NIST Mass Spectrometry Data Center
##NAMES=HP
##CAS NAME=Oxirane, ethenyl-
##MOLFORM=C4H6O
##CAS REGISTRY NO=930-22-3
##MP= -300
##BP= -300
##MW= 70
##$RETENTION INDEX=571
##$CONDENSED SPECTRUM=NO
##NPOINTS= 32
##XYDATA=(XY..XY) 1 
    13          1
    14          8
    15         10
    24          1
    25          8
    26         51
    27        107
    28          9
    29         93
    30         12
    31         32
    36          8
    37         77
    38        153
    39        999
    40        280
    41        321
    42        629
    43         47
    44          8
    48          2
    49         15
    50         44
    51         29
    52         12
    53         19
    54         15
    55         26
    56          1
    68          3
    69        199
    70         16