##TITLE=Library Entry 79493
##JCAMP-DX=Revision 4.10 
##DATA TYPE=MASS SPECTRUM
##SAMPLE DESCRIPTION=LAC, NIDDK, NIH, Bethesda, MD 20892
##NAMES=HP
##CAS NAME=N-Benzoyl-dl-3,4-dehydroproline
##MOLFORM=C12H11NO3
##CAS REGISTRY NO=93001-94-6
##MP= -300
##BP= -300
##MW= 217
##$RETENTION INDEX=0
##$CONDENSED SPECTRUM=NO
##NPOINTS= 85
##XYDATA=(XY..XY) 1 
    41         38
    42          5
    44         20
    45         42
    47          8
    49         44
    50         47
    51        167
    52         12
    53          7
    54          0
    55          4
    56          2
    57          2
    58          1
    62          2
    63          5
    64          3
    65          3
    66          4
    67         30
    68         36
    69          3
    70          1
    71          1
    72          1
    74         15
    75         11
    77        476
    78         23
    79          1
    81          0
    83          1
    88          3
    89          2
    90          0
    91          4
    93          2
    94          2
    95          0
    96          2
    97          1
   102          1
   103          1
   105        999
   106         66
   107          3
   111          1
   112          3
   113          0
   114          0
   115          6
   116          0
   117          2
   119          0
   120          0
   121          0
   122          0
   124          0
   127          1
   128          1
   129          1
   130          0
   132          0
   139          1
   140          0
   141          0
   143          4
   144          1
   146          1
   149          0
   154          1
   156          3
   158          0
   170          0
   171         12
   172        433
   173        246
   174         13
   175          0
   199          4
   200          0
   206          0
   217          5
   218          3