##TITLE=Library Entry 4103
##JCAMP-DX=Revision 4.10 
##DATA TYPE=MASS SPECTRUM
##SAMPLE DESCRIPTION=Chemical Concepts
##NAMES=HP
##CAS NAME=4-(3,3-Dimethyl-but-1-ynyl)-4-hydroxy-2,6,6-trimethylcyclohex-2-e
none
##MOLFORM=C15H22O2
##CAS REGISTRY NO=930090-10-1
##MP= -300
##BP= -300
##MW= 234
##$RETENTION INDEX=0
##$CONDENSED SPECTRUM=NO
##NPOINTS= 175
##XYDATA=(XY..XY) 1 
    26         20
    27        276
    28         45
    29        345
    30          7
    31         28
    37          9
    38         30
    39        562
    40        137
    41        999
    42         89
    43        614
    44         21
    45         28
    46          4
    50         46
    51        182
    52         68
    53        300
    54         39
    55        340
    56        102
    57        318
    58         20
    59         48
    60         10
    61          5
    62         18
    63         92
    64         42
    65        279
    66         99
    67        243
    68         80
    69        332
    70         79
    71         49
    72          7
    73          8
    74         24
    75         39
    76         24
    77        380
    78         96
    79        364
    80         62
    81        156
    82         40
    83        182
    84         20
    85        254
    86         24
    87         12
    88          7
    89         36
    90         15
    91        551
    92        102
    93        245
    94        216
    95        252
    96         62
    97         39
    98         14
    99         10
   101         11
   102         19
   103         66
   104         24
   105        232
   106         55
   107        454
   108        102
   109        126
   110        146
   111         42
   112         15
   113          8
   114          3
   115        124
   116         56
   117        226
   118         74
   119        121
   120         62
   121        251
   122        133
   123        106
   124         43
   125         45
   126          7
   127         26
   128         72
   129         64
   130         31
   131        134
   132         73
   133        119
   134         29
   135        422
   136         85
   137         61
   138         21
   139         16
   140          5
   141         35
   142         28
   143         58
   144         29
   145        174
   146         41
   147         56
   148         26
   149        775
   150        148
   151         35
   152         17
   153         11
   154          3
   155         10
   156          6
   157         23
   158         54
   159        103
   160        116
   161        111
   162         24
   163        558
   164        185
   165         34
   166          5
   167          4
   168          4
   169          4
   170          2
   171         12
   172         14
   173        107
   174         23
   175         29
   176         37
   177        159
   178        251
   179         37
   180          6
   182          2
   183          5
   185          5
   186         31
   187         18
   188          6
   189         23
   190          9
   191        774
   192        126
   193         14
   194          2
   201         67
   202         12
   203          7
   204          5
   205         26
   206        167
   207         28
   208          4
   216         44
   217         27
   218          6
   219        275
   220         46
   221          6
   233          7
   234         27
   235          6