##TITLE=Library Entry 32951
##JCAMP-DX=Revision 4.10 
##DATA TYPE=MASS SPECTRUM
##SAMPLE DESCRIPTION=V.A.KOPTYUG, ATLAS OF MASS SPECTRA OF ORGANIC COMPOUNDS
##NAMES=HP
##CAS NAME=Cyclopent-3-ene, 1,1-dichloro-3,4-dimethyl-1-sila-
##MOLFORM=C6H10Cl2Si
##CAS REGISTRY NO=93037-56-0
##MP= -300
##BP= -300
##MW= 180
##$RETENTION INDEX=0
##$CONDENSED SPECTRUM=NO
##NPOINTS= 24
##XYDATA=(XY..XY) 1 
    39         30
    41         50
    55        519
    56         20
    67        999
    68         60
    82        889
    83         60
   129         80
   130         10
   131         30
   144        120
   145         10
   146         40
   165        160
   166         20
   167        110
   168         10
   169         20
   180        210
   181         30
   182        140
   183         20
   184         20