##TITLE=Library Entry 11753
##JCAMP-DX=Revision 4.10 
##DATA TYPE=MASS SPECTRUM
##SAMPLE DESCRIPTION=Chemical Concepts
##NAMES=HP
##CAS NAME=1,2-Cyclooctanediol, diacetate
##MOLFORM=C12H20O4
##CAS REGISTRY NO=93043-70-0
##MP= -300
##BP= -300
##MW= 228
##$RETENTION INDEX=0
##$CONDENSED SPECTRUM=NO
##NPOINTS= 118
##XYDATA=(XY..XY) 1 
    26         10
    27         57
    29         61
    30          7
    31         36
    37          2
    38          5
    39         43
    40         25
    41        250
    42         31
    43        999
    44         39
    45         31
    46          2
    47          4
    50          4
    51         12
    52          8
    53         46
    54         46
    55        236
    56         29
    57         95
    58         39
    59         15
    60          7
    61         59
    62          3
    63          4
    65         12
    66         13
    67        105
    68         61
    69         53
    70         50
    71         47
    72          6
    73          4
    74          8
    75          3
    76          3
    77         14
    78          8
    79         93
    80         41
    81        106
    82         54
    83         95
    84         54
    85         19
    86         11
    87         10
    88          2
    89          2
    91         14
    92         14
    93         27
    94          5
    95         30
    96          9
    97         97
    98        137
    99         13
   100          4
   101          3
   102          5
   103          2
   104          2
   105          4
   106          2
   107        130
   108         86
   109         32
   110          7
   111         16
   112          3
   113          3
   114          1
   115          1
   116         33
   117          3
   118          1
   121          2
   124          9
   125        271
   126        159
   127         25
   128          2
   129          2
   135          1
   137          1
   139          1
   140         10
   141          9
   142          2
   143        117
   144         13
   145          2
   149          1
   150          5
   151          1
   157          2
   158          1
   167          1
   168          9
   169          2
   171          1
   172          1
   185        212
   186         37
   187          4
   188          0
   210          1
   211          0
   227          0
   228          6
   229          0