##TITLE=Library Entry 77811
##JCAMP-DX=Revision 4.10 
##DATA TYPE=MASS SPECTRUM
##SAMPLE DESCRIPTION=NIST Mass Spectrometry Data Center
##NAMES=HP
##CAS NAME=O-Methyl phenethylcarbamothioate
##MOLFORM=C10H13NOS
##CAS REGISTRY NO=930585-96-9
##MP= -300
##BP= -300
##MW= 195
##$RETENTION INDEX=1727
##$CONDENSED SPECTRUM=NO
##NPOINTS= 53
##XYDATA=(XY..XY) 1 
    31          4
    38          4
    39         16
    42          8
    44         59
    45          9
    47         15
    50         14
    51         32
    52          8
    58         14
    59          6
    60          9
    61          9
    62          6
    63         19
    64          8
    65         62
    66          5
    72         10
    73          8
    75        103
    76          9
    77         94
    78         56
    79         33
    89         17
    90          6
    91        169
    92         20
    93          7
   102          9
   103         99
   104        999
   105        175
   106         15
   116          5
   117          7
   118         14
   119          9
   120         32
   121          6
   128          7
   130          6
   134          6
   162         15
   163         20
   164          6
   180         14
   194          4
   195        400
   196         52
   197         13