##TITLE=Library Entry 6521
##JCAMP-DX=Revision 4.10 
##DATA TYPE=MASS SPECTRUM
##SAMPLE DESCRIPTION=LAC, NIDDK, NIH, Bethesda, MD 20892
##NAMES=HP
##CAS NAME=N-Acetylhistidine ethyl ester
##MOLFORM=C10H15N3O3
##CAS REGISTRY NO=93092-63-8
##MP= -300
##BP= -300
##MW= 225
##$RETENTION INDEX=0
##$CONDENSED SPECTRUM=NO
##NPOINTS= 85
##XYDATA=(XY..XY) 1 
    41        133
    42        174
    43        999
    44        144
    45         74
    46         47
    51         10
    52         67
    53         97
    54        142
    55         74
    56         24
    57         30
    58         19
    59         17
    60         92
    63          3
    64         12
    65         11
    66         16
    67         27
    68         29
    69         85
    70         26
    71          9
    74         99
    75          5
    77         20
    78         18
    79         23
    80         82
    81        136
    82         57
    83         37
    84         13
    85         13
    86          5
    87          7
    88         14
    91          7
    93         14
    94         28
    95         25
    96         15
    97         35
    98          4
    99         11
   102         11
   106          5
   107         12
   108         24
   109         37
   110         41
   111         63
   112         10
   120         14
   121         63
   122         58
   123         10
   124          3
   126          3
   127         17
   128          4
   135          3
   136         20
   137         41
   138         51
   139         36
   151          3
   154          4
   155         33
   163         10
   164          3
   165         19
   166          5
   179         27
   180          7
   181         14
   182          4
   183         11
   196         17
   197         12
   224         15
   225         38
   226          7