##TITLE=Library Entry 41713
##JCAMP-DX=Revision 4.10 
##DATA TYPE=MASS SPECTRUM
##SAMPLE DESCRIPTION=Org.Mass.Spectrom.,22(7)421(1987);J.S.Srendsen ET AL
##NAMES=HP
##CAS NAME=3-Trimethylsilyloxyoctanedioic acid, dimethyl ester
##MOLFORM=C13H26O5Si
##CAS REGISTRY NO=93090-93-8
##MP= -300
##BP= -300
##MW= 290
##$RETENTION INDEX=0
##$CONDENSED SPECTRUM=NO
##NPOINTS= 108
##XYDATA=(XY..XY) 1 
    55        126
    58         17
    59        194
    61         34
    67        144
    71         23
    72         23
    73        999
    74        102
    75        227
    76         10
    77          7
    79          7
    80          5
    81         77
    82          8
    83         23
    84          8
    85         63
    87         29
    88          7
    89        632
    90         47
    91         43
    93          8
    95         34
    97          8
    99         46
   100          8
   101         52
   103         20
   105        125
   106          8
   107         16
   108          8
   109         95
   110          5
   111         32
   113         83
   114         13
   115         14
   116         10
   117         44
   119         10
   121         11
   126          8
   127         38
   129         11
   130         41
   131         93
   132         10
   133        300
   134         28
   135         14
   136         37
   137        492
   138         40
   139          8
   140         13
   141        113
   142         19
   143         50
   144          7
   145          8
   146         10
   157         11
   159        169
   160         20
   167         16
   168         16
   169        306
   170         35
   171         14
   173         49
   174         10
   175        528
   176         61
   177         19
   183         61
   184          8
   185         68
   186          7
   187          8
   188         66
   189          7
   199         13
   201        287
   202         37
   203         10
   211         71
   212          8
   215         14
   217         92
   218          8
   227         28
   230         13
   231          7
   233         14
   240          1
   241          1
   243        209
   244         28
   245          7
   259         40
   260          5
   275        180
   276         25
   277          5