##TITLE=Library Entry 1870
##JCAMP-DX=Revision 4.10 
##DATA TYPE=MASS SPECTRUM
##SAMPLE DESCRIPTION=A.A.Kutin, Moscow, Russia
##NAMES=HP
##CAS NAME=Pyrimidin-4(3H)-one, 3-amino-2,6-dimethyl-
##MOLFORM=C6H9N3O
##CAS REGISTRY NO=93098-74-9
##MP= -300
##BP= -300
##MW= 139
##$RETENTION INDEX=0
##$CONDENSED SPECTRUM=NO
##NPOINTS= 53
##XYDATA=(XY..XY) 1 
    34          2
    37        104
    38        270
    39        999
    40        433
    41        402
    42        877
    43        225
    44         39
    50         19
    51         77
    52        134
    53         77
    54        132
    55        122
    56        109
    57        390
    58        134
    59          4
    63          8
    64         33
    65         20
    66         70
    67        288
    68        192
    69        100
    70         70
    71          9
    77         13
    80         12
    81         18
    82         87
    83         21
    84         80
    85          2
    91          6
    92          7
    94         12
    95         25
    96        131
    97         43
    98        906
    99         35
   108         14
   109         25
   110        260
   111         19
   113          2
   124        696
   125         35
   139        707
   140         52
   141          3