##TITLE=Library Entry 49023
##JCAMP-DX=Revision 4.10 
##DATA TYPE=MASS SPECTRUM
##SAMPLE DESCRIPTION=NIST Mass Spectrometry Data Center, 1990.
##NAMES=HP
##CAS NAME=Cyclohexylacetylene
##MOLFORM=C8H12
##CAS REGISTRY NO=931-48-6
##MP= -300
##BP= -300
##MW= 108
##$RETENTION INDEX=0
##$CONDENSED SPECTRUM=NO
##NPOINTS= 45
##XYDATA=(XY..XY) 1 
    15         19
    18         12
    26         51
    27        276
    28         77
    29         77
    32          4
    37         24
    38         77
    39        550
    40        121
    41        433
    42         31
    43         23
    50        146
    51        220
    52        208
    53        159
    54        200
    55         97
    56         58
    61          9
    62         27
    63         65
    64          9
    65        233
    66        167
    67        372
    68         35
    69         11
    74         19
    75         10
    77        400
    78        161
    79        999
    80        389
    81         49
    82         80
    91        316
    93        906
    94         72
   103          7
   105         17
   107         43
   108         68