##TITLE=Library Entry 22757
##JCAMP-DX=Revision 4.10 
##DATA TYPE=MASS SPECTRUM
##SAMPLE DESCRIPTION=Exported from NIST MS Search
##NAMES=HP
##CAS NAME=Cyclohexanol, 2-amino-, cis-
##MOLFORM=C6H13NO
##CAS REGISTRY NO=931-15-7
##MP= -300
##BP= -300
##MW= 115
##$RETENTION INDEX=0
##$CONDENSED SPECTRUM=NO
##NPOINTS= 15
##XYDATA=(XY..XY) 1 
    30        130
    41         60
    42         40
    43        250
    44         40
    56        999
    57         50
    59         30
    69         30
    70         50
    72        120
    86         30
    98         20
   115        440
   116         30