##TITLE=Library Entry 38197
##JCAMP-DX=Revision 4.10 
##DATA TYPE=MASS SPECTRUM
##SAMPLE DESCRIPTION=Chemical Concepts
##NAMES=HP
##CAS NAME=1-Methoxycyclohexane
##MOLFORM=C7H14O
##CAS REGISTRY NO=931-56-6
##MP= -300
##BP= -300
##MW= 114
##$RETENTION INDEX=0
##$CONDENSED SPECTRUM=NO
##NPOINTS= 65
##XYDATA=(XY..XY) 1 
    26          6
    27         77
    28          5
    29         23
    30          2
    31         12
    32          0
    33          3
    37          1
    38          4
    39         83
    40          9
    41        271
    42         21
    43         41
    44          1
    45         82
    46          2
    47          0
    49          0
    50          5
    51         10
    52          5
    53         32
    54         44
    55         91
    56         11
    57          9
    58        155
    59         11
    60          0
    62          0
    63          1
    64          0
    65          4
    66          2
    67         74
    68          5
    69          5
    70          1
    71        999
    72         55
    73          3
    74          0
    75          0
    77          5
    78          2
    79         12
    80          3
    81         22
    82        138
    83         24
    84          3
    85        103
    86         11
    87          0
    97          0
    98          0
    99          3
   111          0
   112          0
   113          6
   114        143
   115         11
   116          0