##TITLE=Library Entry 16068
##JCAMP-DX=Revision 4.10 
##DATA TYPE=MASS SPECTRUM
##SAMPLE DESCRIPTION=Chemical Concepts
##NAMES=HP
##CAS NAME=2-Piperidinone, 1-methyl-
##MOLFORM=C6H11NO
##CAS REGISTRY NO=931-20-4
##MP= -300
##BP= -300
##MW= 113
##$RETENTION INDEX=0
##$CONDENSED SPECTRUM=NO
##NPOINTS= 75
##XYDATA=(XY..XY) 1 
    25          1
    26         32
    27        159
    28        197
    29         76
    30         38
    31          6
    35          1
    36          4
    37          5
    38         14
    39        115
    40         32
    41        224
    42        505
    43        159
    44        999
    45         25
    49          2
    50          9
    51         13
    52         10
    53         23
    54         27
    55        200
    56         73
    57        408
    58         63
    59          1
    60          1
    63          1
    64          2
    65          2
    66          3
    67         28
    68         27
    69          7
    70        168
    71         18
    72         44
    73          1
    74          1
    77          1
    78          2
    79          2
    80          2
    81          4
    82         11
    83         10
    84         77
    85         87
    86          5
    87          1
    91          3
    92          1
    93          0
    94          1
    95          3
    96          0
    97          2
    98          6
    99          2
   103          1
   104          1
   105          2
   106          0
   107          0
   108          1
   109          2
   110          2
   111          5
   112        300
   113        885
   114         63
   115          5