##TITLE=Library Entry 68008
##JCAMP-DX=Revision 4.10 
##DATA TYPE=MASS SPECTRUM
##SAMPLE DESCRIPTION=Exported from NIST MS Search
##NAMES=HP
##CAS NAME=3-Cyclohexene-1-carboxaldehyde, 1-methyl-
##MOLFORM=C8H12O
##CAS REGISTRY NO=931-96-4
##MP= -300
##BP= -300
##MW= 124
##$RETENTION INDEX=0
##$CONDENSED SPECTRUM=NO
##NPOINTS= 75
##XYDATA=(XY..XY) 1 
    14          3
    15         14
    18          4
    26         22
    27        242
    28         75
    29        142
    30          4
    31         12
    32         10
    36          2
    37         16
    38         40
    39        469
    40         58
    41        511
    42         42
    43        390
    44         14
    45         40
    46          3
    49          4
    50         45
    51        107
    52         46
    53        268
    54        285
    55        534
    56         33
    57         14
    58         13
    59          3
    61          5
    62         13
    63         30
    64          6
    65        107
    66         71
    67        791
    68        129
    69         76
    70        121
    71         13
    74          6
    75          3
    76          2
    77        255
    78         72
    79        344
    80        490
    81        731
    82         98
    83         50
    84          5
    89          5
    91        266
    92         41
    93        265
    94         40
    95        999
    96        146
    97         18
   103          3
   105         21
   106        127
   107         25
   108          8
   109        281
   110         35
   111         16
   112          2
   123         27
   124        557
   125         51
   126          6