##TITLE=Library Entry 32583
##JCAMP-DX=Revision 4.10 
##DATA TYPE=MASS SPECTRUM
##SAMPLE DESCRIPTION=NIST Mass Spectrometry Data Center, 1990.
##NAMES=HP
##CAS NAME=Cyclooctene, (Z)-
##MOLFORM=C8H14
##CAS REGISTRY NO=931-87-3
##MP= -300
##BP= -300
##MW= 110
##$RETENTION INDEX=895
##$CONDENSED SPECTRUM=NO
##NPOINTS= 38
##XYDATA=(XY..XY) 1 
    15          9
    26         30
    27        167
    28         82
    29         63
    37          8
    39        431
    40         84
    41        495
    42         55
    43         18
    50         43
    51         84
    52         45
    53        189
    54        564
    55        154
    56         46
    62          9
    63         22
    65         78
    67        999
    68        279
    69        101
    70          5
    77         63
    78         19
    79        106
    80         43
    81        391
    82        529
    83         35
    91         18
    93         12
    95        154
    96         14
   110        281
   111         23