##TITLE=Library Entry 37414
##JCAMP-DX=Revision 4.10 
##DATA TYPE=MASS SPECTRUM
##SAMPLE DESCRIPTION=Japan AIST/NIMC Database- Spectrum MS-NW-4669
##NAMES=HP
##CAS NAME=1,2-Cyclohexanediol
##MOLFORM=C6H12O2
##CAS REGISTRY NO=931-17-9
##MP= -300
##BP= -300
##MW= 116
##$RETENTION INDEX=0
##$CONDENSED SPECTRUM=NO
##NPOINTS= 75
##XYDATA=(XY..XY) 1 
    14          6
    15         26
    16          1
    17          7
    18         32
    19         21
    25          1
    26         23
    27        185
    28         53
    29        133
    30         11
    31        123
    32          2
    37          8
    38         15
    39        161
    40         37
    41        384
    42        344
    43        189
    44        343
    45         59
    46          2
    47         15
    49          2
    50         11
    51         18
    52          7
    53         38
    54        116
    55        174
    56        111
    57        727
    58         39
    59          5
    60         23
    61          4
    62          3
    63          4
    65          9
    66          6
    67         64
    68         38
    69        181
    70        999
    71         63
    72         17
    73         19
    74         17
    75          3
    77         10
    78          6
    79         35
    80         89
    81         26
    82          5
    83        289
    84         16
    85         13
    86          9
    87          4
    88          4
    94          4
    95          2
    96          3
    97         74
    98        304
    99         23
   100          2
   112          5
   114          1
   115          3
   116        101
   117          7