##TITLE=Library Entry 38344
##JCAMP-DX=Revision 4.10 
##DATA TYPE=MASS SPECTRUM
##SAMPLE DESCRIPTION=Chemical Concepts
##NAMES=HP
##CAS NAME=Furan, 2-(dichloromethyl)-tetrahydro-
##MOLFORM=C5H8Cl2O
##CAS REGISTRY NO=931-05-5
##MP= -300
##BP= -300
##MW= 154
##$RETENTION INDEX=0
##$CONDENSED SPECTRUM=NO
##NPOINTS= 102
##XYDATA=(XY..XY) 1 
    25          0
    26          8
    27         79
    28         11
    29         12
    30          1
    31          3
    35          0
    36          1
    37          3
    38          5
    39         37
    40         10
    41        140
    42         67
    43        240
    44          9
    45          0
    47          2
    48          4
    49         14
    50          6
    51         14
    52          2
    53         34
    54          2
    55         11
    56          1
    59          0
    60          1
    61          7
    62          7
    63          6
    64          2
    65          2
    66          0
    67          0
    68          0
    69          1
    70          0
    71        999
    72         27
    73          4
    74          0
    75          8
    76          6
    77         16
    78          3
    79          4
    80          0
    81          0
    82          0
    83         14
    84          1
    85          7
    86          0
    87          2
    88          2
    89          7
    90          1
    91          2
    92          0
    93          0
    95          0
    96          5
    97          0
    98          3
    99          0
   100          0
   101          0
   103          0
   106          0
   108          0
   109          2
   110          0
   111          2
   112          0
   113          0
   114          0
   115          0
   117          0
   118          0
   119          1
   120          0
   121          0
   123          0
   124          0
   125          0
   126          0
   127          0
   128          0
   129          0
   130          0
   135          0
   145          0
   147          0
   153          1
   155          0
   157          0
   158          0
   159          0
   160          0