##TITLE=Library Entry 9705
##JCAMP-DX=Revision 4.10 
##DATA TYPE=MASS SPECTRUM
##SAMPLE DESCRIPTION=NIST Mass Spectrometry Data Center, 1990.
##NAMES=HP
##CAS NAME=Cyclohexene, 1-methoxy-
##MOLFORM=C7H12O
##CAS REGISTRY NO=931-57-7
##MP= -300
##BP= -300
##MW= 112
##$RETENTION INDEX=1014
##$CONDENSED SPECTRUM=NO
##NPOINTS= 55
##XYDATA=(XY..XY) 1 
    14         19
    15        120
    16         14
    26         62
    27        433
    28        131
    29        134
    31         20
    37         21
    38         83
    39        708
    40        120
    41        792
    42        152
    43        999
    44         30
    45        107
    50         79
    51        150
    52         73
    53        231
    54        365
    55        264
    56         47
    57         26
    58         22
    62         16
    63         24
    64         11
    65         94
    66         48
    67        158
    68         63
    69        258
    70         13
    71         38
    72         12
    77        170
    78         43
    79        295
    80         78
    81        210
    82         51
    83        261
    84        965
    85         69
    94         15
    95         20
    97        766
    98         47
   108         17
   109         17
   111        556
   112        637
   113         54