##TITLE=Library Entry 19842
##JCAMP-DX=Revision 4.10 
##DATA TYPE=MASS SPECTRUM
##SAMPLE DESCRIPTION=NIST Mass Spectrometry Data Center, 1998.
##NAMES=HP
##CAS NAME=Cyclohexanecarbonitrile, 1-hydroxy-
##MOLFORM=C7H11NO
##CAS REGISTRY NO=931-97-5
##MP= -300
##BP= -300
##MW= 125
##$RETENTION INDEX=0
##$CONDENSED SPECTRUM=NO
##NPOINTS= 80
##XYDATA=(XY..XY) 1 
    12          1
    13          1
    14          3
    15          6
    25          1
    26         60
    27        314
    28        101
    29         94
    30          3
    31          9
    32          1
    34          1
    37         14
    38         43
    39        378
    40         98
    41        755
    42        589
    43        224
    44         20
    45          2
    47          1
    48          1
    49          3
    50         40
    51         65
    52         56
    53        104
    54        436
    55        999
    56        999
    57         84
    58          3
    59          3
    60          1
    61          3
    62          5
    63          8
    64          7
    65         28
    66         21
    67         50
    68         75
    69        417
    70        361
    71         24
    72          1
    73          1
    74          2
    75          3
    76          3
    77         26
    78          6
    79         54
    80         95
    81         33
    82        190
    83        280
    84         43
    85          2
    91          2
    92         24
    93          2
    94          1
    95          3
    96        566
    97        103
    98        344
    99         30
   100          1
   104          1
   106         28
   107          6
   108          7
   109          1
   110         96
   111          3
   124         24
   125          3