##TITLE=Library Entry 65450
##JCAMP-DX=Revision 4.10 
##DATA TYPE=MASS SPECTRUM
##SAMPLE DESCRIPTION=Japan AIST/NIMC Database- Spectrum MS-NW-1082
##NAMES=HP
##CAS NAME=Pyridine, 2-methyl-, 1-oxide
##MOLFORM=C6H7NO
##CAS REGISTRY NO=931-19-1
##MP= -300
##BP= -300
##MW= 109
##$RETENTION INDEX=0
##$CONDENSED SPECTRUM=NO
##NPOINTS= 69
##XYDATA=(XY..XY) 1 
    14          3
    15         10
    16          1
    25          2
    26         31
    27         97
    28         10
    29         12
    30         17
    31          7
    32          2
    36          2
    37         29
    38         56
    39        280
    40         38
    41         26
    42         18
    43         15
    44          6
    45          3
    46          9
    48          1
    49         11
    50        100
    51        176
    52        108
    53         71
    54         14
    55          8
    56          2
    57          5
    60          3
    61         12
    62         20
    63         56
    64         31
    65        797
    66        137
    67         18
    68          5
    69          5
    70          2
    73          3
    74         13
    75          9
    76          7
    77         29
    78         88
    79         15
    80         16
    81          5
    82          1
    83          1
    86          2
    87          1
    88          1
    90          3
    91          9
    92        999
    93        214
    94         13
    95          5
    96          1
   106          1
   108          7
   109        925
   110         65
   111          5