##TITLE=Library Entry 85729
##JCAMP-DX=Revision 4.10 
##DATA TYPE=MASS SPECTRUM
##SAMPLE DESCRIPTION=RH-4
##NAMES=HP
##CAS NAME=Bicyclo[2.2.2]octane, 1-iodo-
##MOLFORM=C8H13I
##CAS REGISTRY NO=931-98-6
##MP= -300
##BP= -300
##MW= 236
##$RETENTION INDEX=0
##$CONDENSED SPECTRUM=NO
##NPOINTS= 68
##XYDATA=(XY..XY) 1 
    13          2
    14          2
    15          4
    26         26
    27        129
    28         53
    29         42
    32          5
    37         11
    38         25
    39        219
    40         42
    41        163
    42         15
    43         38
    44          4
    49          7
    50         47
    51         74
    52         39
    53         99
    54         43
    55        126
    56         10
    61          7
    62         10
    63         23
    64          6
    65         58
    66         37
    67        491
    68         52
    69         25
    70          5
    73          4
    74          9
    75          9
    76          4
    77        111
    78         36
    79        168
    80         69
    81        203
    82         17
    83          3
    89          4
    91         60
    92          9
    93         33
    94         20
    95          4
    97          4
   103          4
   104          4
   105          9
   106          4
   107         26
   108         14
   109        999
   110         94
   111          5
   112          5
   127        132
   128         28
   129          8
   141          7
   236         73
   237          6