##TITLE=Library Entry 32556
##JCAMP-DX=Revision 4.10 
##DATA TYPE=MASS SPECTRUM
##SAMPLE DESCRIPTION=Japan AIST/NIMC Database- Spectrum MS-NW-3728
##NAMES=HP
##CAS NAME=Cyclooctene
##MOLFORM=C8H14
##CAS REGISTRY NO=931-88-4
##MP= -300
##BP= -300
##MW= 110
##$RETENTION INDEX=899
##$CONDENSED SPECTRUM=NO
##NPOINTS= 69
##XYDATA=(XY..XY) 1 
    15         10
    26         15
    27        186
    28         36
    29         87
    30          2
    37          5
    38         17
    39        312
    40         61
    41        649
    42         69
    43         44
    44          2
    45          3
    46          1
    49          2
    50         22
    51         46
    52         28
    53        153
    54        836
    55        242
    56        112
    57          9
    61          2
    62          5
    63         11
    64          3
    65         42
    66         51
    67        999
    68        396
    69        174
    70         30
    71          4
    73          1
    74          5
    75          2
    76          1
    77         38
    78         11
    79         62
    80         35
    81        462
    82        637
    83         61
    84         14
    85          2
    89          1
    91         23
    92          3
    93          9
    94          2
    95        175
    96         15
    97          4
   102          1
   103          2
   104          2
   105          2
   106          5
   107          2
   108          2
   109          9
   110        349
   111         32
   112         17
   113          2