##TITLE=Library Entry 26711
##JCAMP-DX=Revision 4.10 
##DATA TYPE=MASS SPECTRUM
##SAMPLE DESCRIPTION=Exported from NIST MS Search
##NAMES=HP
##CAS NAME=Isothiazole, 4-nitro-
##MOLFORM=C3H2N2O2S
##CAS REGISTRY NO=931-07-7
##MP= -300
##BP= -300
##MW= 130
##$RETENTION INDEX=0
##$CONDENSED SPECTRUM=NO
##NPOINTS= 19
##XYDATA=(XY..XY) 1 
    30        240
    43         90
    45        609
    46         85
    56         70
    57        999
    58         50
    59         55
    60         60
    76         60
    82         40
    83         50
    84        400
    87         70
   100         60
   114         80
   130        799
   131         55
   132         67