##TITLE=Library Entry 74690
##JCAMP-DX=Revision 4.10 
##DATA TYPE=MASS SPECTRUM
##SAMPLE DESCRIPTION=Japan AIST/NIMC Database- Spectrum MS-NW-9358
##NAMES=HP
##CAS NAME=1,1-Dimethoxycyclopentane
##MOLFORM=C7H14O2
##CAS REGISTRY NO=931-94-2
##MP= -300
##BP= -300
##MW= 130
##$RETENTION INDEX=0
##$CONDENSED SPECTRUM=NO
##NPOINTS= 71
##XYDATA=(XY..XY) 1 
    14          7
    15         72
    16          1
    26         13
    27         94
    28        234
    29        104
    30          7
    31         76
    32         73
    33          3
    37          2
    38          8
    39         84
    40         19
    41        180
    42         29
    43         60
    44          3
    45        149
    46          3
    47          2
    50          5
    51          9
    52          5
    53         37
    54         12
    55        217
    56         23
    57        202
    58         23
    59         80
    60          2
    61          1
    62          2
    63          3
    64          1
    65         26
    66         15
    67        460
    68         31
    69         31
    70          2
    71         21
    72         71
    73          5
    74          9
    75          3
    77          3
    79          3
    81          7
    82         11
    83         19
    84         12
    85          2
    87          1
    88         16
    89          1
    96          3
    97        319
    98        148
    99        497
   100         33
   101        999
   102        119
   103          9
   105          9
   115          9
   129          9
   130         16
   131          1