##TITLE=Library Entry 5027
##JCAMP-DX=Revision 4.10 
##DATA TYPE=MASS SPECTRUM
##SAMPLE DESCRIPTION=J.VOTH UNIV. OF CALIFORNIA, DAVIS, CALIFORNIA, 95616, U
SA
##NAMES=HP
##CAS NAME=Aziridine, 2-isopropyl-1,3-dimethyl-, trans-
##MOLFORM=C7H15N
##CAS REGISTRY NO=931-30-6
##MP= -300
##BP= -300
##MW= 113
##$RETENTION INDEX=0
##$CONDENSED SPECTRUM=NO
##NPOINTS= 84
##XYDATA=(XY..XY) 1 
     2          4
    12          1
    13          2
    14         13
    15        235
    16          4
    17          4
    18         17
    19          0
    24          0
    25          1
    26         35
    27        224
    28        158
    29        110
    30         75
    31         12
    32          5
    33          0
    36          0
    37          7
    38         18
    39        165
    40         26
    41        212
    42        999
    43         83
    44         58
    45          4
    46          0
    47          0
    48          1
    49          1
    50          5
    51         11
    52          9
    53         24
    54         26
    55        172
    56        142
    57         45
    58         54
    59          5
    60          0
    61          0
    62          1
    63          2
    64          1
    65          3
    66          3
    67         18
    68         43
    69         24
    70         98
    71         14
    72          5
    73          0
    74          1
    75          0
    76          0
    77          1
    78          0
    79          2
    80          4
    81         11
    82         31
    83         24
    84         71
    85         15
    86          2
    93          0
    94          2
    95          0
    96          7
    97          3
    98        611
    99         41
   100          1
   110          0
   111          0
   112         19
   113        102
   114          8
   115          0