##TITLE=Library Entry 28137
##JCAMP-DX=Revision 4.10 
##DATA TYPE=MASS SPECTRUM
##SAMPLE DESCRIPTION=NIST Mass Spectrometry Data Center, 2010
##NAMES=HP
##CAS NAME=1,4-Cyclohexanediol, cis-
##MOLFORM=C6H12O2
##CAS REGISTRY NO=931-71-5
##MP= -300
##BP= -300
##MW= 116
##$RETENTION INDEX=0
##$CONDENSED SPECTRUM=NO
##NPOINTS= 63
##XYDATA=(XY..XY) 1 
    14          1
    15          7
    19          4
    26         12
    27         82
    28         39
    29        145
    30         17
    31        121
    32          1
    36          1
    37          2
    38          9
    39        126
    40         27
    41        263
    42        214
    43        216
    44        198
    45         48
    47         53
    49          1
    50          9
    51         17
    52          7
    53         46
    54        537
    55        321
    56         79
    57        318
    58        999
    59        204
    60         18
    61          2
    62          5
    63          3
    65         10
    66          3
    67         31
    68         21
    69        215
    70        140
    71         13
    72          1
    73          7
    74          1
    77         21
    78          6
    79         66
    80         91
    81         23
    83        133
    84          8
    85          1
    86          1
    87          1
    95          1
    97         56
    98         57
    99          4
   114          2
   115          2
   116          7