##TITLE=Library Entry 54591
##JCAMP-DX=Revision 4.10 
##DATA TYPE=MASS SPECTRUM
##SAMPLE DESCRIPTION=P.Dagaut ET AL. Chromatographia,40,147,(1995)
##NAMES=HP
##CAS NAME=Tetrahydrofuran, 2-ethyl-5-methyl-
##MOLFORM=C7H14O
##CAS REGISTRY NO=931-39-5
##MP= -300
##BP= -300
##MW= 114
##$RETENTION INDEX=0
##$CONDENSED SPECTRUM=NO
##NPOINTS= 39
##XYDATA=(XY..XY) 1 
    37         29
    38         47
    39        377
    40         80
    41        592
    42        219
    43        442
    44         22
    45         93
    46          7
    50         35
    51         37
    52         19
    53         53
    54         40
    55        295
    56        235
    57        266
    58         37
    59         64
    65         24
    67        390
    68         40
    69         35
    70        111
    71         19
    79         10
    81        108
    82         19
    83         23
    84        196
    85        999
    86         67
    87          8
    97         15
    99         30
   112          4
   113         21
   114          4