##TITLE=Library Entry 23156
##JCAMP-DX=Revision 4.10 
##DATA TYPE=MASS SPECTRUM
##SAMPLE DESCRIPTION=NIST Mass Spectrometry Data Center, 1994
##NAMES=HP
##CAS NAME=tert-Butyl ethyl malonate
##MOLFORM=C9H16O4
##CAS REGISTRY NO=93117-74-9
##MP= -300
##BP= -300
##MW= 188
##$RETENTION INDEX=0
##$CONDENSED SPECTRUM=NO
##NPOINTS= 74
##XYDATA=(XY..XY) 1 
    12          6
    13          9
    14         42
    15         92
    16          6
    17          0
    18          2
    19          5
    20          0
    22          0
    26         41
    27        209
    28         38
    29        556
    30         23
    31         83
    33          0
    36          0
    37          5
    38         20
    39        120
    40          0
    41        422
    42        246
    43        385
    44         53
    45         45
    46          4
    47          5
    48          0
    49          1
    50          5
    51          6
    52          3
    53          9
    54          0
    55         49
    56        244
    57        999
    58         62
    59        135
    60         33
    61         15
    62          0
    64          0
    69         32
    70         15
    71          2
    72          3
    73          9
    74          0
    83          0
    84          0
    87        168
    88         56
    89          3
    90          0
    99          0
   100          0
   101          2
   104          3
   105         14
   106          0
   112          0
   115        474
   116         26
   117          3
   133        175
   134         10
   135          2
   143         10
   144          0
   173         10
   174          1