##TITLE=Library Entry 34549
##JCAMP-DX=Revision 4.10 
##DATA TYPE=MASS SPECTRUM
##SAMPLE DESCRIPTION=Chemical Concepts
##NAMES=HP
##CAS NAME=d-Glucopyranose, pentakis(diethylborinate)
##MOLFORM=C26H57B5O6
##CAS REGISTRY NO=93130-43-9
##MP= -300
##BP= -300
##MW= 520
##$RETENTION INDEX=0
##$CONDENSED SPECTRUM=NO
##NPOINTS= 269
##XYDATA=(XY..XY) 1 
    23          2
    24          4
    25          1
    26         13
    27         72
    28         24
    29         73
    30          2
    31          1
    36          1
    37          3
    38          7
    39         41
    40        236
    41        939
    42         34
    43         77
    44          2
    45          3
    50          1
    51          2
    52          8
    53         53
    54         15
    55         80
    56         35
    57        127
    58          5
    59          4
    60          1
    61          1
    62          1
    63          1
    64          1
    65         13
    66         11
    67         78
    68        246
    69        999
    70        133
    71        373
    72         13
    73          2
    75          4
    76          1
    77          6
    78          1
    79         14
    80          6
    81        405
    82         37
    83         84
    84          9
    85         48
    86          3
    87          2
    91          2
    92          1
    93         13
    94          6
    95         37
    96         54
    97        154
    98        126
    99        457
   100         19
   101          6
   102          1
   103          0
   105          1
   107          4
   108          7
   109         71
   110         86
   111        305
   112         46
   113         73
   114          6
   115          1
   117          1
   118          0
   120          2
   121          9
   122          7
   123         41
   124        232
   125        691
   126         62
   127         40
   128          2
   129          2
   131          1
   132          1
   133          1
   134          1
   135          5
   136         22
   137         79
   138         27
   139         61
   140         46
   141        165
   142         15
   143          2
   145          1
   146          1
   147          1
   148          7
   149         29
   150         15
   151         41
   152         34
   153         96
   154         13
   155         15
   156          2
   157          2
   158          1
   159          1
   160          1
   161          1
   162          1
   163          3
   164         41
   165        156
   166        100
   167        302
   168         82
   169        111
   170         11
   171          1
   175          1
   176          2
   177          8
   178         11
   179         32
   180         37
   181         72
   182         59
   183        163
   184         15
   185          3
   186          1
   187          1
   188          1
   189          1
   190          1
   191          1
   192          3
   193          9
   194         29
   195         99
   196         91
   197         45
   198          5
   199          1
   203          2
   204          1
   205          5
   206          5
   207         21
   208         88
   209        178
   210         25
   211          5
   219          3
   220         24
   221         61
   222         54
   223         86
   224         13
   225          6
   226          1
   231          1
   232          3
   233         12
   234         35
   235         63
   236         14
   237         21
   238         70
   239        128
   240         17
   241          2
   248          1
   249         15
   250        105
   251        220
   252         33
   253          6
   261          2
   262         13
   263         32
   264         11
   265         14
   266          3
   267          2
   268          0
   276          4
   277          7
   278          4
   279          3
   280         12
   281         26
   282          4
   283          1
   289          2
   290          8
   291         14
   292          7
   293         12
   294          8
   295         12
   296          1
   304          1
   305          9
   306         37
   307         63
   308         16
   309         12
   310          2
   317         17
   318         75
   319        106
   320         23
   321          8
   322          1
   335         18
   336         74
   337        101
   338         18
   339          2
   346          3
   348        182
   349        255
   350         58
   351          8
   361          1
   362          2
   363          2
   364          1
   365          1
   366          1
   375          1
   376          1
   377          2
   392          2
   393          2
   401          0
   402          7
   403         37
   404         96
   405        112
   406         27
   407          3
   432          1
   433          3
   434          6
   435          9
   436          2
   461          1
   462          1
   463          1
   488          2
   489          8
   490         21
   491         20
   492          6
   493          1