##TITLE=Library Entry 85639
##JCAMP-DX=Revision 4.10 
##DATA TYPE=MASS SPECTRUM
##SAMPLE DESCRIPTION=NIST Mass Spectrometry Data Center
##NAMES=HP
##CAS NAME=Sobrerol 8-acetate
##MOLFORM=C12H20O3
##CAS REGISTRY NO=93133-02-9
##MP= -300
##BP= -300
##MW= 212
##$RETENTION INDEX=1529
##$CONDENSED SPECTRUM=NO
##NPOINTS= 59
##XYDATA=(XY..XY) 1 
    27         16
    29         19
    31          9
    39         54
    40         10
    41        119
    42         11
    43        550
    44         20
    45         25
    51         17
    52         10
    53         43
    54         16
    55        129
    56         22
    57         16
    59        148
    60         11
    61          9
    63          6
    65         30
    66         12
    67         69
    68         18
    69        160
    70         16
    77         78
    79        122
    80         22
    81         98
    82         52
    83         69
    84         58
    91        108
    92         25
    93        140
    94        102
    95        182
    96         50
    97         55
   105         24
   107         34
   108        114
   109        999
   110        111
   111         22
   115         12
   117         12
   119        196
   120         22
   123         39
   124         18
   134         55
   135         62
   137        182
   138         16
   152        131
   153         18