##TITLE=Library Entry 61151
##JCAMP-DX=Revision 4.10 
##DATA TYPE=MASS SPECTRUM
##SAMPLE DESCRIPTION=Chemical Concepts
##NAMES=HP
##CAS NAME=Octanoic acid, 8-(benzyloxy)-6-hydroxy-, methyl ester
##MOLFORM=C16H24O4
##CAS REGISTRY NO=93157-40-5
##MP= -300
##BP= -300
##MW= 280
##$RETENTION INDEX=0
##$CONDENSED SPECTRUM=NO
##NPOINTS= 117
##XYDATA=(XY..XY) 1 
    25          3
    27         47
    29         76
    30          8
    31         74
    38          2
    39         59
    40          9
    41        124
    42         25
    43         53
    44          9
    45         18
    49          3
    50          7
    51         31
    52         10
    53         15
    54         23
    55        185
    56         39
    57         63
    58         19
    59         14
    60         40
    61          4
    62          3
    63         17
    64          6
    65        104
    66         10
    67         77
    68         83
    69         42
    70         37
    71         22
    72         32
    73         62
    74         38
    75          6
    77         56
    78         20
    79         90
    80         26
    81         34
    82        133
    83         84
    84         16
    85         37
    86          6
    87         43
    88          6
    89         23
    90         21
    91        999
    92        129
    93         23
    94          3
    95         30
    96        106
    97         29
    98         10
    99         11
   100         27
   101         11
   104         17
   105         69
   106         21
   107        516
   108         59
   109         12
   111         12
   112          5
   113         23
   114         70
   115          8
   117          8
   118          5
   119          9
   120         27
   121          7
   123          7
   124         89
   125         11
   126          6
   127          8
   128          6
   129          8
   130          5
   131          4
   133         15
   134          3
   139         15
   140          5
   141         12
   142         15
   143          5
   145          6
   147         22
   148          4
   149          6
   156         15
   157          4
   159          6
   165          5
   170          2
   174         17
   188          2
   202         10
   220          6
   247         21
   248        152
   249         25
   250          3
   261          2
   262          6
   263          1