##TITLE=Library Entry 90257
##JCAMP-DX=Revision 4.10 
##DATA TYPE=MASS SPECTRUM
##SAMPLE DESCRIPTION=Zaikin V.G., TIPS RAS, Moscow, Russia
##NAMES=HP
##CAS NAME=2-Furancarboxylic acid, undecyl ester
##MOLFORM=C16H26O3
##CAS REGISTRY NO=93154-79-1
##MP= -300
##BP= -300
##MW= 266
##$RETENTION INDEX=0
##$CONDENSED SPECTRUM=NO
##NPOINTS= 68
##XYDATA=(XY..XY) 1 
    26          6
    27         12
    28          1
    29         20
    36         10
    38          9
    39         40
    40          5
    41         58
    42         17
    43         50
    44          8
    51          3
    53          8
    54         14
    55         84
    56         60
    57         41
    65          3
    66          4
    67         29
    68         25
    69         74
    70         60
    71         19
    77          7
    78          7
    79         19
    80          6
    81         15
    82         22
    83         63
    84         42
    85         11
    91         10
    92         32
    93         16
    95        412
    96         50
    97         68
    98         23
   105          4
   106          3
   109          4
   110         14
   111         24
   112        384
   113        999
   114         98
   115         11
   119          5
   123          7
   124          4
   125         11
   126         29
   127          3
   134         38
   135          8
   151          3
   152          5
   153          4
   154         29
   155          3
   221          3
   246          7
   248          2
   266         89
   267         17