##TITLE=Library Entry 87169
##JCAMP-DX=Revision 4.10 
##DATA TYPE=MASS SPECTRUM
##SAMPLE DESCRIPTION=A.A.Kutin, Moscow, Russia
##NAMES=HP
##CAS NAME=2-Pyrrolidin-1-yl-bicyclo[3.2.1]octan-8-ol
##MOLFORM=C12H21NO
##CAS REGISTRY NO=93185-83-2
##MP= -300
##BP= -300
##MW= 195
##$RETENTION INDEX=0
##$CONDENSED SPECTRUM=NO
##NPOINTS= 102
##XYDATA=(XY..XY) 1 
    33          0
    34          2
    39         36
    40         27
    41         95
    42         35
    43         32
    44         12
    45          1
    50          1
    51          5
    52          4
    53         20
    54         25
    55         45
    56         17
    57         16
    58          1
    59          0
    60          0
    62          0
    63          1
    64          1
    65          9
    67         35
    68         29
    69         42
    70        142
    71         29
    72         18
    73          1
    74          0
    75          0
    77         18
    79         56
    80         12
    81         16
    82          9
    83         11
    84         48
    85          3
    86          0
    89          0
    91         13
    92          2
    93          4
    94          7
    95         10
    96         54
    97         71
    98          8
   100          7
   101          0
   103          0
   104          0
   105          5
   106          3
   107         20
   108         14
   110        999
   111         77
   112          4
   113          0
   117          0
   118          0
   119          0
   120          2
   121          1
   122          4
   123          3
   124          5
   125          2
   126          5
   127          1
   128          2
   132          0
   134          2
   136          7
   137          1
   138         12
   139          1
   140          0
   146          1
   148          3
   149          2
   150          2
   151          0
   152          1
   154          0
   164          1
   165          0
   166          5
   167          1
   168          0
   178         56
   179          7
   180          1
   193          2
   194         15
   195         98
   196         12
   197          0