##TITLE=Library Entry 44110
##JCAMP-DX=Revision 4.10 
##DATA TYPE=MASS SPECTRUM
##SAMPLE DESCRIPTION=M.WEIDENBRUCH, FAC. CHEM., UNIV. OLDENBURG, OLDENBURG,
 W. GER.
##NAMES=HP
##CAS NAME=Hexa-t-butylthiatrisiletane
##MOLFORM=C24H54SSi3
##CAS REGISTRY NO=93194-14-0
##MP= -300
##BP= -300
##MW= 458
##$RETENTION INDEX=0
##$CONDENSED SPECTRUM=NO
##NPOINTS= 201
##XYDATA=(XY..XY) 1 
    50         19
    52          5
    53         23
    54          8
    55         64
    56        187
    57        178
    58         30
    59        287
    60         22
    61         10
    69         12
    70          4
    71         22
    72          7
    73        999
    74         83
    75         39
    77          6
    81          3
    83         21
    84          5
    85        147
    86         23
    87         27
    88         15
    89         11
    91         13
    95          9
    97         50
    98          7
    99        158
   100         35
   101         53
   102         24
   103         19
   104          4
   105          6
   109         12
   111         64
   112         11
   113         84
   114         15
   115         56
   116         24
   117         30
   118          7
   119         22
   121          5
   123          9
   125         25
   126         10
   127        206
   128         29
   129         88
   130         37
   131         43
   132          8
   133         72
   134         11
   135         16
   137         12
   139         87
   140         15
   141         32
   142          5
   143         41
   144         43
   145         52
   146         11
   147        118
   148         23
   149         49
   150          8
   151         10
   153         54
   154          8
   155         30
   156          5
   157         35
   158          9
   159         74
   160         13
   161         96
   162         20
   163         30
   164          5
   165          7
   167          5
   169         17
   171         80
   172        113
   173         67
   174         15
   175        102
   176         25
   177         33
   178          6
   179          9
   181          4
   185         34
   186         10
   187         82
   188         16
   189         55
   190         26
   191         38
   192          9
   193         16
   195          8
   199          7
   200         31
   201         57
   202         15
   203         64
   204         17
   205         40
   206          9
   207         17
   208          4
   209         11
   211          4
   213          7
   215         15
   217         36
   218          8
   219         29
   220          7
   221         14
   223         16
   225          4
   227        125
   228        159
   229         54
   230         15
   231         78
   232         30
   233         43
   234         10
   235         18
   237          5
   243         16
   244          4
   245         33
   246         14
   247         31
   248          8
   249         20
   250          5
   251          8
   259         21
   260          5
   261         28
   262          8
   263          7
   265          7
   267          4
   273          7
   275          8
   277          7
   281          4
   284         30
   285         11
   287         94
   288         51
   289         89
   290         28
   291         26
   292          6
   293          4
   301         11
   303         36
   304         10
   305         11
   306          3
   307         12
   308          4
   309          5
   317          9
   319          4
   323          3
   329         10
   343         17
   344         86
   345        624
   346        217
   347        115
   348         29
   349          9
   359         25
   360         10
   361          7
   377          7
   379          4
   385          6
   401        354
   402        130
   403         73
   404         20
   405          6
   417          4