##TITLE=Library Entry 43283
##JCAMP-DX=Revision 4.10 
##DATA TYPE=MASS SPECTRUM
##SAMPLE DESCRIPTION=M.WEIDENBRUCH, FAC. CHEM., UNIV. OLDENBURG, OLDENBURG,
 W. GER.
##NAMES=HP
##CAS NAME=1,1,2,2,4,4-Hexa-t-butyl-3,5-dioxa-1,2,4-trisilolane
##MOLFORM=C24H54O2Si3
##CAS REGISTRY NO=93194-13-9
##MP= -300
##BP= -300
##MW= 458
##$RETENTION INDEX=0
##$CONDENSED SPECTRUM=NO
##NPOINTS= 231
##XYDATA=(XY..XY) 1 
    50         34
    51         36
    52         12
    53         39
    54         12
    55        122
    56        308
    57        201
    58         23
    59        330
    60         24
    61         14
    64          4
    66          7
    67          8
    69         15
    70          6
    71         31
    72          6
    73        999
    74         96
    75         61
    76          5
    77          5
    80          6
    81         25
    82         11
    83         25
    84          5
    85        239
    86         25
    87         31
    88        152
    89         81
    90         11
    91          6
    93          3
    94          5
    95         42
    96         83
    97         74
    98          7
    99        194
   100         22
   101         34
   102         20
   103        330
   104         93
   105         33
   106          5
   107          4
   108          5
   109         50
   110         17
   111         43
   112          6
   113         57
   114          6
   115         24
   116         34
   117        107
   118         19
   119         77
   120          8
   121          8
   123         10
   124          8
   125         18
   126          3
   127         34
   128          3
   129         35
   130         11
   131         74
   132         13
   133        194
   134         31
   135         17
   137          6
   138          6
   139         12
   141         13
   142          4
   143         32
   144          6
   145         42
   146          6
   147         76
   148         12
   149         22
   150          3
   151          4
   153        217
   154         31
   155         11
   157         35
   158          7
   159         53
   160         10
   161         50
   162         11
   163         38
   164          5
   165          7
   167          5
   169          5
   171         12
   172          3
   173         28
   174          7
   175         58
   176         14
   177        139
   178         23
   179         33
   180          4
   181          5
   183          5
   185         13
   187         25
   188          4
   189         98
   190         19
   191        336
   192         63
   193        115
   194         22
   195         12
   197          7
   199          3
   201         36
   202          7
   203         55
   204         14
   205        585
   206        113
   207        505
   208        103
   209         66
   210          9
   211          5
   213          4
   215         31
   216          7
   217         36
   218          8
   219        404
   220         89
   221        333
   222         67
   223         42
   224          7
   225          6
   227          3
   229         11
   230          3
   231         50
   232         16
   233        387
   234         90
   235        148
   236         33
   237         16
   239          3
   241          3
   243          5
   245         39
   246         12
   247        225
   248         55
   249        142
   250         33
   251         21
   252          4
   253          3
   259         15
   260          3
   261        217
   262         60
   263         93
   264         18
   265          9
   267          3
   273         12
   275        139
   276         39
   277         45
   278         11
   279          7
   281          3
   287         27
   288          8
   289         58
   290         13
   291         22
   292          6
   293          4
   301          6
   303        105
   304         27
   305         21
   306          5
   307          5
   317         46
   318         12
   319         13
   320          3
   321          3
   331          8
   332          3
   333          4
   335          3
   343          3
   344          4
   345         30
   346          8
   347          4
   359         17
   360          6
   361          9
   375          5
   401        273
   402        102
   403         44
   404          9
   405          4
   407          3
   417          6
   423          5
   433          3
   457          7