##TITLE=Library Entry 42377
##JCAMP-DX=Revision 4.10 
##DATA TYPE=MASS SPECTRUM
##SAMPLE DESCRIPTION=M.WEIDENBRUCH, FAC. CHEM., UNIV. OLDENBURG, OLDENBURG,
 W. GER.
##NAMES=HP
##CAS NAME=2,2,3,3,4,4-Hexa-t-butyl-1-oxa-2,3,4-trisiletane
##MOLFORM=C24H54OSi3
##CAS REGISTRY NO=93194-12-8
##MP= -300
##BP= -300
##MW= 442
##$RETENTION INDEX=0
##$CONDENSED SPECTRUM=NO
##NPOINTS= 233
##XYDATA=(XY..XY) 1 
    50          6
    51         17
    52         14
    53          9
    54          5
    55         60
    56         72
    57        258
    58         32
    59        281
    60         25
    61         23
    63          3
    64          3
    66         63
    67         20
    68          3
    69         26
    70         29
    71         71
    72         13
    73        999
    74        100
    75         54
    77         10
    79         14
    81         13
    82         12
    83         26
    84         13
    85        121
    86         17
    87         22
    88         12
    89         32
    91         17
    92          9
    93          4
    94          4
    95         25
    96          7
    97         30
    98         11
    99        178
   100         31
   101         38
   102          6
   103         68
   104         16
   105         35
   106          7
   107          5
   108          3
   109         16
   110          6
   111         25
   112         12
   113         87
   114          9
   115         53
   116         14
   117         98
   118         14
   119        117
   120         20
   121          9
   123          8
   124          5
   125         24
   126          3
   127        110
   128         16
   129         42
   130         12
   131        116
   132         19
   133        602
   134         84
   135         44
   136          7
   137          4
   139         13
   140          3
   141         26
   142         13
   143         76
   144         12
   145         78
   146         16
   147        432
   148         67
   149         43
   150          6
   151          8
   153         56
   154         10
   155         11
   156          4
   157         64
   158         13
   159        138
   160         22
   161         67
   162          9
   163         12
   165          5
   167          4
   169          6
   171         80
   172         15
   173        141
   174         34
   175         94
   176         18
   177         22
   178          3
   179          6
   183          5
   185         59
   186          8
   187        118
   188         23
   189         83
   190         11
   191         41
   192          7
   193         20
   195          5
   199         13
   201         62
   202         14
   203         34
   204          6
   205         46
   206         11
   207         21
   208          6
   209          6
   210          3
   211          3
   213         21
   214          3
   215         40
   216         15
   217         41
   218         13
   219         32
   220          8
   221         16
   222          3
   223          5
   227         16
   228          4
   229         20
   230          3
   231         38
   232          7
   233         31
   234          4
   235          7
   241          7
   243         33
   244          9
   245         41
   246          9
   247         22
   248          6
   249         15
   251          5
   257         16
   258          5
   259         38
   260          5
   261         22
   263          6
   265          3
   271          6
   272          3
   273         36
   274         17
   275         21
   277          4
   279          5
   281          3
   285          3
   287         37
   288         10
   289         13
   291          5
   293          5
   299         39
   300         11
   301         30
   303         15
   304          3
   305          4
   309          3
   317          8
   321          6
   323          4
   329        102
   330         35
   331         15
   332          4
   335         10
   336          3
   337          3
   343         22
   344          7
   345          6
   347          4
   349          3
   359          4
   361          6
   362          3
   377          9
   378          5
   385        118
   386         41
   387         28
   388          4
   389          3
   391         13
   392          6
   393          5
   401         22
   402          7
   407          9
   408          4
   435          3
   442         58
   443         29
   444          8