##TITLE=Library Entry 53178
##JCAMP-DX=Revision 4.10 
##DATA TYPE=MASS SPECTRUM
##SAMPLE DESCRIPTION=Japan AIST/NIMC Database- Spectrum MS-IW-3302
##NAMES=HP
##CAS NAME=3H-1,2,4-Triazol-3-one, 1,2-dihydro-5-nitro-
##MOLFORM=C2H2N4O3
##CAS REGISTRY NO=932-64-9
##MP= -300
##BP= -300
##MW= 130
##$RETENTION INDEX=0
##$CONDENSED SPECTRUM=NO
##NPOINTS= 58
##XYDATA=(XY..XY) 1 
    12          8
    13         20
    14          4
    15          3
    16          8
    17         19
    18         86
    26         16
    27        181
    28        181
    29        357
    30        387
    31          5
    32          3
    38          3
    39          2
    40         12
    41        112
    42        115
    43        120
    44        100
    45          5
    46        185
    47          1
    48          9
    52          1
    53          1
    54        128
    55         33
    56         24
    57         24
    58          1
    67          1
    68         15
    69         30
    70          7
    71         10
    73          2
    74          1
    81          2
    82          1
    83        999
    84        671
    85        315
    86         10
    87          2
    91          2
    95          2
    97          2
   100          6
   105          1
   109          1
   111          1
   114          9
   123          1
   130        749
   131         28
   132          5