##TITLE=Library Entry 50620
##JCAMP-DX=Revision 4.10 
##DATA TYPE=MASS SPECTRUM
##SAMPLE DESCRIPTION=Japan AIST/NIMC Database- Spectrum MS-NW-9942
##NAMES=HP
##CAS NAME=Ethanone, 1-(1-cyclohexen-1-yl)-
##MOLFORM=C8H12O
##CAS REGISTRY NO=932-66-1
##MP= -300
##BP= -300
##MW= 124
##$RETENTION INDEX=1023
##$CONDENSED SPECTRUM=NO
##NPOINTS= 76
##XYDATA=(XY..XY) 1 
    14          1
    15         21
    18          3
    26          7
    27         76
    28          9
    29         17
    31          1
    37          2
    38          9
    39        102
    40         13
    41        130
    42         12
    43        607
    44         14
    45          9
    49          1
    50         25
    51         56
    52         33
    53        190
    54         29
    55         43
    56          2
    57          1
    58          2
    61          1
    62          4
    63         10
    64          2
    65         39
    66         33
    67         40
    68          6
    69          6
    70          5
    71          2
    73          1
    74          5
    75          2
    76          2
    77         77
    78         20
    79        326
    80         84
    81        999
    82         70
    83          6
    84          1
    91         21
    92          2
    93          3
    94          2
    95         19
    96          9
    97          3
    98          1
   103          2
   104          1
   105          6
   106          4
   107          5
   108          2
   109        744
   110         59
   111          4
   115          1
   117          2
   120          1
   121          1
   122          1
   123         12
   124        591
   125         57
   126          4