##TITLE=Library Entry 651
##JCAMP-DX=Revision 4.10 
##DATA TYPE=MASS SPECTRUM
##SAMPLE DESCRIPTION=J.VOTH UNIV. OF CALIFORNIA, DAVIS, CALIFORNIA, 95616, U
SA
##NAMES=HP
##CAS NAME=2(3H)-Furanone, 5-ethoxydihydro-
##MOLFORM=C6H10O3
##CAS REGISTRY NO=932-85-4
##MP= -300
##BP= -300
##MW= 130
##$RETENTION INDEX=1067
##$CONDENSED SPECTRUM=NO
##NPOINTS= 50
##XYDATA=(XY..XY) 1 
    12          6
    13         16
    14         67
    15        145
    16          6
    17          4
    18         12
    19         10
    25         11
    26        137
    27        479
    28        462
    29        999
    30        107
    31         90
    32          2
    37          5
    38         10
    39         52
    40         30
    41         40
    42         37
    43         42
    44         15
    45         51
    46          2
    47         84
    53          4
    54          3
    55         54
    56        325
    57        304
    58        401
    59         16
    60          2
    71          2
    73          9
    74         12
    75         59
    76          2
    83          4
    84          7
    85        506
    86        216
    87         13
   101         22
   102          5
   129          5
   130          1
   131          1