##TITLE=Library Entry 31766
##JCAMP-DX=Revision 4.10 
##DATA TYPE=MASS SPECTRUM
##SAMPLE DESCRIPTION=Chemical Concepts
##NAMES=HP
##CAS NAME=2,5-Cyclohexadien-1-one, 4-diazo-
##MOLFORM=C6H4N2O
##CAS REGISTRY NO=932-97-8
##MP= -300
##BP= -300
##MW= 120
##$RETENTION INDEX=0
##$CONDENSED SPECTRUM=NO
##NPOINTS= 84
##XYDATA=(XY..XY) 1 
    24          3
    25         20
    26         77
    27         21
    28         22
    29         15
    30          3
    31        171
    32         11
    36         22
    37        167
    38        484
    39         62
    40         17
    41         18
    42          5
    43          9
    44          6
    45          3
    46         54
    47          5
    48          6
    49         34
    50         76
    51         37
    52         33
    53         32
    54          7
    55         22
    56          4
    57          9
    60         42
    61        141
    62        236
    63        836
    64        999
    65         80
    66         43
    67          6
    68          4
    69          6
    70          2
    71          4
    72          2
    73         11
    74         20
    75          8
    76          4
    77          5
    78          2
    79          3
    80          4
    81          5
    82          2
    83          6
    84          1
    85          2
    89          1
    91          6
    92        370
    93         28
    94        109
    95         11
    96          2
    97          3
    98          1
    99          1
   103          1
   104          1
   105          2
   106          1
   107          1
   108          2
   109          2
   110          2
   111          2
   115          1
   117          1
   118          1
   119          2
   120        507
   121         38
   122          2
   123          1