##TITLE=Library Entry 34236
##JCAMP-DX=Revision 4.10 
##DATA TYPE=MASS SPECTRUM
##SAMPLE DESCRIPTION=Japan AIST/NIMC Database- Spectrum MS-NW-3422
##NAMES=HP
##CAS NAME=2,5-Dimethylcyclohexanone
##MOLFORM=C8H14O
##CAS REGISTRY NO=932-51-4
##MP= -300
##BP= -300
##MW= 126
##$RETENTION INDEX=0
##$CONDENSED SPECTRUM=NO
##NPOINTS= 80
##XYDATA=(XY..XY) 1 
    14          9
    15         46
    17          2
    18          6
    25          2
    26         37
    27        325
    28        128
    29        172
    30          4
    31          6
    32          1
    37         12
    38         34
    39        392
    40         77
    41        702
    42        265
    43        109
    44          6
    45          4
    49          4
    50         27
    51         44
    52         16
    53         87
    54         43
    55        408
    56        587
    57         72
    58         19
    59          2
    61          3
    62          6
    63         11
    64          3
    65         17
    66          8
    67        120
    68         46
    69        999
    70         75
    71         89
    72         10
    73          1
    74          3
    75          1
    77         20
    78          5
    79         18
    80          5
    81         28
    82        544
    83         84
    84         86
    85          7
    86          4
    91         12
    92          3
    93         42
    94          4
    95         24
    96          3
    97         48
    98        168
    99         11
   105          2
   106          1
   107          2
   108         24
   109          4
   110         13
   111         83
   112          8
   113          2
   124          1
   125          4
   126        388
   127         34
   128          4