##TITLE=Library Entry 46568
##JCAMP-DX=Revision 4.10 
##DATA TYPE=MASS SPECTRUM
##SAMPLE DESCRIPTION=DC-18-7
##NAMES=HP
##CAS NAME=2,4,6-Cycloheptatrien-1-one, 2-bromo-
##MOLFORM=C7H5BrO
##CAS REGISTRY NO=932-55-8
##MP= -300
##BP= -300
##MW= 184
##$RETENTION INDEX=0
##$CONDENSED SPECTRUM=NO
##NPOINTS= 39
##XYDATA=(XY..XY) 1 
    41         20
    43         20
    44         30
    48         10
    49        160
    50        380
    51        620
    52         70
    53         40
    55         20
    57         10
    60         10
    61         30
    62         30
    63         20
    68         10
    69         10
    70         10
    73         20
    74         80
    75         60
    76         60
    77        999
    78         90
    79         50
    80         10
    81         30
    82         10
    83         10
   105        240
   106         20
   121         20
   156        150
   157         10
   158        150
   159         10
   184         70
   185         10
   186         70