##TITLE=Library Entry 85227
##JCAMP-DX=Revision 4.10 
##DATA TYPE=MASS SPECTRUM
##SAMPLE DESCRIPTION=MASS SPECTRA OF ORGANIC COMPOUNDS, V. 5, B. H. KENNETT
 ET AL, DIV. OF FOOD RESEARCH, CSIRO, AUSTRALIA
##NAMES=HP
##CAS NAME=Ethanone, 1-(1-methyl-1H-pyrrol-2-yl)-
##MOLFORM=C7H9NO
##CAS REGISTRY NO=932-16-1
##MP= -300
##BP= -300
##MW= 123
##$RETENTION INDEX=1096
##$CONDENSED SPECTRUM=NO
##NPOINTS= 32
##XYDATA=(XY..XY) 1 
    26         50
    27        190
    28        160
    29         10
    37         40
    38        100
    39        530
    40         40
    41         60
    42        130
    43        220
    49         60
    51        100
    52        100
    53        590
    54         80
    55         20
    63         20
    64         30
    65         30
    78         50
    79         40
    80        310
    81         30
    93         10
    94         30
   104         30
   108        999
   109        100
   122         50
   123        820
   124         90