##TITLE=Library Entry 2320
##JCAMP-DX=Revision 4.10 
##DATA TYPE=MASS SPECTRUM
##SAMPLE DESCRIPTION=W.T.RAINEY OAK RIDGE NATIONAL LABORATORY,OAK RIDGE,TN.U
SA
##NAMES=HP
##CAS NAME=1H-Azepine, hexahydro-1-nitroso-
##MOLFORM=C6H12N2O
##CAS REGISTRY NO=932-83-2
##MP= -300
##BP= -300
##MW= 128
##$RETENTION INDEX=0
##$CONDENSED SPECTRUM=NO
##NPOINTS= 46
##XYDATA=(XY..XY) 1 
    30        393
    31         21
    32         53
    37         21
    38         31
    39        276
    40         74
    41        999
    42        904
    43        287
    44        372
    45         21
    50         21
    51         31
    52         31
    53         63
    54         63
    55        436
    56        159
    57         42
    58         10
    65         21
    66         21
    67         42
    68         95
    69        329
    70        117
    71         21
    73         10
    80         10
    81         42
    82         31
    83         21
    86         10
    94         21
    95         10
    96         31
    97         42
    98         85
    99         21
   100         31
   111         74
   112         10
   113         10
   128        585
   129         53