##TITLE=Library Entry 71235
##JCAMP-DX=Revision 4.10 
##DATA TYPE=MASS SPECTRUM
##SAMPLE DESCRIPTION=A.A.Kutin, Moscow, Russia
##NAMES=HP
##CAS NAME=Ethanone, 1-[4-methoxy-3-(1-piperidylmethyl)phenyl)-
##MOLFORM=C15H21NO2
##CAS REGISTRY NO=93201-36-6
##MP= -300
##BP= -300
##MW= 247
##$RETENTION INDEX=0
##$CONDENSED SPECTRUM=NO
##NPOINTS= 159
##XYDATA=(XY..XY) 1 
    33          1
    34          7
    39        164
    40         73
    41        385
    42        461
    43        795
    44         96
    45         17
    46          2
    48          0
    50         42
    51        154
    52         36
    53         54
    54         58
    55        297
    56        110
    57         40
    58          9
    59         19
    60          5
    61          3
    62         18
    63         78
    64         31
    65        101
    66         20
    67         27
    68         34
    69         64
    70         44
    71          7
    73         50
    74        106
    75         23
    76         43
    77        263
    78         91
    79        154
    80         27
    81         13
    82         31
    83         37
    84        978
    85         64
    86        334
    87         52
    89        136
    90        128
    91        223
    92         34
    93         19
    94         13
    96         95
    97         79
    98        999
    99         71
   100          5
   102         35
   103         93
   104         79
   105        319
   106         41
   107         27
   109         23
   112          2
   113          0
   114          5
   116        225
   117         71
   118         88
   119         68
   120        100
   121        218
   122         31
   123          9
   124          0
   127          2
   128          3
   129          2
   130         10
   131         25
   132         22
   133        268
   134         69
   135         50
   136          5
   137          0
   141          0
   142          0
   143          2
   144          7
   145         10
   146         18
   147         95
   148         54
   149         59
   150          5
   151          2
   154          0
   157          0
   158          4
   159          4
   160         18
   161         51
   162        103
   163        948
   164        179
   165         16
   166          1
   170          0
   171          3
   172         31
   173         17
   174         20
   175         12
   176         47
   177         13
   178          6
   179          0
   185          0
   186         22
   187         11
   188         63
   189         13
   190         31
   191         10
   192          4
   200          3
   202          6
   203          8
   204        122
   205         21
   206          5
   207          0
   214          7
   215          1
   216         41
   217          9
   218         98
   219         18
   220          2
   221          0
   228          6
   229          0
   230          6
   231          1
   232         26
   233          4
   237          0
   242          0
   243          2
   244          2
   245          5
   246        668
   247        697
   248        113
   249         10