##TITLE=Library Entry 79787
##JCAMP-DX=Revision 4.10 
##DATA TYPE=MASS SPECTRUM
##SAMPLE DESCRIPTION=A.A.Kutin, Moscow, Russia
##NAMES=HP
##CAS NAME=Pent-2-ene-1,5-dione, 2-methyl-1-(4-methylphenyl)-3,5-diphenyl-
##MOLFORM=C25H22O2
##CAS REGISTRY NO=93214-59-6
##MP= -300
##BP= -300
##MW= 354
##$RETENTION INDEX=0
##$CONDENSED SPECTRUM=NO
##NPOINTS= 198
##XYDATA=(XY..XY) 1 
    33          2
    34          0
    36          0
    37          0
    38          2
    39         17
    40          8
    41          8
    43         45
    44          4
    45          0
    50         15
    51         55
    52          5
    53          4
    54          0
    55          2
    56          0
    57          1
    61          0
    62          2
    63         11
    65         70
    66          3
    67          0
    68          0
    69          1
    70          0
    71          0
    73          0
    74          3
    75          6
    77        377
    78         26
    79          4
    80          0
    81          1
    82          0
    83          0
    84          0
    85          0
    86          0
    87          1
    89         21
    91        179
    92         13
    93          0
    94          0
    95          0
    96          0
    97          0
    98          0
    99          0
   100          0
   101          3
   102          8
   103         13
   105        999
   106         72
   107          5
   108          0
   109          0
   110          0
   111          0
   112          0
   113          1
   115         33
   116          6
   117          3
   119        156
   120         12
   121          1
   122          0
   123          1
   124          0
   125          1
   126          3
   127         15
   128         32
   129         31
   130          4
   131          1
   133          0
   136          0
   137          0
   138          0
   139          1
   141          3
   142          1
   143          8
   144          1
   145          1
   146          0
   148          0
   149          0
   150          0
   151          1
   152          3
   153          1
   154          0
   155          1
   156          2
   157          7
   158          1
   162          0
   163          1
   164          1
   165          7
   166          1
   167          0
   168          0
   171          3
   172          0
   176          1
   177          1
   178          5
   179          2
   180          0
   181          0
   187          0
   188          1
   189          7
   190          4
   191         13
   192          6
   193          4
   194          4
   195          1
   200          0
   201          1
   202          7
   203          5
   204          4
   205          8
   206          5
   207          4
   208          0
   209          0
   213          0
   214          0
   215          5
   216          4
   217          7
   218          3
   219          4
   220          5
   221         12
   222          2
   223          0
   228          0
   229          1
   231         11
   232         71
   233         45
   234         89
   235        232
   236         40
   237          3
   238          0
   245          0
   246          0
   247          5
   248         10
   249         77
   250         14
   251          1
   261          0
   262          0
   263          3
   264          0
   276          0
   277          1
   278          0
   294          0
   295          0
   307          0
   308          1
   309          2
   311         87
   312         25
   313          3
   314          0
   321          0
   322          0
   323          0
   325          0
   326          0
   336          6
   337          8
   338          2
   339          9
   340          2
   341          0
   351          0
   352          1
   354         68
   355         17
   356          2