##TITLE=Library Entry 7947
##JCAMP-DX=Revision 4.10 
##DATA TYPE=MASS SPECTRUM
##SAMPLE DESCRIPTION=Philip Morris R&D
##NAMES=HP
##CAS NAME=4s,6s-Dimethyl-7R-acetoxy-3-nonanone
##MOLFORM=C13H24O3
##CAS REGISTRY NO=93218-42-9
##MP= -300
##BP= -300
##MW= 228
##$RETENTION INDEX=0
##$CONDENSED SPECTRUM=NO
##NPOINTS= 80
##XYDATA=(XY..XY) 1 
    36         10
    38          2
    39         40
    40          9
    41        211
    42         69
    43        999
    44         35
    45         42
    53         23
    54          9
    55        301
    56         84
    57        941
    58         51
    59         32
    60          4
    61         11
    65          5
    66          2
    67         30
    68         18
    69        516
    70        385
    71         67
    72         29
    73          9
    75          2
    77          3
    79          7
    81         15
    82         54
    83        442
    84         43
    85         32
    86        861
    87        117
    88          5
    91          2
    93          2
    95         21
    96          6
    97         31
    98          8
    99        171
   100         15
   101         39
   102          2
   109          5
   110         20
   111        378
   112         63
   113         10
   115          2
   117         75
   118          5
   121         19
   122          2
   123          3
   125         32
   126         22
   127         59
   128        136
   129         26
   130          3
   135          2
   139        316
   140         33
   141          4
   150         11
   151          5
   153          9
   157        285
   158         31
   159          2
   167          7
   168        173
   169         26
   170          5
   185          3