##TITLE=Library Entry 99752
##JCAMP-DX=Revision 4.10 
##DATA TYPE=MASS SPECTRUM
##SAMPLE DESCRIPTION=A.A.Kutin, Moscow, Russia
##NAMES=HP
##CAS NAME=Naphthalen-1(2H)-one, 3,4-dihydro-2-[3-(4-methylphenyl)-3-oxo-1-p
henylpropylnylideno]-
##MOLFORM=C26H22O2
##CAS REGISTRY NO=93214-63-2
##MP= -300
##BP= -300
##MW= 366
##$RETENTION INDEX=0
##$CONDENSED SPECTRUM=NO
##NPOINTS= 252
##XYDATA=(XY..XY) 1 
    33          2
    34          0
    37          0
    39         24
    40          9
    41          9
    43          5
    44          4
    45          1
    50          4
    51         16
    52          3
    53          2
    54          0
    55          3
    56          0
    57          1
    59          1
    60          0
    62          4
    63         16
    65         97
    66          5
    67          1
    69          1
    70          0
    71          0
    72          0
    73          0
    74          2
    75          4
    76          6
    77         39
    78          7
    79          2
    81          0
    82          0
    83          1
    84          0
    85          0
    86          1
    87          2
    89         50
    90         75
    91        345
    92         28
    93          2
    94          1
    95          1
    96          0
    97          0
    98          0
    99          0
   100          1
   101          5
   103        102
   104         13
   105         26
   106          2
   107          2
   108          1
   109          1
   110          0
   111          0
   112          1
   113          3
   115         57
   116         12
   117         23
   119        999
   120         82
   121          6
   122          1
   123          3
   124          0
   126          4
   127         12
   128         16
   129          5
   130          2
   131          6
   132          3
   133          1
   134          2
   135          1
   136          1
   137          3
   138          1
   139          7
   140          3
   141         13
   142          3
   143          4
   144          6
   145          5
   146          2
   147          0
   149          1
   150          2
   151          4
   152          5
   153          2
   154          1
   155          2
   156          0
   157          1
   158          0
   159          0
   160          0
   161          0
   162          0
   163          2
   164          2
   165          6
   166          2
   167          1
   168          1
   169          8
   170          1
   171          0
   173          1
   174          3
   176          3
   177          2
   178          9
   179          3
   180          0
   181          0
   183          5
   187          1
   188          2
   189          9
   190          4
   191          7
   192          3
   193          1
   194          0
   195          0
   197          0
   198          0
   200          3
   201          5
   202         29
   203         21
   204         14
   205         10
   206          3
   207          2
   208          0
   209          1
   210          8
   211          2
   212          1
   213          4
   215         26
   216          7
   217         10
   218          4
   219          5
   220          1
   221          4
   222          2
   223          4
   224          1
   225          1
   226          4
   227          4
   228         11
   229         20
   231        110
   232        132
   233        165
   234         31
   235          5
   236          0
   237          0
   238          0
   239          1
   240          0
   241          0
   242          0
   243          1
   244          3
   245         14
   246         16
   247        101
   248         19
   249          3
   250          0
   252          0
   253          0
   255          1
   256          2
   257          4
   258          1
   259          0
   261          3
   262          1
   263          1
   264          0
   265          0
   269          0
   271          7
   272          1
   273          4
   274          1
   275          4
   276          1
   277          0
   278          0
   289          1
   290          0
   291          0
   301          0
   302          1
   303          1
   304          0
   305          0
   311          0
   313          0
   315          0
   316          0
   317          0
   318          0
   319          0
   320          0
   321          0
   329          0
   331          0
   332          0
   333          1
   334          1
   335          0
   336          0
   337          0
   338          0
   345          0
   346          1
   347         11
   348         13
   349         25
   350          9
   351          2
   352          0
   354          0
   361          0
   363          2
   364          4
   366        156
   367         37
   368          5
   369          0