##TITLE=Library Entry 131
##JCAMP-DX=Revision 4.10 
##DATA TYPE=MASS SPECTRUM
##SAMPLE DESCRIPTION=Chemical Concepts
##NAMES=HP
##CAS NAME=Molybdenum, tetracarbonylbis(.eta.2-ethene)-
##MOLFORM=C8H8MoO4
##CAS REGISTRY NO=93221-04-6
##MP= -300
##BP= -300
##MW= 266
##$RETENTION INDEX=0
##$CONDENSED SPECTRUM=NO
##NPOINTS= 136
##XYDATA=(XY..XY) 1 
    26        315
    27        341
    28        999
    29         14
    30          2
    39         14
    40         43
    41          3
    42          3
    43         13
    44          1
    57          1
    59          3
    60          4
    61          3
    62          5
    63          5
    64          0
    68          0
    69          0
    73          9
    74         11
    75         13
    76         21
    77         16
    78          5
    87          5
    88          9
    89          9
    90         17
    91         13
    92         57
    93          4
    94         37
    95         63
    96         72
    97         42
    98         87
    99          5
   100         38
   101          3
   102          4
   103          3
   104          9
   105          9
   106          6
   107          7
   108         10
   109         10
   110         10
   111          8
   112          6
   113          3
   114          2
   116          2
   117         15
   118         18
   119         24
   120        100
   121         42
   122         72
   123        117
   124        101
   125         67
   126        112
   127         11
   128         45
   129          3
   130          2
   131          2
   132          4
   133          5
   134          4
   135          5
   136          5
   137          4
   138          4
   139          2
   140          0
   143          1
   144          2
   145          1
   146          7
   147          5
   148         77
   149         16
   150         68
   151         92
   152         99
   153         54
   154        111
   155          7
   156         44
   157          2
   174          6
   175          1
   176         80
   177         11
   178         61
   179         94
   180        102
   181         59
   182        129
   183          8
   184         49
   185          2
   204         39
   205          3
   206         26
   207         47
   208         47
   209         26
   210         68
   211          4
   212         27
   213          1
   232         25
   233          2
   234         16
   235         27
   236         27
   237         17
   238         43
   239          3
   240         16
   241          0
   260         27
   261          2
   262         17
   263         27
   264         33
   265         20
   266         44
   267          4
   268         17
   269          0