##TITLE=Library Entry 44569
##JCAMP-DX=Revision 4.10 
##DATA TYPE=MASS SPECTRUM
##SAMPLE DESCRIPTION=Chemical Concepts
##NAMES=HP
##CAS NAME=(3-Hydroxy-5-methoxycarbonylmethyl-cyclohexyl)-acetic acid, methy
l ester
##MOLFORM=C12H20O5
##CAS REGISTRY NO=93241-02-2
##MP= -300
##BP= -300
##MW= 244
##$RETENTION INDEX=0
##$CONDENSED SPECTRUM=NO
##NPOINTS= 162
##XYDATA=(XY..XY) 1 
    26          2
    27         51
    28         32
    29         56
    30          4
    31         53
    33          9
    38          2
    39         87
    40         24
    41        237
    42         32
    43        362
    44         34
    45         26
    46          1
    47          1
    50          2
    51          9
    52          7
    53         55
    54         30
    55        111
    56         12
    57         32
    58          7
    59        136
    60         16
    61         19
    62          1
    63          4
    64          1
    65         20
    66         15
    67        114
    68         38
    69         68
    70         19
    71         30
    72         11
    73         14
    74        999
    75        182
    76         22
    77         59
    78         17
    79        334
    80         37
    81         85
    82         31
    83         40
    84         35
    85         42
    86          7
    87         15
    88          3
    89          1
    90          1
    91        134
    92        138
    93        335
    94         70
    95        167
    96         41
    97        118
    98         20
    99         30
   100         20
   101         25
   102          5
   103          7
   104          9
   105         24
   106         43
   107         77
   108         23
   109         52
   110         41
   111        139
   112         12
   113          9
   114          4
   115          5
   116          5
   117          8
   118          8
   119         32
   120         32
   121        149
   122         21
   123          9
   124         34
   125         36
   126         11
   127         23
   128          6
   129         11
   130          7
   131          9
   132         13
   133          9
   134         31
   135         40
   136          9
   137         48
   138         22
   139         80
   140         13
   141         15
   142          7
   143         11
   144          1
   145          1
   148          1
   149          2
   150         49
   151        254
   152        221
   153        251
   154         24
   155          8
   156         12
   157          1
   160          1
   161          1
   162         18
   163         32
   164          7
   165          3
   166        123
   167         28
   168         10
   169        106
   170         35
   171         24
   172          2
   173          1
   176          3
   177          1
   179          7
   180         13
   181         48
   182          9
   183         13
   184        110
   185         19
   186          1
   192          1
   193          1
   194        165
   195         85
   196          9
   197          1
   201          2
   210          1
   211          4
   212         11
   213         36
   214          4
   226          3
   227          4
   245          2