##TITLE=Library Entry 47914
##JCAMP-DX=Revision 4.10 
##DATA TYPE=MASS SPECTRUM
##SAMPLE DESCRIPTION=S.A.M. METWALLY, DEP. CHEM., ASSIUT UNIV., EGYPT
##NAMES=HP
##CAS NAME=1-Phenyl-3-methyl-4-(2-chlorophenylmethylene)-5-pyrazolone
##MOLFORM=C17H13ClN2O
##CAS REGISTRY NO=93259-79-1
##MP= -300
##BP= -300
##MW= 296
##$RETENTION INDEX=0
##$CONDENSED SPECTRUM=NO
##NPOINTS= 124
##XYDATA=(XY..XY) 1 
    39         88
    40         44
    41         22
    42         22
    43        111
    44         22
    45         33
    50         44
    51        366
    52         44
    58         22
    59         11
    60         11
    62         11
    63         77
    64        111
    65         11
    68         11
    69         11
    74         11
    75        100
    76         44
    77        999
    78        111
    79         22
    80         11
    85         11
    86         11
    87         22
    89         22
    90         22
    91        233
    92         22
    93         11
    95         11
    96         11
    99         22
   100         33
   101        133
   102         77
   103         22
   105         11
   106         11
   108         11
   109         22
   111         11
   113         33
   115         22
   116         55
   117         33
   118         11
   119         11
   123         11
   124         11
   125         33
   126         66
   127        222
   128        333
   129         55
   130        166
   131         44
   136         66
   137         33
   138         11
   139         11
   140         11
   141         11
   142         11
   143         44
   147         11
   148         66
   149         44
   153         11
   155         11
   156         11
   158         11
   160         11
   161         11
   162         22
   163         44
   164         22
   165         22
   166         11
   169         11
   170         11
   174         11
   176         11
   177         11
   181         11
   184         11
   185        366
   186         55
   187         11
   189         22
   190         11
   191         22
   198         11
   199         22
   200         22
   201         11
   202         22
   203         11
   204         11
   205         11
   214         11
   218         11
   219         22
   220         55
   229         11
   232         22
   233         22
   234         11
   245         11
   246         22
   248         11
   251         11
   261        370
   262         55
   295         55
   296        844
   297        122
   298        277
   299         33
   300         11