##TITLE=Library Entry 74220
##JCAMP-DX=Revision 4.10 
##DATA TYPE=MASS SPECTRUM
##SAMPLE DESCRIPTION=Institute of Organic Chemistry, Novosibirsk, USSR 1988
##NAMES=HP
##CAS NAME=3,4-Di-O-acetyl-1:6-anhydro-2-acetamido-2-deoxy-D-altrosan
##MOLFORM=C12H17NO7
##CAS REGISTRY NO=93250-09-0
##MP= -300
##BP= -300
##MW= 287
##$RETENTION INDEX=0
##$CONDENSED SPECTRUM=NO
##NPOINTS= 58
##XYDATA=(XY..XY) 1 
    56         39
    59        559
    60        199
    68         39
    69         49
    70         94
    72         16
    80        139
    81        129
    82         39
    83         79
    84        109
    85         43
    86         36
    88         41
    96        189
    97        129
    98        419
    99         41
   101        999
   102        169
   112         63
   114        289
   115         39
   122         38
   125         38
   126         52
   127         16
   128         11
   130         16
   138         62
   139        219
   140        189
   141         17
   142         40
   143        169
   144         62
   156        139
   157         40
   167         89
   168         38
   170          5
   181         33
   182         39
   184         30
   185         78
   186         37
   198         10
   199         12
   201         12
   227         52
   228         40
   242         15
   243          1
   244          4
   245          3
   287          2
   288          9