##TITLE=Library Entry 48070
##JCAMP-DX=Revision 4.10 
##DATA TYPE=MASS SPECTRUM
##SAMPLE DESCRIPTION=A.A.Kutin, Moscow, Russia
##NAMES=HP
##CAS NAME=(E)-1-(5-Nitro-2-furyl)-2-bromo-2-methylethene
##MOLFORM=C7H6BrNO3
##CAS REGISTRY NO=93250-13-6
##MP= -300
##BP= -300
##MW= 231
##$RETENTION INDEX=0
##$CONDENSED SPECTRUM=NO
##NPOINTS= 139
##XYDATA=(XY..XY) 1 
    33          2
    34          1
    36         14
    37        152
    38        391
    39        679
    40         88
    41         27
    42         11
    43         32
    44         39
    45          8
    46         55
    47          3
    49         59
    50        448
    51        876
    52        535
    53        119
    54         75
    55         18
    56          3
    57          5
    58          1
    59          1
    60          8
    61         36
    62         73
    63        156
    64         37
    65        399
    66        269
    67        139
    68         43
    69          8
    70          2
    71          3
    72          3
    73         27
    74         95
    75         63
    76         89
    77        508
    78        999
    79        109
    80        104
    81         31
    82        107
    83         10
    84          2
    85          2
    86          1
    87          1
    88          0
    89          0
    90          1
    91          7
    92         16
    93         56
    94         73
    95         16
    96         33
    97          3
    98          0
    99          1
   101          0
   103          1
   104          4
   105         29
   106         57
   107         20
   108          8
   109          8
   110          0
   111          1
   115          0
   116          5
   117         65
   118         11
   119        105
   120         55
   121        261
   122         25
   123          3
   125          0
   128          0
   129          1
   131         18
   133         31
   135         16
   136          3
   137          0
   141          0
   143          2
   144          5
   145         53
   146         16
   147        118
   148         14
   149         62
   150          5
   151          3
   152          4
   153          0
   155          4
   157        319
   158         32
   159        299
   160         20
   161          2
   165          6
   166          0
   171          5
   172         10
   173        104
   174         17
   175         98
   176          6
   183          1
   184          5
   185          3
   186          4
   187          0
   199          2
   200          8
   201         92
   202         15
   203         86
   204          6
   205          0
   215         14
   217         16
   218          1
   228          0
   231        428
   232         46
   233        401
   234         31
   235          4