##TITLE=Library Entry 75295
##JCAMP-DX=Revision 4.10 
##DATA TYPE=MASS SPECTRUM
##SAMPLE DESCRIPTION=Institute of Organic Chemistry, Novosibirsk, USSR 1988
##NAMES=HP
##CAS NAME=Methyl 3,4-di-O-acetyl-2-acetamido-2,6-dideoxy-.alpha.-D-galactop
yranoside
##MOLFORM=C13H21NO7
##CAS REGISTRY NO=93250-07-8
##MP= -300
##BP= -300
##MW= 303
##$RETENTION INDEX=0
##$CONDENSED SPECTRUM=NO
##NPOINTS= 56
##XYDATA=(XY..XY) 1 
    68          6
    69         19
    70         54
    71         49
    72         33
    73         39
    74         16
    81         19
    82         79
    83         99
    84         69
    85         19
    86         12
    87         19
    88         64
    96         49
    97         19
    98         39
    99         79
   100        119
   101        999
   102         99
   109          2
   110         33
   111         12
   112         74
   113         54
   114         77
   115         19
   116         19
   123         40
   124         47
   125         16
   126         19
   128         16
   130         99
   139         12
   141         69
   142         79
   143        199
   144         39
   152         39
   156         49
   157         39
   158         19
   168          2
   169          6
   170          6
   183         19
   184         89
   199         19
   200         16
   211          6
   243          6
   244         91
   273          9