##TITLE=Library Entry 91010
##JCAMP-DX=Revision 4.10 
##DATA TYPE=MASS SPECTRUM
##SAMPLE DESCRIPTION=Institute of Organic Chemistry, Novosibirsk, USSR 1988
##NAMES=HP
##CAS NAME=Methyl 3,5-di-O-acetyl-2-acetamido-2,6-dideoxy-D-galactofuranosid
e
##MOLFORM=C13H21NO7
##CAS REGISTRY NO=93250-08-9
##MP= -300
##BP= -300
##MW= 303
##$RETENTION INDEX=0
##$CONDENSED SPECTRUM=NO
##NPOINTS= 72
##XYDATA=(XY..XY) 1 
    53         18
    54         19
    55        109
    56         69
    57         79
    58         79
    59         99
    60         15
    61         29
    67         29
    68         32
    69         69
    70        199
    71        119
    72        359
    73        139
    74         89
    75         15
    81         79
    82        529
    83        339
    84        129
    85         54
    86         35
    87         72
    88         45
    96        299
    97         79
    98        429
    99        229
   100        239
   101         89
   102        139
   109         35
   110         63
   111         26
   112        219
   113        109
   114        999
   115        219
   116         45
   123        189
   124        439
   125        149
   126        129
   127         26
   128         45
   129         26
   130        159
   139          8
   140        209
   141        419
   142        289
   143         45
   144         17
   152        179
   156        359
   157         72
   158         35
   168         17
   169         17
   170          9
   183         72
   184        349
   185        109
   200          8
   201          9
   211          9
   216        129
   243         26
   244        159
   272         26