##TITLE=Library Entry 21824
##JCAMP-DX=Revision 4.10 
##DATA TYPE=MASS SPECTRUM
##SAMPLE DESCRIPTION=C. VERKOYEN, INST. HYG. ARBEITMED., KLINIK ESSEN, ESSEN
,W.GER.
##NAMES=HP
##CAS NAME=1,2-Bis(1,3-dichloro-2,2-dimethylpropylidene)hydrazine
##MOLFORM=C10H16Cl4N2
##CAS REGISTRY NO=93289-71-5
##MP= -300
##BP= -300
##MW= 304
##$RETENTION INDEX=0
##$CONDENSED SPECTRUM=NO
##NPOINTS= 61
##XYDATA=(XY..XY) 1 
    39         50
    40         30
    41        350
    42        150
    49         40
    51         10
    53         80
    54         40
    55        999
    56         90
    62         50
    63         70
    64         10
    65         40
    66         30
    67         50
    68         80
    75         70
    76         10
    77         50
    79         10
    80         50
    81         40
    82        110
    89        120
    90         40
    91        300
    92         30
    93         90
   102         70
   103         40
   104         30
   105         10
   114         10
   115         40
   116        500
   117         50
   118        280
   119         30
   120         40
   123         10
   125         10
   143         30
   152         70
   154         50
   156         10
   179         40
   181         30
   233        290
   234         40
   235        190
   269        960
   270        130
   271        950
   272        120
   273        320
   274         50
   275         40
   304          2
   306          3
   308          1