##TITLE=Library Entry 37391
##JCAMP-DX=Revision 4.10 
##DATA TYPE=MASS SPECTRUM
##SAMPLE DESCRIPTION=Div. of Experiment Therapeutics WRAIR, WRAMC, Washingto
n DC 20307
##NAMES=HP
##CAS NAME=1-Methyl-4-[2-amino]benzoyl piperazine
##MOLFORM=C12H17N3O
##CAS REGISTRY NO=93288-86-9
##MP= -300
##BP= -300
##MW= 219
##$RETENTION INDEX=0
##$CONDENSED SPECTRUM=NO
##NPOINTS= 83
##XYDATA=(XY..XY) 1 
    41         73
    42        477
    43        222
    44        122
    45          4
    46          6
    47          7
    48          3
    49         30
    50         10
    51         21
    52         42
    53         10
    54         45
    55         41
    56        478
    57         69
    58        176
    59          6
    60          3
    62          8
    63         43
    64         39
    65        326
    66         44
    67          4
    68          8
    69          4
    70        999
    71        121
    72         41
    73         19
    74          4
    75          4
    76          6
    77         12
    78          4
    79          3
    81          3
    82         53
    83        294
    84         47
    85         20
    86         10
    88          3
    90          7
    91         30
    92        231
    93         24
    95          5
    97         16
    98         19
    99        299
   100         20
   101         19
   104          4
   105          5
   106         13
   113          7
   118          5
   119         22
   120        368
   121         28
   127          4
   131          1
   132          5
   133          9
   134          5
   136          3
   146          3
   147         25
   148          4
   160          4
   161         13
   162         64
   163         12
   175         20
   176          8
   201          1
   204         11
   219        188
   220         45
   221          7