##TITLE=Library Entry 35450
##JCAMP-DX=Revision 4.10 
##DATA TYPE=MASS SPECTRUM
##SAMPLE DESCRIPTION=Chemical Concepts
##NAMES=HP
##CAS NAME=Cycloheptanone, 3-methyl-
##MOLFORM=C8H14O
##CAS REGISTRY NO=933-17-5
##MP= -300
##BP= -300
##MW= 126
##$RETENTION INDEX=0
##$CONDENSED SPECTRUM=NO
##NPOINTS= 74
##XYDATA=(XY..XY) 1 
    26         13
    27         99
    28         84
    29         81
    31          2
    34          0
    36          0
    37          4
    38          9
    39        162
    40         43
    41        404
    42        238
    43        114
    44         10
    45          1
    50         11
    51         18
    52         10
    53         51
    54         45
    55        574
    56        396
    57         56
    58         23
    59         10
    61          1
    63          2
    64          5
    65          9
    66         15
    67        145
    68         83
    69        999
    70        111
    71         40
    72          4
    73          5
    74          2
    77         17
    78          2
    79         35
    80         26
    81         25
    82        776
    83        145
    84        151
    85         14
    86          1
    91          6
    93         38
    94          4
    95          6
    96         10
    97         55
    98        386
    99         20
   100          1
   103          1
   107          5
   108         22
   109          0
   110          8
   111         70
   112          6
   113          2
   119          2
   121          2
   123          1
   124          1
   125          5
   126        177
   127         14
   128          0