##TITLE=Library Entry 85920
##JCAMP-DX=Revision 4.10 
##DATA TYPE=MASS SPECTRUM
##SAMPLE DESCRIPTION=Japan AIST/NIMC Database- Spectrum MS-NW-8726
##NAMES=HP
##CAS NAME=Cyclohexanol, 3,3,5-trimethyl-, cis-
##MOLFORM=C9H18O
##CAS REGISTRY NO=933-48-2
##MP= -300
##BP= -300
##MW= 142
##$RETENTION INDEX=0
##$CONDENSED SPECTRUM=NO
##NPOINTS= 74
##XYDATA=(XY..XY) 1 
    15          7
    17          2
    18          7
    26          1
    27         68
    28         16
    29        104
    30          2
    31         15
    38          2
    39         81
    40         14
    41        265
    42         28
    43        195
    44        108
    45         40
    46          1
    50          2
    51          8
    52          3
    53         36
    54          8
    55        242
    56        215
    57        223
    58         28
    59         31
    60          1
    63          2
    65          9
    66          5
    67        205
    68        137
    69        159
    70         22
    71        257
    72         13
    73          4
    77          9
    78          1
    79         12
    80         20
    81        108
    82        110
    83        582
    84         45
    85        257
    86         21
    87          9
    91          6
    93          6
    94          4
    95         63
    96         42
    97         13
    98          7
    99          4
   100          3
   101          1
   107          8
   108          4
   109        999
   110         87
   111          8
   123         11
   124         97
   125         24
   126          2
   127         14
   128          1
   140          1
   141          6
   142          1