##TITLE=Library Entry 50156
##JCAMP-DX=Revision 4.10 
##DATA TYPE=MASS SPECTRUM
##SAMPLE DESCRIPTION=NIST Mass Spectrometry Data Center, 1990.
##NAMES=HP
##CAS NAME=1-Methylcyclooctene
##MOLFORM=C9H16
##CAS REGISTRY NO=933-11-9
##MP= -300
##BP= -300
##MW= 124
##$RETENTION INDEX=978
##$CONDENSED SPECTRUM=NO
##NPOINTS= 39
##XYDATA=(XY..XY) 1 
    15         13
    26         23
    27        181
    28         78
    29        107
    39        440
    40         97
    41        511
    42         78
    43         28
    50         42
    51         99
    52         54
    53        300
    54        228
    55        398
    56        178
    57         53
    62         12
    63         28
    65        107
    67        970
    68        459
    69        229
    70         65
    77        131
    78         35
    79        254
    81        999
    82        354
    83         40
    91         53
    93         35
    95        255
    96        706
    97         53
   109        113
   124        284
   125         24