##TITLE=Library Entry 33474
##JCAMP-DX=Revision 4.10 
##DATA TYPE=MASS SPECTRUM
##SAMPLE DESCRIPTION=NIST Mass Spectrometry Data Center, 1990.
##NAMES=HP
##CAS NAME=Cyclohexene, 3,5,5-trimethyl-
##MOLFORM=C9H16
##CAS REGISTRY NO=933-12-0
##MP= -300
##BP= -300
##MW= 124
##$RETENTION INDEX=1182
##$CONDENSED SPECTRUM=NO
##NPOINTS= 55
##XYDATA=(XY..XY) 1 
    14         10
    15         17
    26         10
    27         94
    28         13
    29         54
    37          5
    39        278
    40         73
    41        311
    42         35
    43         42
    44          7
    45          4
    46          2
    50         29
    51         81
    52         39
    53        192
    54         29
    55        157
    56         64
    57         12
    62         10
    63         36
    64          9
    65        109
    66          9
    67        845
    68        999
    69        188
    70         12
    74          5
    75          4
    77        167
    78         48
    79        148
    80         38
    81        209
    82         95
    83         46
    89          6
    91        127
    92         19
    93         46
    94         19
    95         72
    96         37
   103          5
   105         14
   107         19
   109        602
   110         52
   124        210
   125         19