##TITLE=Library Entry 83357
##JCAMP-DX=Revision 4.10 
##DATA TYPE=MASS SPECTRUM
##SAMPLE DESCRIPTION=NIST Mass Spectrometry Data Center, 1994
##NAMES=HP
##CAS NAME=4,5-Dichloro-2-methylpyridazin-3-one
##MOLFORM=C5H4Cl2N2O
##CAS REGISTRY NO=933-76-6
##MP= -300
##BP= -300
##MW= 178
##$RETENTION INDEX=0
##$CONDENSED SPECTRUM=NO
##NPOINTS= 107
##XYDATA=(XY..XY) 1 
    12         24
    13         30
    14         89
    15        721
    16          4
    18          8
    24         54
    25         46
    26         19
    27         75
    28        441
    29          4
    30         47
    35         91
    36        110
    37        467
    38         70
    39         16
    40         15
    41          1
    42         47
    43        824
    44         21
    47        125
    48         14
    49         56
    50        109
    51        187
    52         83
    53         35
    54         14
    55         16
    56         41
    57          5
    58         17
    59         47
    60         48
    61         68
    62         36
    63         29
    64         15
    65         38
    71         72
    72        513
    73         60
    74        153
    75         15
    76         17
    77          7
    78         28
    79         12
    80         30
    82         17
    84         13
    85         93
    86        102
    87        218
    88        111
    89         80
    90         28
    91          6
    94        118
    95         16
    96         79
    97         13
    98         15
    99          6
   100         48
   101          4
   102         16
   107        999
   108         66
   109        669
   110         36
   111        114
   112          6
   113          6
   114         28
   115        130
   116         98
   117         46
   118         31
   120         22
   121         12
   122         29
   123         43
   124         16
   125         20
   135         68
   136         15
   137         42
   138          8
   139          7
   143         79
   145         25
   150        710
   151        136
   152        473
   153         79
   154         63
   155         10
   178        686
   179         55
   180        414
   181         30
   182         70
   183          4