##TITLE=Library Entry 100334
##JCAMP-DX=Revision 4.10 
##DATA TYPE=MASS SPECTRUM
##SAMPLE DESCRIPTION=Exported from NIST MS Search
##NAMES=HP
##CAS NAME=Benzene, 1-ethyl-2,3-dimethyl-
##MOLFORM=C10H14
##CAS REGISTRY NO=933-98-2
##MP= -300
##BP= -300
##MW= 134
##$RETENTION INDEX=1094
##$CONDENSED SPECTRUM=NO
##NPOINTS= 96
##XYDATA=(XY..XY) 1 
     1          2
     2          4
    12          1
    13          1
    14          1
    15         27
    16          1
    23          1
    25          1
    26          5
    27         70
    28          8
    29         13
    30          1
    37          1
    38          7
    39         94
    40         11
    41         65
    42          3
    43          1
    44          1
    45          1
    46          1
    49          1
    50         16
    51         59
    52         20
    53         35
    54          2
    55          5
    56          1
    57          5
    58         11
    59          3
    60          1
    61          1
    62          7
    63         31
    64         23
    65         65
    66         25
    67          5
    68          1
    73          1
    74          4
    75          8
    76          6
    77         90
    78         32
    79         33
    80          3
    81          1
    82          1
    84          1
    85          1
    86          1
    87          2
    88          2
    89         13
    90          6
    91        133
    92         15
    93         13
    94          1
    97          1
    98          1
    99          1
   100          1
   101          2
   102         12
   103         40
   104         28
   105        113
   106         37
   107         14
   113          3
   114          7
   115         60
   116         30
   117         66
   118         25
   119        999
   120         91
   121          5
   126          1
   127          3
   128          6
   129          3
   130          1
   131          6
   132          2
   133         18
   134        328
   135         33
   136          2