##TITLE=Library Entry 64688
##JCAMP-DX=Revision 4.10 
##DATA TYPE=MASS SPECTRUM
##SAMPLE DESCRIPTION=LAC, NIDDK, NIH, Bethesda, MD 20892
##NAMES=HP
##CAS NAME=N-4-toluenesulfonyl-4-hydroxy-5-bromopipecolic acid
##MOLFORM=C13H16BrNO5S
##CAS REGISTRY NO=93307-14-3
##MP= -300
##BP= -300
##MW= 377
##$RETENTION INDEX=0
##$CONDENSED SPECTRUM=NO
##NPOINTS= 216
##XYDATA=(XY..XY) 1 
    41         78
    42         51
    43         83
    44         78
    45         33
    46          2
    47          4
    48          7
    49         30
    50         22
    51         55
    52         23
    53         68
    54         99
    55        256
    56         88
    57         23
    58         11
    59          1
    60          2
    61          4
    62         12
    63         55
    64         21
    65        249
    66         14
    67         12
    68         39
    69         25
    70         26
    71         23
    72         10
    73          5
    74          5
    75          5
    76          5
    77         44
    78         34
    79         32
    80        159
    81         35
    82         33
    83          5
    84         25
    85          5
    86         15
    87          3
    88          5
    89         81
    90         52
    91        999
    92        160
    93         12
    94          2
    95          6
    96         13
    97          6
    98         67
    99          7
   100          7
   101          0
   102          3
   103          1
   104          2
   105         34
   106         37
   107         45
   108         46
   109          8
   110          1
   111          5
   112          1
   113          0
   114          4
   115          3
   116          8
   117          4
   118          7
   119          3
   120          2
   121          7
   122          9
   123          7
   124         30
   125          5
   126         11
   127          1
   128          1
   129          1
   130          4
   131          0
   132         15
   133         50
   134         13
   135         41
   136          3
   137          2
   138          1
   139         61
   140          9
   141          5
   142          8
   143          2
   144          5
   145          1
   146          4
   147          0
   148          1
   149          4
   150          2
   151          1
   152          0
   155        570
   156         41
   157         36
   158          8
   160         41
   161          3
   162         34
   163          1
   164          0
   166          1
   167          0
   168          0
   169          2
   170          7
   171         10
   172          3
   173          8
   174          0
   175          0
   176          7
   177         26
   178        132
   179         32
   180        121
   181          6
   182          0
   184          6
   185          1
   186          3
   187          0
   188          2
   189          0
   192          2
   194          2
   196          0
   197          1
   198          2
   199          1
   204          3
   206          2
   210         12
   211          0
   212          1
   213          1
   220          0
   222          6
   224          6
   226          7
   227          0
   228          0
   231          0
   233          1
   234         10
   235         12
   236        352
   237         51
   238         19
   239          4
   241          2
   243          1
   250          0
   251          1
   252         48
   253         13
   254         23
   255          3
   256          1
   267          0
   268          1
   270          2
   279          1
   280        132
   281         20
   282          8
   283          0
   288          9
   289          1
   290          3
   294          5
   295          0
   296          0
   297          5
   298          0
   312          0
   314         46
   315          7
   316         47
   317          6
   318          3
   332        695
   333        107
   334        682
   335         99
   336         39
   337          4
   338          0
   359          5
   360          0
   361          4
   362          0
   377          4
   379          4
   380          0
   381          0