##TITLE=Library Entry 11347
##JCAMP-DX=Revision 4.10 
##DATA TYPE=MASS SPECTRUM
##SAMPLE DESCRIPTION=Institute of Organic Chemistry, Novosibirsk, USSR 1988
##NAMES=HP
##CAS NAME=Methyl 3,4,6-tri-O-acetyl-2-deoxy-2-(N-methylacetamido)-.alpha.-d
-glucopyranoside
##MOLFORM=C16H25NO9
##CAS REGISTRY NO=93303-54-9
##MP= -300
##BP= -300
##MW= 375
##$RETENTION INDEX=0
##$CONDENSED SPECTRUM=NO
##NPOINTS= 73
##XYDATA=(XY..XY) 1 
    41         46
    42        189
    43        999
    44        119
    45         72
    54          4
    55         46
    56         83
    57         36
    58         46
    60         15
    61         30
    68         41
    69         41
    70         83
    71         36
    72        119
    73        419
    74        104
    82         41
    83         20
    84         57
    85         41
    86        109
    87        119
    88         36
    94         78
    96         51
    97         62
    98        659
    99         83
   100         36
   102         83
   103         25
   110        109
   111         72
   112        289
   115        999
   116        129
   122         46
   126         36
   127         36
   128        389
   129         99
   130         30
   139         20
   140        119
   144         57
   152         46
   153         41
   154        239
   158         41
   170        229
   171         14
   172         57
   182         88
   196         25
   200         30
   212         15
   213         41
   214         52
   224         25
   242        179
   255         36
   256        109
   262          8
   284         36
   302         94
   315          5
   316          5
   322         15
   344          9
   376         14