##TITLE=Library Entry 5566
##JCAMP-DX=Revision 4.10 
##DATA TYPE=MASS SPECTRUM
##SAMPLE DESCRIPTION=H.J. MOECKEL & J. WEISS, HAHN-MEITNER-INST. BERLIN, W.
 G
##NAMES=HP
##CAS NAME=n-Pentyl n-hexyl disulfide
##MOLFORM=C11H24S2
##CAS REGISTRY NO=93305-73-8
##MP= -300
##BP= -300
##MW= 220
##$RETENTION INDEX=1836
##$CONDENSED SPECTRUM=NO
##NPOINTS= 103
##XYDATA=(XY..XY) 1 
    15          8
    19          0
    25          0
    26          8
    27        179
    29        335
    30         37
    33          1
    35          5
    37          0
    38          3
    39         84
    40         13
    41        310
    42         80
    43        999
    44        106
    45         51
    46         25
    47         38
    48          4
    49          1
    50          0
    51          2
    52          1
    53         13
    54          6
    55        102
    56         21
    57         82
    58         14
    59         22
    60         19
    61         19
    62          1
    63          1
    64          8
    65          4
    66          4
    67         19
    68          7
    69         49
    70         22
    71        215
    72         13
    73         13
    74          9
    75          2
    76          0
    77          0
    78          3
    79         24
    80          1
    81         12
    82          8
    83         14
    84         12
    85        152
    86         12
    87         22
    88          4
    89          2
    90          0
    91          0
    92          0
    93          3
    94          0
    95          0
    99          0
   100          0
   101         14
   102         12
   103         42
   104          3
   105          1
   106          0
   107          1
   115          6
   116          5
   117         42
   118          3
   119          1
   120          0
   121          1
   135          4
   136         78
   137          7
   138          7
   139          0
   140          0
   149          2
   150         49
   151          4
   152          4
   153          0
   187          0
   191          0
   219          4
   220         83
   221         14
   222          8
   223          1
   224          0