##TITLE=Library Entry 82019
##JCAMP-DX=Revision 4.10 
##DATA TYPE=MASS SPECTRUM
##SAMPLE DESCRIPTION=Japan AIST/NIMC Database- Spectrum MS-IW-5696
##NAMES=HP
##CAS NAME=1-Benzoyl-2-phenyl-3-pyrrolidinone
##MOLFORM=C17H15NO2
##CAS REGISTRY NO=93316-04-2
##MP= -300
##BP= -300
##MW= 265
##$RETENTION INDEX=0
##$CONDENSED SPECTRUM=NO
##NPOINTS= 71
##XYDATA=(XY..XY) 1 
    27          7
    28          9
    38          1
    39          5
    41          2
    50          9
    51         50
    52          4
    53          1
    54          1
    55          3
    56          1
    57          1
    62          1
    63          5
    64          1
    65          7
    74          2
    75          3
    76         12
    77        310
    78         26
    79          4
    89          8
    90          8
    91         43
    92          3
   102          1
   103         10
   104         37
   105        999
   106         82
   107          5
   115          2
   116          9
   117         21
   118        105
   119          9
   120          1
   122          5
   130          6
   131          6
   132         65
   133         10
   134          2
   146         12
   147          1
   152          2
   153          1
   158          2
   159          1
   160         11
   161          1
   165          1
   179          1
   180          2
   181          2
   208          9
   209          6
   210          5
   220          1
   222          4
   223          1
   236        186
   237        206
   238         33
   239          3
   264          2
   265        381
   266         73
   267          8