##TITLE=Library Entry 84145
##JCAMP-DX=Revision 4.10 
##DATA TYPE=MASS SPECTRUM
##SAMPLE DESCRIPTION=Chemical Concepts
##NAMES=HP
##CAS NAME=(4-Methoxy-phenyl)-naphthalen-2-yl-diazene
##MOLFORM=C17H14N2O
##CAS REGISTRY NO=93323-36-5
##MP= -300
##BP= -300
##MW= 262
##$RETENTION INDEX=0
##$CONDENSED SPECTRUM=NO
##NPOINTS= 159
##XYDATA=(XY..XY) 1 
    26          2
    27          7
    28         17
    29          4
    37          2
    38          8
    39         17
    40          2
    41          7
    42          2
    43          8
    49          0
    50         18
    51         37
    52         11
    53          7
    54          1
    55          6
    56          3
    57         10
    58          1
    59          0
    60          3
    61          1
    62          8
    63         40
    64         71
    65         10
    66          1
    67          2
    68          1
    69          5
    70          2
    71          5
    73          1
    74         10
    75         26
    76         23
    77        330
    78         32
    79         19
    80          5
    81          2
    82          2
    83          4
    84          1
    85          4
    86          2
    87          6
    88          5
    89          4
    90          2
    91          3
    92        148
    93         11
    94          2
    95          3
    96          2
    97          4
    98          2
    99          2
   100          3
   101         34
   102          5
   103          1
   104          1
   105          1
   106          4
   107        999
   108         80
   109          6
   110          2
   111          2
   112          1
   113          6
   114          6
   115          9
   116          1
   117          0
   121          2
   122          1
   123          2
   124          1
   125          4
   126         56
   127        745
   128         97
   129          6
   131         64
   135        590
   136         46
   137          3
   138          0
   139          2
   140         11
   141          7
   142          2
   143          5
   144          1
   152          4
   153          1
   154          0
   155         41
   156          5
   157          0
   158          0
   159          0
   160          0
   161          0
   162          0
   163          1
   164          1
   165         11
   166          1
   167          0
   168          0
   169          0
   170          1
   171          0
   172          0
   173          0
   174          0
   175          0
   176          1
   177          0
   178          1
   179          0
   180          0
   181          0
   182          0
   183          0
   184          0
   185          0
   186          0
   187          0
   188          1
   189         29
   190         17
   191         25
   192          4
   193          0
   194          0
   195          0
   196          0
   197          0
   199          0
   200          1
   201          2
   202          6
   203          3
   218          4
   219         10
   220          2
   234          6
   235          1
   261          1
   262        510
   263         97
   265          7