##TITLE=Library Entry 97724
##JCAMP-DX=Revision 4.10 
##DATA TYPE=MASS SPECTRUM
##SAMPLE DESCRIPTION=Japan AIST/NIMC Database- Spectrum MS-IW-5221
##NAMES=HP
##CAS NAME=4-Isopropylbenzyl 3,5-dinitrobenzoate
##MOLFORM=C17H16N2O6
##CAS REGISTRY NO=93332-05-9
##MP= -300
##BP= -300
##MW= 344
##$RETENTION INDEX=0
##$CONDENSED SPECTRUM=NO
##NPOINTS= 143
##XYDATA=(XY..XY) 1 
    27          9
    28         14
    29          4
    30          9
    38          1
    39         16
    40          2
    41         39
    42          2
    43         53
    44          9
    50          4
    51         11
    52          3
    53          7
    54          1
    55         10
    56          1
    57          4
    58          1
    62          3
    63         15
    64          6
    65         18
    66          3
    67          2
    69          2
    71          3
    74         15
    75        108
    76         12
    77         39
    78         13
    79         45
    80          3
    81          1
    83          2
    85          2
    89         17
    90          9
    91        171
    92         20
    93         11
    94          1
    95          1
    97          2
   101          2
   102          8
   103         58
   104         23
   105        120
   106         11
   107         30
   108          3
   109          1
   111          8
   112          1
   113          1
   114          1
   115        103
   116         40
   117        999
   118        218
   119        117
   120         13
   121          6
   125          2
   126          3
   127          3
   128          6
   129          9
   130          3
   131         73
   132        316
   133        298
   134         37
   135         11
   136          2
   137          3
   139          1
   141         11
   142          2
   145          1
   146          1
   147          6
   148         15
   149        113
   150         17
   151          3
   152          2
   153          1
   156          3
   158          1
   163          1
   164          1
   165         12
   166         14
   167          3
   172          2
   177          2
   178          4
   179         22
   180          4
   181          8
   182          1
   191          2
   192          2
   193          2
   195        582
   196         63
   197          9
   198          1
   209          1
   237          3
   238          1
   239          1
   253          2
   283          7
   284          1
   285          3
   297          3
   298          2
   299          1
   301        261
   302         43
   303          6
   304          1
   311          1
   313          9
   314          6
   315         10
   316          2
   327         41
   328         11
   329        463
   330         89
   331         13
   332          1
   342          1
   343          4
   344        185
   345         35
   346          5