##TITLE=Library Entry 69444
##JCAMP-DX=Revision 4.10 
##DATA TYPE=MASS SPECTRUM
##SAMPLE DESCRIPTION=A.A.Kutin, Moscow, Russia
##NAMES=HP
##CAS NAME=Thiourea, 1-(2-furfuryl)-3-phenyl-1-(2-thienylmethyl)-
##MOLFORM=C17H16N2OS2
##CAS REGISTRY NO=93331-21-6
##MP= -300
##BP= -300
##MW= 328
##$RETENTION INDEX=0
##$CONDENSED SPECTRUM=NO
##NPOINTS= 189
##XYDATA=(XY..XY) 1 
    33          4
    34          4
    35          1
    36          9
    37         37
    38         74
    39        227
    41         95
    42         19
    43         34
    45        323
    47         30
    50        158
    51        331
    52        100
    53        493
    54         35
    55         21
    56          6
    57         27
    58         38
    59         12
    60         10
    61         11
    62         20
    63         54
    64         44
    65         66
    66         23
    67         49
    69        117
    70         44
    71         31
    72         11
    73          9
    74         28
    75         28
    77        627
    78         63
    79         11
    81        718
    82         60
    83         27
    85        207
    87         20
    88          2
    89          3
    90         10
    91         37
    92         22
    93         38
    94         26
    96        999
    97        800
    98         68
    99         37
   100          6
   101          3
   102          3
   103          9
   104         15
   105          3
   106          9
   107          5
   108         28
   109        143
   110         37
   112        776
   113         57
   114         34
   115         12
   116          2
   117          3
   118          8
   119         20
   120          3
   121          5
   122          6
   124         28
   125         58
   126         13
   127         13
   129         43
   130          5
   131         14
   132          2
   135        374
   136        140
   137         27
   138         25
   139          3
   140          1
   141          0
   142          1
   143          2
   144          1
   145          0
   146          0
   147          1
   148          1
   149          1
   150          1
   151          2
   152          1
   154         26
   155          2
   156          2
   157          1
   158          0
   159          0
   160          2
   161          2
   162          1
   163          4
   164          2
   165          0
   166          0
   167          0
   168          0
   169          1
   170          1
   171          1
   172          2
   173          1
   174          0
   175          1
   176          0
   177          0
   178          0
   179          0
   180          0
   181          0
   182          0
   184          0
   185          0
   186          2
   187          0
   188          3
   189          0
   190          0
   191          1
   192          4
   193         10
   194          1
   195          1
   196          0
   197          2
   198          0
   199          1
   200          0
   201          1
   202          1
   203          1
   204          0
   205          0
   210          0
   213          5
   214          1
   215          1
   216          0
   217          0
   218          2
   219          0
   220          0
   221          1
   224          0
   228          0
   229          2
   231        174
   232         22
   233          9
   234          1
   245          2
   247         82
   248         12
   249          7
   250          1
   251          0
   295          0
   296          0
   304          0
   324          0
   325          0
   326          1
   328        116
   329         24
   330         12
   331          2
   332          0