##TITLE=Library Entry 4512
##JCAMP-DX=Revision 4.10 
##DATA TYPE=MASS SPECTRUM
##SAMPLE DESCRIPTION=Chemical Concepts
##NAMES=HP
##CAS NAME=5-(2,5-Dimethoxybenzylidene)barbituric acid
##MOLFORM=C13H12N2O5
##CAS REGISTRY NO=93338-08-0
##MP= -300
##BP= -300
##MW= 276
##$RETENTION INDEX=0
##$CONDENSED SPECTRUM=NO
##NPOINTS= 110
##XYDATA=(XY..XY) 1 
    34         66
    36         20
    37         52
    38        104
    39        214
    40        168
    41        303
    42        999
    43        258
    44         64
    45         35
    48         32
    49         24
    50        112
    51         89
    52         73
    53        108
    54         73
    55         77
    56         28
    57         54
    58         16
    59         15
    60         16
    61         27
    62         67
    63         98
    64         68
    65        107
    66         27
    67         22
    68         34
    69         97
    70         79
    71         30
    72         13
    73         19
    74         49
    75         62
    76         84
    77         76
    78         30
    79         37
    80         72
    82         43
    83         36
    84         21
    85         82
    86         33
    87         34
    88         25
    89         42
    90         23
    91         54
    92         26
    93         30
    94         13
    95         15
    98         15
    99         15
   100         28
   101         19
   102         26
   103         26
   104         18
   105         21
   107         34
   108         73
   109         27
   111         11
   115         30
   117         49
   118         45
   119         89
   121         35
   123         17
   126         14
   128        271
   130         15
   131         22
   132         16
   133         13
   134         15
   137         16
   146         18
   147         37
   149         26
   152         11
   158         18
   159         13
   161         16
   162         28
   166         99
   171         28
   173         13
   175        131
   176         12
   190         20
   199         17
   200         52
   202        191
   203         26
   216         13
   243         18
   245        286
   246         31
   247         15
   248         42
   276        115
   277         11