##TITLE=Library Entry 91161
##JCAMP-DX=Revision 4.10 
##DATA TYPE=MASS SPECTRUM
##SAMPLE DESCRIPTION=NIST Mass Spectrometry Data Center
##NAMES=HP
##CAS NAME=3,5-Difluoroanisole
##MOLFORM=C7H6F2O
##CAS REGISTRY NO=93343-10-3
##MP= -300
##BP= -300
##MW= 144
##$RETENTION INDEX=0
##$CONDENSED SPECTRUM=NO
##NPOINTS= 88
##XYDATA=(XY..XY) 1 
    15         17
    26          1
    27          1
    29         16
    30          2
    31         38
    33          1
    36          1
    37         14
    38         17
    39         13
    41          1
    43          2
    44          7
    45          4
    49          7
    50         61
    51         85
    52          3
    53          3
    55          4
    56         27
    57         78
    58          2
    59          1
    60          3
    61         33
    62         46
    63        195
    64         13
    65          4
    66          4
    68         29
    69         19
    70         12
    71          6
    72          5
    73         11
    74         27
    75         99
    76          4
    77          9
    79          6
    80         12
    81         81
    82         34
    83          6
    86          2
    87          8
    88         50
    89          6
    90          1
    91          4
    92         12
    93         25
    94         27
    95         68
    96         18
    97          9
    98          1
    99         30
   100         33
   101        505
   102         28
   103          1
   109          1
   110         12
   111          2
   112         10
   113        160
   114        999
   115        274
   116         15
   117          1
   123         23
   124          1
   125          4
   126          5
   127          5
   128         24
   129         40
   130          4
   141          3
   142          1
   143         35
   144        859
   145         64
   146          3