##TITLE=Library Entry 21156
##JCAMP-DX=Revision 4.10 
##DATA TYPE=MASS SPECTRUM
##SAMPLE DESCRIPTION=Chemical Concepts
##NAMES=HP
##CAS NAME=1H-Imidazole, 1-(cyclohexylacetyl)-
##MOLFORM=C11H16N2O
##CAS REGISTRY NO=93383-50-7
##MP= -300
##BP= -300
##MW= 192
##$RETENTION INDEX=0
##$CONDENSED SPECTRUM=NO
##NPOINTS= 51
##XYDATA=(XY..XY) 1 
    26          8
    27         79
    28         39
    29         71
    39        113
    40         95
    41        283
    42         35
    43         50
    51         13
    52         11
    53         69
    54         56
    55        999
    56         43
    57          9
    60         14
    61          8
    65         14
    66         10
    67         84
    68        152
    69        700
    70         30
    77         17
    78          9
    79         30
    80        108
    81        150
    82         57
    83        266
    84         19
    95         37
    96          9
    97        920
    98         65
   107          5
   110         58
   111         60
   121         11
   124         32
   125        750
   126         61
   149         33
   150          5
   163         37
   164        126
   165         32
   191          5
   192        111
   193         16