##TITLE=Library Entry 40512
##JCAMP-DX=Revision 4.10 
##DATA TYPE=MASS SPECTRUM
##SAMPLE DESCRIPTION=Chemical Concepts
##NAMES=HP
##CAS NAME=Acetamide, N-(2-hydroxy-3-pentenyl)-
##MOLFORM=C7H13NO2
##CAS REGISTRY NO=93393-95-4
##MP= -300
##BP= -300
##MW= 143
##$RETENTION INDEX=0
##$CONDENSED SPECTRUM=NO
##NPOINTS= 62
##XYDATA=(XY..XY) 1 
    26          6
    27         58
    29         24
    30        692
    31        158
    35          2
    37          2
    38          6
    39         60
    40         10
    41        100
    42         34
    43        382
    44         18
    45        121
    46          4
    47          8
    48          4
    49          2
    50          3
    51          8
    52          4
    53         52
    54         14
    55         72
    56         15
    57         13
    58         49
    59         10
    60         86
    61          3
    65          5
    66          5
    67         16
    68         10
    69         47
    70         11
    71        168
    72         89
    73        999
    74         47
    75          3
    80          4
    81          3
    82         29
    83         35
    84         43
    85         22
    86          5
    87          4
    91          2
    97          2
    98          3
    99          2
   100          5
   101          4
   102          2
   125          9
   126         32
   127          3
   143          3
   144         10