##TITLE=Library Entry 5619
##JCAMP-DX=Revision 4.10 
##DATA TYPE=MASS SPECTRUM
##SAMPLE DESCRIPTION=Chemical Concepts
##NAMES=HP
##CAS NAME=N-(2,7-Dioxooctyl)acetamide
##MOLFORM=C10H17NO3
##CAS REGISTRY NO=93393-94-3
##MP= -300
##BP= -300
##MW= 199
##$RETENTION INDEX=0
##$CONDENSED SPECTRUM=NO
##NPOINTS= 106
##XYDATA=(XY..XY) 1 
    26          6
    27         37
    28         20
    29         33
    30        679
    31         42
    38          2
    39         30
    40          7
    41         64
    42         34
    43        999
    44         31
    45         35
    51          4
    52          3
    53         12
    54          8
    55         54
    56         19
    57         26
    58         41
    59          8
    60         14
    61          2
    65          3
    66          2
    67         13
    68         14
    69         20
    70          8
    71         48
    72        279
    73        469
    74         36
    75          3
    77          4
    78          2
    79          8
    80          4
    81        481
    82         40
    83         19
    84         14
    85         31
    86         28
    87          8
    91          4
    92          2
    93          3
    94          4
    95          7
    96          9
    97         17
    98         11
    99         72
   100         33
   101         12
   105          3
   107          2
   109        104
   110         11
   111          7
   112          4
   113          2
   114         22
   115         15
   116          6
   121          2
   122          3
   123          5
   124          9
   125          4
   126          3
   127        445
   128         57
   129          9
   137          2
   138          7
   139          5
   140          6
   141          8
   142         26
   143          3
   149         16
   150          2
   151          1
   152          1
   153          2
   154          1
   155          3
   156          5
   157          4
   165          2
   166          2
   167          1
   168          1
   179          1
   180          1
   181         10
   182          2
   183          1
   184          1
   199         19
   200          4
   201          1