##TITLE=Library Entry 1241
##JCAMP-DX=Revision 4.10 
##DATA TYPE=MASS SPECTRUM
##SAMPLE DESCRIPTION=Chemical Concepts
##NAMES=HP
##CAS NAME=N-(2-Oxo-3-phenylpropyl)acetamide
##MOLFORM=C11H13NO2
##CAS REGISTRY NO=93393-91-0
##MP= -300
##BP= -300
##MW= 191
##$RETENTION INDEX=0
##$CONDENSED SPECTRUM=NO
##NPOINTS= 100
##XYDATA=(XY..XY) 1 
    26          3
    27         12
    28         26
    29         13
    30        999
    31         29
    37          2
    38         11
    39         94
    40          8
    41         26
    42         23
    43        420
    44         10
    45         21
    46          0
    49          1
    50         19
    51         44
    52         13
    53          4
    54          3
    55          6
    56          2
    57          6
    58          5
    59          0
    60          1
    61          3
    62         16
    63         54
    64         17
    65        185
    66         10
    67          1
    68          0
    69          3
    70          1
    71          4
    72        382
    73        226
    74          9
    75          4
    76          4
    77         15
    78          5
    79          4
    80          0
    81          1
    82          1
    83          2
    84          1
    85          2
    86          3
    87          3
    88          2
    89         43
    90         29
    91        517
    92         48
    93          3
    94          9
    95          1
    96          1
    97          1
    98          1
    99          2
   100        437
   101         23
   102          4
   103          7
   104         42
   105          8
   106          2
   107          0
   115          3
   116          1
   117          1
   118         10
   119          2
   120          2
   121          1
   130          4
   131          3
   132          4
   133          1
   134          1
   145          0
   146          1
   147          0
   148          2
   149         33
   150          5
   151          1
   152          1
   153          0
   173          3
   191         79
   192         22
   193          2