##TITLE=Library Entry 91275
##JCAMP-DX=Revision 4.10 
##DATA TYPE=MASS SPECTRUM
##SAMPLE DESCRIPTION=Chemical Concepts
##NAMES=HP
##CAS NAME=Pentanoic acid, 5-(acetylamino)-4-oxo-, methyl ester
##MOLFORM=C8H13NO4
##CAS REGISTRY NO=93393-93-2
##MP= -300
##BP= -300
##MW= 187
##$RETENTION INDEX=0
##$CONDENSED SPECTRUM=NO
##NPOINTS= 82
##XYDATA=(XY..XY) 1 
    26         18
    27         79
    28         70
    29         47
    30        970
    31         50
    33          2
    38          2
    39         17
    40          8
    41         43
    42         77
    43        583
    44         23
    45         52
    51          2
    52          2
    53          5
    54         10
    55        321
    56         64
    57         54
    58         14
    59        164
    60         12
    61          2
    66          2
    67          3
    68         13
    69         10
    70          6
    71          7
    72        299
    73        175
    74         13
    75          2
    77          3
    78          2
    79          2
    81          3
    82          2
    83          8
    84         18
    85         11
    86        139
    87        115
    88         35
    89          2
    91          3
    95          3
    96         12
    97          7
    98          6
    99          3
   100          7
   101          3
   107         10
   109          3
   110          4
   111          2
   112          7
   113         36
   114        160
   115        999
   116         81
   117          9
   121          7
   127          5
   128        106
   129          8
   135         26
   136          3
   138          9
   140         21
   141          3
   145          3
   155         33
   156         91
   157          7
   169          1
   187         19
   188          6