##TITLE=Library Entry 65926
##JCAMP-DX=Revision 4.10 
##DATA TYPE=MASS SPECTRUM
##SAMPLE DESCRIPTION=Japan AIST/NIMC Database- Spectrum MS-NW-8677
##NAMES=HP
##CAS NAME=2-Pyridinecarboxylic acid, 6-methyl-
##MOLFORM=C7H7NO2
##CAS REGISTRY NO=934-60-1
##MP= -300
##BP= -300
##MW= 137
##$RETENTION INDEX=0
##$CONDENSED SPECTRUM=NO
##NPOINTS= 76
##XYDATA=(XY..XY) 1 
    14          2
    15         11
    16          7
    17          1
    18          3
    25          2
    26         18
    27         40
    28         33
    29          3
    30          1
    31          3
    36          2
    37         33
    38         65
    39        287
    40         61
    41         48
    42         25
    43          6
    44         69
    45         31
    46         13
    47          1
    48          1
    49         10
    50         60
    51         87
    52         64
    53         42
    54         19
    55          3
    57          1
    60          3
    61         13
    62         23
    63         77
    64        102
    65        458
    66        451
    67         60
    68          4
    69          1
    70          1
    73          1
    74          1
    75          7
    76         11
    77          9
    78         71
    79         10
    80          7
    81          3
    83          1
    86          1
    87          3
    88          3
    89          1
    90          9
    91         96
    92        375
    93        999
    94         72
    95          3
    96          1
   104          1
   107          1
   108          1
   109          1
   119          1
   120         11
   121          1
   136          2
   137         27
   138         10
   139          1