##TITLE=Library Entry 100351
##JCAMP-DX=Revision 4.10 
##DATA TYPE=MASS SPECTRUM
##SAMPLE DESCRIPTION=Exported from NIST MS Search
##NAMES=HP
##CAS NAME=Benzene, 1-ethyl-3,5-dimethyl-
##MOLFORM=C10H14
##CAS REGISTRY NO=934-74-7
##MP= -300
##BP= -300
##MW= 134
##$RETENTION INDEX=1058
##$CONDENSED SPECTRUM=NO
##NPOINTS= 73
##XYDATA=(XY..XY) 1 
    15          3
    26          1
    27         22
    28          2
    29          4
    37          1
    38          4
    39         43
    40          5
    41         36
    42          1
    43          1
    44          1
    45          1
    50         11
    51         35
    52         11
    53         19
    54          1
    55          4
    57          4
    58          9
    59          4
    60          1
    61          1
    62          6
    63         21
    64         18
    65         49
    66         22
    67          3
    73          1
    74          5
    75          5
    76          4
    77         63
    78         21
    79         26
    80          2
    86          1
    87          2
    88          1
    89          8
    90          2
    91         87
    92          9
    93         11
    95          1
    98          1
   101          1
   102          8
   103         34
   104         21
   105         84
   106          7
   107          4
   115         46
   116         15
   117         57
   118         16
   119        999
   120        103
   121          5
   127          2
   128          5
   129          3
   130          1
   131          7
   132          3
   133         35
   134        347
   135         38
   136          2