##TITLE=Library Entry 86987
##JCAMP-DX=Revision 4.10 
##DATA TYPE=MASS SPECTRUM
##SAMPLE DESCRIPTION=Japan AIST/NIMC Database- Spectrum MS-IW-1895
##NAMES=HP
##CAS NAME=Ethanethioic acid, S-phenyl ester
##MOLFORM=C8H8OS
##CAS REGISTRY NO=934-87-2
##MP= -300
##BP= -300
##MW= 152
##$RETENTION INDEX=0
##$CONDENSED SPECTRUM=NO
##NPOINTS= 68
##XYDATA=(XY..XY) 1 
    14          3
    15         23
    26          2
    27          4
    28         11
    32          4
    34          1
    37          5
    38         11
    39         69
    40          3
    41          1
    42          9
    43        723
    44         18
    45         32
    46          1
    47          2
    49          2
    50         27
    51         50
    52          4
    53          1
    54          3
    57          9
    58         11
    59          8
    60          2
    61          4
    62          8
    63         17
    64          3
    65        105
    66        104
    67          5
    69         53
    70          4
    71          6
    73          3
    74          9
    75          6
    76          4
    77         36
    78          8
    79          1
    81          8
    82         14
    83          7
    84         38
    85          2
    86          2
    91          2
    93          2
    95          1
   105          1
   106          1
   107          1
   108         19
   109        150
   110        999
   111         80
   112         46
   113          2
   121          1
   123          1
   152        128
   153         11
   154          6