##TITLE=Library Entry 100336
##JCAMP-DX=Revision 4.10 
##DATA TYPE=MASS SPECTRUM
##SAMPLE DESCRIPTION=Exported from NIST MS Search
##NAMES=HP
##CAS NAME=Benzene, 4-ethyl-1,2-dimethyl-
##MOLFORM=C10H14
##CAS REGISTRY NO=934-80-5
##MP= -300
##BP= -300
##MW= 134
##$RETENTION INDEX=1085
##$CONDENSED SPECTRUM=NO
##NPOINTS= 97
##XYDATA=(XY..XY) 1 
     1          2
     2          4
    12          1
    13          1
    14          1
    15         25
    16          1
    23          1
    24          1
    25          1
    26          5
    27         65
    28          7
    29         12
    30          1
    37          1
    38          6
    39         84
    40         10
    41         61
    42          2
    43          1
    44          1
    45          1
    46          1
    48          1
    49          1
    50         15
    51         54
    52         20
    53         33
    54          2
    55          5
    56          1
    57          4
    58         11
    59          3
    60          1
    61          1
    62          6
    63         29
    64         21
    65         61
    66         23
    67          6
    68          1
    73          1
    74          3
    75          7
    76          6
    77         82
    78         30
    79         30
    80          3
    81          1
    82          1
    84          1
    85          1
    86          1
    87          2
    88          1
    89         11
    90          6
    91        124
    92         14
    93         11
    94          1
    97          1
    98          1
    99          1
   100          2
   101          6
   102         12
   103         40
   104         28
   105         94
   106         21
   107         17
   113          3
   114          7
   115         54
   116         26
   117         63
   118         26
   119        999
   120         90
   121          4
   127          3
   128          6
   129          3
   130          1
   131          6
   132          4
   133         28
   134        333
   135         37
   136          2