##TITLE=Library Entry 29046
##JCAMP-DX=Revision 4.10 
##DATA TYPE=MASS SPECTRUM
##SAMPLE DESCRIPTION=AAFS Toxicology Section MS DB Committee, U. Alberta, Ca
nada
##NAMES=HP
##CAS NAME=Venlafaxine
##MOLFORM=C17H27NO2
##CAS REGISTRY NO=93413-44-6
##MP= -300
##BP= -300
##MW= 277
##$RETENTION INDEX=2069
##$CONDENSED SPECTRUM=NO
##NPOINTS= 108
##XYDATA=(XY..XY) 1 
    36          1
    37          1
    38          1
    39         12
    40          2
    41         29
    42         41
    43         22
    44         15
    45          9
    46          1
    50          1
    51          6
    52          2
    53          9
    55         39
    56          7
    58        999
    59         38
    60          1
    62          1
    63          5
    64          2
    65         23
    66          3
    67          4
    68          1
    69          5
    70          4
    71          1
    72          1
    73          1
    74          3
    75          1
    76          1
    77         32
    78         14
    79         19
    81         34
    82          3
    83          2
    84          1
    89         10
    91         74
    92         10
    93          3
    94          7
    95          1
    99          9
   100          1
   101          1
   102          6
   103         14
   104          6
   105         10
   106          3
   107          5
   108          3
   109          6
   110          1
   115         10
   116          3
   117          6
   119         71
   120         19
   121         53
   122          5
   123          1
   127          2
   128          5
   129          3
   130          3
   131          8
   132          9
   134        387
   135         47
   136          4
   137         10
   138          1
   144          5
   145          5
   146          8
   147         13
   148         22
   149          3
   150          1
   159          4
   160          3
   161          1
   162         21
   163         18
   164          2
   165          1
   174          1
   175          2
   176          2
   177          2
   178         26
   179         61
   180          8
   181          1
   201          1
   202          6
   203          1
   274          1
   276          1
   277          1
   278          1