##TITLE=Library Entry 96809
##JCAMP-DX=Revision 4.10 
##DATA TYPE=MASS SPECTRUM
##SAMPLE DESCRIPTION=ASES Database, Dalian Institute, P.R. China
##NAMES=HP
##CAS NAME=2-(4-Methyl-phenylthio)-indan
##MOLFORM=C16H16S
##CAS REGISTRY NO=93435-72-4
##MP= -300
##BP= -300
##MW= 240
##$RETENTION INDEX=0
##$CONDENSED SPECTRUM=NO
##NPOINTS= 19
##XYDATA=(XY..XY) 1 
    39        104
    43         43
    45         61
    63         61
    65         79
    77         70
    79         44
    89         60
    91        358
   115        664
   116        999
   117        150
   118        131
   123         62
   124        392
   125         43
   240        691
   241        123
   242         43