##TITLE=Library Entry 64000
##JCAMP-DX=Revision 4.10 
##DATA TYPE=MASS SPECTRUM
##SAMPLE DESCRIPTION=Japan AIST/NIMC Database- Spectrum MS-IW-5810
##NAMES=HP
##CAS NAME=4'-Methylazobenzene-3-carboxylic acid
##MOLFORM=C14H12N2O2
##CAS REGISTRY NO=93431-53-9
##MP= -300
##BP= -300
##MW= 240
##$RETENTION INDEX=0
##$CONDENSED SPECTRUM=NO
##NPOINTS= 102
##XYDATA=(XY..XY) 1 
    17         12
    18          2
    27          5
    28          8
    31          1
    37          1
    38          3
    39         46
    40          3
    41         13
    42          1
    43          2
    44          3
    45          3
    50         14
    51         27
    52          8
    53          4
    55          2
    57          3
    62          4
    63         20
    64          8
    65        227
    66         12
    67          1
    69          1
    71          2
    74          3
    75         11
    76         43
    77         15
    78          6
    79          3
    81          1
    83          1
    85          2
    87          1
    89         21
    90         14
    91        999
    92         88
    93         16
    94          1
    95          1
    97          2
    99          1
   102          1
   103          6
   104         45
   105          7
   106          7
   107          5
   109          1
   111          1
   115          3
   116          1
   118          1
   119        391
   120         33
   121        177
   122         13
   123          1
   125          1
   127          1
   128          2
   135          1
   137          2
   139          2
   141          2
   149         19
   150          2
   151          3
   152         22
   153          5
   155          1
   163          1
   164          1
   165         24
   166          9
   167         11
   168          3
   169          1
   179          1
   181          2
   182          1
   193          1
   194          1
   195          2
   196          6
   197          6
   198          1
   211          5
   212          2
   223          5
   224          5
   238          1
   239          3
   240        664
   241        108
   242         10
   243          1