##TITLE=Library Entry 14601
##JCAMP-DX=Revision 4.10 
##DATA TYPE=MASS SPECTRUM
##SAMPLE DESCRIPTION=H. Fales, LC, NHLBI, NIH, Bethesda, MD 20892
##NAMES=HP
##CAS NAME=Crinine acetate
##MOLFORM=C18H19NO4
##CAS REGISTRY NO=93452-26-7
##MP= -300
##BP= -300
##MW= 313
##$RETENTION INDEX=0
##$CONDENSED SPECTRUM=NO
##NPOINTS= 232
##XYDATA=(XY..XY) 1 
    42        326
    43        999
    44        375
    45         36
    47         38
    48         19
    49        256
    50         58
    51        221
    52         49
    53         83
    54         92
    55        141
    56        392
    57        201
    58         20
    60         21
    61          6
    62         35
    63        139
    64         53
    65        109
    66         30
    67         48
    68         41
    69         35
    70         65
    71         39
    72          7
    73          6
    74         30
    75         79
    76        135
    77        239
    78         70
    79         39
    80         53
    81         40
    82         61
    83        127
    84        248
    85         22
    86        107
    87         31
    88         46
    89        107
    90         45
    91         95
    92         28
    93         19
    94        116
    95         16
    96         33
    97         69
    98         22
    99         38
   100         12
   101         56
   102        116
   103        110
   104         47
   105         41
   106         21
   107          9
   108          2
   109          3
   110          9
   111         42
   112         70
   113         60
   114         58
   115        344
   116         82
   117         47
   118         31
   119         26
   120          9
   121          6
   122          5
   123          2
   124          3
   126         83
   127        220
   128        345
   129        226
   130         83
   131         61
   132         43
   133          8
   134          6
   135         70
   136         15
   137          8
   138         16
   139        183
   140        101
   141        149
   142         47
   143         76
   144         31
   145         21
   146          7
   147         13
   148         12
   149         13
   150         10
   151         43
   152        184
   153        137
   154         75
   155         69
   156         43
   157        164
   158         39
   159         93
   160        118
   161         54
   162         16
   163         10
   164         18
   165        117
   166        147
   167        182
   168        109
   169         73
   170         27
   171         45
   172        110
   173        138
   174         83
   175         61
   176         17
   177         12
   178         13
   179         14
   180         31
   181        250
   182         54
   183         29
   184         17
   185        146
   186         89
   187        409
   188        111
   189         32
   190         12
   191          9
   192          9
   193         22
   194         60
   195         96
   196         47
   197         66
   198        332
   199        234
   200        133
   201        292
   202         81
   203         24
   204          9
   205          5
   206          2
   207          8
   208          6
   209         49
   210         50
   211        212
   212        140
   213         54
   214         91
   215        161
   216        654
   217        103
   218         14
   219          3
   220          2
   222         16
   223         60
   224        352
   225        214
   226        142
   227         79
   228        141
   229         47
   230         15
   231         13
   232          4
   236          4
   237         11
   238         44
   239         18
   240         46
   241         31
   242         59
   243         17
   244         12
   245          9
   246         42
   247          6
   250         12
   251          2
   252        443
   253        250
   254        755
   255        135
   256         25
   257          7
   258         12
   259          3
   268         14
   269         10
   270        260
   271         59
   272         30
   273          5
   282         13
   283         10
   284         84
   285         45
   286         35
   287          7
   288          2
   298         10
   299          3
   300         15
   301          6
   302          2
   312         42
   313        940
   314        210
   315         32
   316          5