##TITLE=Library Entry 64310
##JCAMP-DX=Revision 4.10 
##DATA TYPE=MASS SPECTRUM
##SAMPLE DESCRIPTION=Japan AIST/NIMC Database- Spectrum MS-IW-5849
##NAMES=HP
##CAS NAME=p-Toluenesulfonamide, N-(4-methyl-.delta.2-1,3,4-thiadiazolin-5-y
lidene)-
##MOLFORM=C10H11N3O2S2
##CAS REGISTRY NO=93485-36-0
##MP= -300
##BP= -300
##MW= 269
##$RETENTION INDEX=0
##$CONDENSED SPECTRUM=NO
##NPOINTS= 167
##XYDATA=(XY..XY) 1 
    15         13
    26          5
    27         39
    28         68
    29          8
    30          3
    31          5
    32         18
    33          4
    34          8
    37          1
    38          6
    39         63
    40          6
    41         24
    42         16
    43         77
    44         11
    45         53
    46         25
    47          4
    48          8
    49          1
    50         14
    51         30
    52          9
    53         11
    54          5
    55        157
    56         91
    57         46
    58          8
    59         55
    60          9
    61         31
    62         12
    63         47
    64         32
    65        232
    66         14
    67          4
    68          1
    69          3
    70          2
    71          4
    72          9
    73          8
    74          5
    75          5
    76          6
    77         23
    78         14
    79         12
    80          2
    81          1
    82          1
    83          1
    84          1
    85          2
    86          2
    87          9
    88          4
    89         51
    90         27
    91        999
    92        126
    93          6
    94          1
    95          2
    96          1
    97          2
    98          1
   101          3
   102         11
   103          9
   104          8
   105         53
   106         10
   107          8
   108          5
   109          2
   110          2
   111          3
   112          1
   113          2
   114        406
   115         21
   116         29
   117          6
   118         22
   119          8
   120          9
   121          9
   122          4
   123         19
   124         86
   125          8
   126          6
   128          1
   130          1
   131          2
   132         20
   133          1
   134          2
   135          4
   136          2
   137          1
   138          7
   139         35
   140          6
   141          2
   145         25
   146          5
   147          1
   148          7
   149         36
   150         18
   151          4
   152          3
   153          9
   154          1
   155        302
   156         26
   157         15
   158          1
   162        250
   163         16
   164         23
   165          1
   166          1
   167          1
   171          2
   176          3
   177          7
   178         23
   179          2
   180          9
   181          1
   182          1
   186         13
   187          1
   188          1
   189          3
   190          2
   191          2
   197          2
   204         31
   205        128
   206         17
   207          6
   208          1
   209         11
   210         18
   211          2
   212          1
   213          1
   214         30
   215          3
   216          2
   236          8
   237          1
   267          2
   269        906
   270        129
   271         90
   272         10
   273          3