##TITLE=Library Entry 91071
##JCAMP-DX=Revision 4.10 
##DATA TYPE=MASS SPECTRUM
##SAMPLE DESCRIPTION=Japan AIST/NIMC Database- Spectrum MS-IW-1159
##NAMES=HP
##CAS NAME=4,5,7,8-Tetrahydro-1,5-diazocine-2,6(1H,3H)-dione
##MOLFORM=C6H10N2O2
##CAS REGISTRY NO=935-18-2
##MP= -300
##BP= -300
##MW= 142
##$RETENTION INDEX=0
##$CONDENSED SPECTRUM=NO
##NPOINTS= 71
##XYDATA=(XY..XY) 1 
    14          5
    15         27
    16          1
    17          1
    18          2
    26          9
    27         45
    28        178
    29         25
    30        343
    31         10
    32          2
    35          1
    36          1
    38          2
    39          6
    40         17
    41         37
    42        167
    43        376
    44        111
    45         16
    46          6
    50          3
    51          1
    52          3
    53          4
    54         16
    55        240
    56         73
    57         36
    58          9
    59         45
    60          2
    67          2
    68         16
    69         19
    70        180
    71        310
    72        140
    73         60
    74          2
    80          1
    81          1
    82          2
    83         12
    84        213
    85        275
    86         41
    87          9
    94          1
    95          2
    96          9
    97        116
    98         84
    99         33
   100         16
   101          1
   111          1
   112          8
   113        384
   114        999
   115         64
   116          3
   124          3
   125          4
   126          2
   141          4
   142        100
   143         33
   144          2