##TITLE=Library Entry 50811
##JCAMP-DX=Revision 4.10 
##DATA TYPE=MASS SPECTRUM
##SAMPLE DESCRIPTION=Chemical Concepts
##NAMES=HP
##CAS NAME=2-Furanpropionic acid
##MOLFORM=C7H8O3
##CAS REGISTRY NO=935-13-7
##MP= -300
##BP= -300
##MW= 140
##$RETENTION INDEX=1158
##$CONDENSED SPECTRUM=NO
##NPOINTS= 78
##XYDATA=(XY..XY) 1 
    26         21
    27        119
    28          2
    29         42
    30          1
    31         12
    33          1
    36          2
    37         16
    38         36
    39        146
    40         31
    41        100
    42         20
    43         14
    44          5
    45         41
    46          2
    47          3
    49          3
    50         19
    51         35
    52         16
    53        232
    54         12
    55         28
    56          5
    57          2
    58          0
    60          5
    61          5
    62          8
    63         16
    64          5
    65         63
    66         53
    67         69
    68         22
    69          7
    70          6
    71          1
    73          2
    74          1
    75          0
    77          5
    78          1
    79          3
    80          1
    81        999
    82         58
    83          8
    84          6
    91          1
    92          1
    93          3
    94        225
    95        112
    96          6
    97         17
    98          2
   105          1
   109          0
   110          1
   111          3
   112          2
   115          1
   117          0
   119          1
   121          4
   122          1
   123         11
   124          0
   125          0
   138          3
   139          1
   140        238
   141         19
   142          1