##TITLE=Library Entry 1071
##JCAMP-DX=Revision 4.10 
##DATA TYPE=MASS SPECTRUM
##SAMPLE DESCRIPTION=MASS SPECTROMETRY CENTER, UNIV. OF UTAH. ALDRICH 12327-
7
##NAMES=HP
##CAS NAME=1-Azacyclononan-2-one
##MOLFORM=C8H15NO
##CAS REGISTRY NO=935-30-8
##MP= -300
##BP= -300
##MW= 141
##$RETENTION INDEX=0
##$CONDENSED SPECTRUM=NO
##NPOINTS= 58
##XYDATA=(XY..XY) 1 
    15         21
    26         11
    27        112
    28        130
    29         91
    30        999
    31         27
    39         98
    40         28
    41        240
    42        166
    43        126
    44         97
    45        134
    46          1
    51          1
    53         26
    54         42
    55        317
    56        296
    57         69
    58         35
    59         40
    60          2
    65          1
    67         38
    68        203
    69        105
    70         74
    71         12
    72         51
    73         19
    79          6
    80          1
    81         28
    82         29
    83         59
    84        126
    85         54
    86         18
    94         12
    95         29
    96         46
    97         28
    98        171
    99         52
   100         18
   109          2
   111          5
   112         56
   113         34
   123         17
   124        218
   125         24
   126          1
   140          2
   141         78
   142         14