##TITLE=Library Entry 48902
##JCAMP-DX=Revision 4.10 
##DATA TYPE=MASS SPECTRUM
##SAMPLE DESCRIPTION=Japan AIST/NIMC Database- Spectrum MS-NW-1563
##NAMES=HP
##CAS NAME=cis-1,2,3,6-Tetrahydrophthalic anhydride
##MOLFORM=C8H8O3
##CAS REGISTRY NO=935-79-5
##MP= -300
##BP= -300
##MW= 152
##$RETENTION INDEX=0
##$CONDENSED SPECTRUM=NO
##NPOINTS= 57
##XYDATA=(XY..XY) 1 
    14          1
    15          5
    17          1
    18          3
    25          3
    26         42
    27        144
    28         22
    29          6
    31          1
    36          1
    37         17
    38         42
    39        203
    40         37
    41         28
    42          2
    43          1
    44          5
    45          3
    49          9
    50         68
    51        109
    52         72
    53         48
    54         25
    55          6
    61          4
    62          7
    63         19
    64          4
    65         40
    66          9
    67          4
    68          2
    69          1
    73          2
    74          9
    75          5
    76          3
    77        142
    78         87
    79        999
    80        499
    81         32
    82          3
    95          4
    96          8
    97          4
   105          3
   106          5
   107          6
   110          1
   123         43
   124        363
   125         27
   126          2