##TITLE=Library Entry 74105
##JCAMP-DX=Revision 4.10 
##DATA TYPE=MASS SPECTRUM
##SAMPLE DESCRIPTION=Exported from NIST MS Search
##NAMES=HP
##CAS NAME=1,3-Dioxolane, 2-butyl-2-ethyl-
##MOLFORM=C9H18O2
##CAS REGISTRY NO=935-49-9
##MP= -300
##BP= -300
##MW= 158
##$RETENTION INDEX=0
##$CONDENSED SPECTRUM=NO
##NPOINTS= 8
##XYDATA=(XY..XY) 1 
    55        118
    57        849
    58         34
    99        140
   101        999
   102        104
   129        622
   130         96