##TITLE=Library Entry 67092
##JCAMP-DX=Revision 4.10 
##DATA TYPE=MASS SPECTRUM
##SAMPLE DESCRIPTION=Chemical Concepts
##NAMES=HP
##CAS NAME=.beta.-d-Mannofuranoside, phenyl
##MOLFORM=C12H16O6
##CAS REGISTRY NO=93524-17-5
##MP= -300
##BP= -300
##MW= 256
##$RETENTION INDEX=0
##$CONDENSED SPECTRUM=NO
##NPOINTS= 115
##XYDATA=(XY..XY) 1 
    26          7
    27         54
    29         69
    30          8
    31        120
    32          0
    36          2
    37          2
    38          8
    39         62
    40         19
    41         58
    42         16
    43        127
    44         23
    45         97
    46          2
    47          7
    49          1
    50          9
    51         37
    52          5
    53         15
    54          4
    55         36
    56         10
    57        108
    58          7
    59         14
    60         34
    61         79
    62          4
    63         11
    64          2
    65         39
    66         44
    67          2
    68          7
    69         99
    70         14
    71        113
    72          6
    73        224
    74         12
    75          6
    76          3
    77         77
    78         15
    79         14
    80          1
    81          9
    82          1
    83          4
    84         44
    85        187
    86         15
    87         39
    88          2
    89          7
    90          1
    91         29
    92          2
    93          8
    94        999
    95         93
    96          6
    97         23
    98          4
    99         15
   100          1
   101         18
   102          3
   103         27
   104          4
   105          2
   107         21
   108          2
   109          9
   110          1
   111          1
   113          2
   115         18
   116          3
   117          1
   119         12
   120          1
   121          2
   123          2
   126          1
   127         30
   128          2
   129          1
   130          1
   131          8
   132          0
   133          1
   135          3
   136          7
   137          3
   143          1
   144         11
   145         27
   146          3
   147          4
   149          2
   159          1
   161          2
   162         16
   163         23
   164          2
   165          1
   177          1
   178          1
   189          1
   256          4