##TITLE=Library Entry 10732
##JCAMP-DX=Revision 4.10 
##DATA TYPE=MASS SPECTRUM
##SAMPLE DESCRIPTION=Chemical Concepts
##NAMES=HP
##CAS NAME=.alpha.-d-Glucofuranose, 3-O-.beta.-d-mannofuranosyl-1,2:5,6-bis-
O-(1-methylethylidene)-
##MOLFORM=C18H30O11
##CAS REGISTRY NO=93524-20-0
##MP= -300
##BP= -300
##MW= 422
##$RETENTION INDEX=0
##$CONDENSED SPECTRUM=NO
##NPOINTS= 216
##XYDATA=(XY..XY) 1 
    26         15
    27         88
    28         41
    29        107
    30          9
    31        189
    36          3
    37          2
    38          3
    39         58
    40         14
    41        182
    42         55
    43        999
    44         59
    45        115
    46          5
    47         14
    49          1
    50          2
    51          3
    52          3
    53         34
    54          9
    55        120
    56         29
    57        183
    58         36
    59        459
    60         67
    61        123
    62          3
    63          1
    65          3
    66          3
    67          8
    68         30
    69        187
    70         37
    71        260
    72         71
    73        302
    74         20
    75         11
    76          3
    77          5
    79          5
    80          5
    81         75
    82         15
    83         62
    84         57
    85        432
    86         58
    87         70
    88          4
    89          8
    91         29
    92          1
    93          7
    94          3
    95         13
    96          4
    97         75
    98         30
    99        107
   100         75
   101        726
   102         56
   103         71
   104          7
   105          2
   107          2
   108          1
   109         83
   110         21
   111         38
   112          6
   113        142
   114        122
   115        102
   116         15
   117         24
   118          1
   119          3
   121          1
   122          2
   123          9
   124          3
   125         20
   126         22
   127        304
   128         33
   129         86
   130         12
   131         26
   132          2
   133          2
   135          1
   137          3
   138          2
   139         12
   140          4
   141         17
   142         17
   143         45
   144         50
   145        153
   146         12
   147          2
   148          2
   149          3
   151          2
   152          2
   153          5
   154          3
   155         20
   156         10
   157         13
   158         29
   159         41
   160          5
   161          5
   162          4
   163         81
   164          5
   165          3
   167         11
   168          7
   169         13
   170          2
   171          9
   172         23
   173         87
   174          7
   175          3
   181          3
   182          3
   183          9
   184          6
   185         92
   186         21
   187        194
   188         21
   189          6
   191          3
   196          1
   197          3
   198          1
   199         11
   200          5
   201         12
   202          5
   203         56
   204          5
   205          4
   209          2
   213         11
   214         10
   215         11
   216          2
   218          1
   219          1
   221          9
   223          2
   226          1
   227          5
   228          2
   229          5
   231        117
   232         15
   233          3
   239          2
   240          1
   242          1
   243          4
   244         50
   245         90
   246         13
   247          3
   256          1
   257          5
   259          3
   260          1
   261         83
   262          9
   263          7
   271         14
   272         26
   273         11
   274          2
   275          4
   286          2
   287          3
   288          3
   289        110
   290         14
   291          4
   299          1
   302         17
   303          7
   304          2
   305          4
   329          3
   331          9
   332          1
   333          2
   344          8
   345          1
   349          1
   361          1
   391          5
   404          1
   407         67
   408         14
   409          2