##TITLE=Library Entry 88390
##JCAMP-DX=Revision 4.10 
##DATA TYPE=MASS SPECTRUM
##SAMPLE DESCRIPTION=Chemical Concepts
##NAMES=HP
##CAS NAME=.beta.-D-Mannofuranoside, 1-methylethyl, cyclic 2,3:5,6-bis(ethyl
boronate)
##MOLFORM=C13H24B2O6
##CAS REGISTRY NO=93549-76-9
##MP= -300
##BP= -300
##MW= 298
##$RETENTION INDEX=0
##$CONDENSED SPECTRUM=NO
##NPOINTS= 194
##XYDATA=(XY..XY) 1 
    26         10
    27         30
    28         34
    29         32
    30          1
    31         11
    32          1
    37          0
    38          1
    39         17
    40          6
    41         56
    42         27
    43        255
    44          9
    45         14
    47          3
    49          0
    50          1
    51          1
    52          2
    53         14
    54          9
    55         21
    56         23
    57         79
    58          4
    59         30
    60         14
    61          1
    62          0
    63          0
    65          1
    66          2
    67          5
    68         19
    69         40
    70         39
    71         24
    72          3
    73         25
    74          1
    75          1
    76          0
    77          1
    78          1
    79          5
    80          2
    81         29
    82         13
    83         47
    84         12
    85         23
    86          7
    87         13
    88          0
    89         44
    90          2
    91          1
    92          1
    93          0
    94          1
    95          5
    96         12
    97         34
    98        163
    99        416
   100         22
   101         11
   102          7
   103          1
   105          0
   106          1
   107          1
   108          2
   109         14
   110        255
   111        999
   112        157
   113         26
   114          4
   115          4
   116          0
   121          3
   122          3
   123         27
   124        110
   125         62
   126         20
   127         46
   128         72
   129         53
   130          3
   131          0
   132          0
   134          0
   135          1
   136          7
   137         17
   138         26
   139         90
   140         39
   141         94
   142         12
   143          3
   144          0
   145          0
   148          0
   149          1
   150          3
   151          6
   152          5
   153         14
   154         26
   155         12
   156        105
   157        412
   158         31
   159          4
   160          0
   161          0
   162          1
   163          3
   164          2
   165          5
   166          2
   167          3
   168          2
   169         10
   170         25
   171          7
   172          0
   177          0
   178          1
   179          5
   180         25
   181         46
   182          7
   183          3
   184          0
   185          2
   186          0
   187          0
   189          0
   190          1
   191          0
   192          1
   193          0
   194          1
   195          3
   196          3
   197          5
   198         46
   199        183
   200         20
   201          2
   202          0
   203          0
   206          0
   207          2
   208         14
   209         37
   210         36
   211          5
   212          0
   213          0
   219          0
   220          1
   221          2
   222          1
   223          2
   224          6
   225         12
   226          4
   227          6
   228          0
   232          0
   233          1
   234          0
   235          1
   237          2
   238         11
   239         19
   240          2
   241          0
   253          0
   254          1
   255          2
   265          0
   267          1
   268          0
   269          1
   283          0
   298          0