##TITLE=Library Entry 35724
##JCAMP-DX=Revision 4.10 
##DATA TYPE=MASS SPECTRUM
##SAMPLE DESCRIPTION=NIST Mass Spectrometry Data Center, 1990.
##NAMES=HP
##CAS NAME=1-Cyclohexyl-1-pentanol
##MOLFORM=C11H22O
##CAS REGISTRY NO=93548-33-5
##MP= -300
##BP= -300
##MW= 170
##$RETENTION INDEX=0
##$CONDENSED SPECTRUM=NO
##NPOINTS= 57
##XYDATA=(XY..XY) 1 
    14          1
    27        105
    28         29
    29        162
    30         10
    31         37
    32          3
    39        147
    41        509
    42         54
    43        120
    44         51
    45         58
    50          6
    51         20
    52         14
    53         83
    54         91
    55        405
    56         67
    57        192
    58         42
    59          5
    63          5
    65         36
    67        444
    68        110
    69        999
    70         77
    71         44
    77         44
    78         11
    79         83
    80         33
    81        244
    82        232
    83        101
    84         20
    85         11
    86        224
    87        418
    88         21
    91         21
    92          7
    93         35
    94          7
    95        914
    96        172
    97         28
   109         58
   110         15
   111          7
   112         36
   113        309
   114         23
   152         77
   153          9