##TITLE=Library Entry 50153
##JCAMP-DX=Revision 4.10 
##DATA TYPE=MASS SPECTRUM
##SAMPLE DESCRIPTION=NIST Mass Spectrometry Data Center, 1992
##NAMES=HP
##CAS NAME=1,1-Cyclohexane diacetic acid
##MOLFORM=C10H16O4
##CAS REGISTRY NO=9355-11-7
##MP= -300
##BP= -300
##MW= 200
##$RETENTION INDEX=0
##$CONDENSED SPECTRUM=NO
##NPOINTS= 117
##XYDATA=(XY..XY) 1 
    13          2
    14         11
    15         17
    16          4
    17         15
    18         60
    19          3
    26         22
    27        187
    28         75
    29        121
    30          3
    31         15
    32          8
    36          1
    37          5
    39        311
    40         83
    41        300
    42         94
    43         71
    44          9
    45         49
    46          5
    47          3
    50         17
    51         43
    52         29
    53        140
    54        188
    55        231
    56         23
    57         12
    58          3
    59          3
    60         55
    61         17
    62          6
    63          9
    64          3
    65         46
    66         55
    67        391
    68        197
    69         27
    70         12
    71         10
    72          3
    73         10
    74          3
    75          4
    76          3
    77         52
    78         24
    79        141
    80        206
    81        999
    82         96
    83         18
    84          8
    85          2
    86          2
    91         28
    92         14
    93         37
    94        151
    95        268
    96        320
    97         52
    98         13
    99         29
   100          4
   103          1
   105         12
   106          2
   107          7
   108          5
   109         34
   110        147
   111         20
   112          6
   113          1
   115          3
   116          1
   117          1
   120         71
   121         15
   122         86
   123        248
   124         23
   125          3
   126          5
   127          1
   133          4
   134          1
   135          4
   136          8
   137         11
   138         18
   139         14
   140         75
   141        157
   142         14
   149          0
   151          4
   152          1
   153         11
   154         23
   155          3
   156          1
   157          1
   163          0
   164          3
   182          6
   183          6
   199          5
   200          3