##TITLE=Library Entry 60486
##JCAMP-DX=Revision 4.10 
##DATA TYPE=MASS SPECTRUM
##SAMPLE DESCRIPTION=Chemical Concepts
##NAMES=HP
##CAS NAME=3-Buten-2-ol, 1-(phenylmethoxy)-
##MOLFORM=C11H14O2
##CAS REGISTRY NO=93553-66-3
##MP= -300
##BP= -300
##MW= 178
##$RETENTION INDEX=0
##$CONDENSED SPECTRUM=NO
##NPOINTS= 90
##XYDATA=(XY..XY) 1 
    26          5
    27         38
    28          3
    29         37
    30          2
    31         23
    37          1
    38          7
    39         56
    40          6
    41         32
    42          5
    43         28
    44          5
    45          4
    50         12
    51         39
    52         11
    53          8
    54         36
    55         11
    56          2
    57        244
    58         14
    59         12
    61          1
    62          6
    63         26
    64          9
    65        122
    66          9
    67          0
    69          3
    70          7
    71         27
    72          3
    73          2
    74          2
    75          3
    76          2
    77         35
    78          8
    79         23
    80          2
    81          1
    83          1
    85          3
    86          3
    87         32
    88          2
    89         30
    90         21
    91        999
    92        391
    93         38
    94          1
    95          0
    97          1
    99          1
   103          1
   104          8
   105         35
   106          5
   107        112
   108         41
   109          4
   115         10
   116          2
   117          2
   118          1
   119          2
   120          1
   121         12
   122          4
   128          1
   129          3
   130          2
   131          1
   132          2
   133          3
   134          5
   135          2
   137          1
   142          2
   149          1
   150          8
   151          1
   160          4
   177          6
   178          6