##TITLE=Library Entry 78708
##JCAMP-DX=Revision 4.10 
##DATA TYPE=MASS SPECTRUM
##SAMPLE DESCRIPTION=Japan AIST/NIMC Database- Spectrum MS-NW-7294
##NAMES=HP
##CAS NAME=1-Propanone, 3-chloro-1-phenyl-
##MOLFORM=C9H9ClO
##CAS REGISTRY NO=936-59-4
##MP= -300
##BP= -300
##MW= 168
##$RETENTION INDEX=1384
##$CONDENSED SPECTRUM=NO
##NPOINTS= 46
##XYDATA=(XY..XY) 1 
    26          3
    27         25
    28          1
    36          3
    37          2
    38          5
    39          9
    49          4
    50         39
    51        113
    52          9
    53          2
    55         15
    57          1
    61          3
    62          4
    63         14
    64          1
    65          5
    66          9
    73          3
    74         14
    75         10
    76         17
    77        388
    78         31
    79          2
    86          1
    89          2
    91          3
   102          2
   103          4
   104          5
   105        999
   106         76
   107          4
   115          2
   131          6
   132         18
   133         47
   134          5
   167          1
   168         24
   169          3
   170          9
   171          1