##TITLE=Library Entry 97596
##JCAMP-DX=Revision 4.10 
##DATA TYPE=MASS SPECTRUM
##SAMPLE DESCRIPTION=Japan AIST/NIMC Database- Spectrum MS-NW-8105
##NAMES=HP
##CAS NAME=1H-Imidazole, 4,5-dihydro-2-phenyl-
##MOLFORM=C9H10N2
##CAS REGISTRY NO=936-49-2
##MP= -300
##BP= -300
##MW= 146
##$RETENTION INDEX=0
##$CONDENSED SPECTRUM=NO
##NPOINTS= 60
##XYDATA=(XY..XY) 1 
    14          1
    15         18
    26          2
    27          9
    28          5
    29          1
    30          1
    37          3
    38          7
    39         20
    40          7
    41         11
    42         49
    43         15
    44          4
    49          1
    50         26
    51         80
    52         11
    53          1
    58          5
    59          1
    61          3
    62          9
    63         23
    64          9
    65         10
    66          1
    72         15
    73          9
    74          8
    75         10
    76         23
    77        202
    78         14
    85          1
    86          2
    87          2
    88          3
    89         56
    90         77
    91         29
    92          3
   102          4
   103          8
   104         84
   105          8
   114          1
   115          1
   116         39
   117        999
   118        104
   119          6
   131          2
   143          2
   144         19
   145        215
   146        576
   147         82
   148          5