##TITLE=Library Entry 83608
##JCAMP-DX=Revision 4.10 
##DATA TYPE=MASS SPECTRUM
##SAMPLE DESCRIPTION=Chemical Concepts
##NAMES=HP
##CAS NAME=Benzenemethanol, .alpha.-2-propenyl-
##MOLFORM=C10H12O
##CAS REGISTRY NO=936-58-3
##MP= -300
##BP= -300
##MW= 148
##$RETENTION INDEX=1869
##$CONDENSED SPECTRUM=NO
##NPOINTS= 101
##XYDATA=(XY..XY) 1 
    25          0
    26          3
    27         46
    28          1
    29         28
    30          1
    31          7
    33          1
    34          0
    37          2
    38          7
    39         77
    40          6
    41         49
    42          3
    43         38
    44          2
    45         34
    46          2
    47          0
    49          1
    50         24
    51         90
    52         19
    53         18
    54          1
    55          5
    56          0
    57          5
    58          0
    59          1
    60          1
    61         12
    62          5
    63         15
    64          5
    65          9
    66          1
    67          1
    68          1
    69          3
    70          0
    71          1
    72          0
    73         25
    74          7
    75          7
    76          7
    77        274
    78         48
    79        575
    80         35
    81          1
    82          0
    83          0
    84          0
    85          2
    86          1
    87          1
    88          1
    89          6
    90          1
    91         22
    92          1
    93          0
    94          0
    95          0
    97          0
    98          0
   101          1
   102          4
   103          5
   104          3
   105         63
   106         13
   107        999
   108         78
   109          4
   111          0
   113          0
   114          0
   115          9
   116          3
   117          2
   119          0
   120          0
   121          0
   122          0
   125          0
   126          1
   127          6
   128         10
   129          8
   130          6
   131         10
   132          1
   133          0
   147          0
   148         16
   149          8
   150          0