##TITLE=Library Entry 3595
##JCAMP-DX=Revision 4.10 
##DATA TYPE=MASS SPECTRUM
##SAMPLE DESCRIPTION=NIST Mass Spectrometry Data Center, 1994
##NAMES=HP
##CAS NAME=Allyl o-tolyl ether
##MOLFORM=C10H12O
##CAS REGISTRY NO=936-72-1
##MP= -300
##BP= -300
##MW= 148
##$RETENTION INDEX=0
##$CONDENSED SPECTRUM=NO
##NPOINTS= 83
##XYDATA=(XY..XY) 1 
    12          2
    13          2
    14         12
    15         63
    16          2
    17          1
    18          4
    26         59
    27        213
    28         33
    29         34
    30          3
    31          4
    37         29
    38         94
    39        680
    40          3
    41        999
    42         37
    43         13
    50        128
    51        260
    52        144
    53        135
    54         14
    55         42
    56          3
    57          3
    61          9
    62         32
    63         98
    64         31
    65        151
    66         39
    67         10
    68          8
    69          7
    70          2
    73          4
    74         22
    75         13
    76          2
    77        688
    78        306
    79        360
    80         70
    81          9
    82         14
    85          1
    86          3
    87          3
    89         53
    90         44
    91        186
    92         82
    93         23
    94         21
    95          2
   102          3
   103         16
   105        231
   106        100
   107        381
   108        115
   109          8
   115         21
   116          5
   117          9
   118          3
   119         41
   120         27
   121         12
   127          1
   129         24
   130         19
   131         25
   132          1
   133        374
   134         36
   135          2
   148        514
   149         56
   150          3