##TITLE=Library Entry 690
##JCAMP-DX=Revision 4.10 
##DATA TYPE=MASS SPECTRUM
##SAMPLE DESCRIPTION=Chemical Concepts
##NAMES=HP
##CAS NAME=Propanedioic acid, bromo-, ethyl methyl ester
##MOLFORM=C6H9BrO4
##CAS REGISTRY NO=93612-48-7
##MP= -300
##BP= -300
##MW= 224
##$RETENTION INDEX=0
##$CONDENSED SPECTRUM=NO
##NPOINTS= 93
##XYDATA=(XY..XY) 1 
    25         11
    26         30
    27        257
    29        999
    30         40
    31        135
    33         26
    39          4
    40          3
    41         99
    42        266
    43        250
    44         22
    45         93
    46          5
    47          3
    53          3
    55         11
    56          4
    57         78
    58          8
    59        293
    60         16
    61          3
    65          3
    68          8
    69        285
    70         18
    71          8
    72         27
    73         20
    74        153
    75          6
    76          4
    78          3
    79         21
    80         44
    81         23
    82         59
    86         32
    87         23
    89          2
    91          3
    92         13
    93          7
    94         11
    95         13
    97          9
   100         35
   101        330
   102         11
   103          5
   104          3
   107          2
   108          8
   109          9
   111         11
   114         10
   115         50
   116          2
   118         10
   119        205
   120         91
   121         21
   122        106
   123         32
   125         17
   129          2
   131          3
   137          6
   139          3
   146          5
   149          4
   150          2
   151         16
   152        205
   153         37
   154        229
   155         17
   156          3
   178          2
   179         40
   180          3
   181         34
   193         14
   194          2
   195          6
   196          7
   197         11
   198          5
   199          6
   224          3
   226          4