##TITLE=Library Entry 45541
##JCAMP-DX=Revision 4.10 
##DATA TYPE=MASS SPECTRUM
##SAMPLE DESCRIPTION=A. VAN LANGENHOVE, HARVARD SCH. PUBLIC HEALTH, BOSTON,
 USA
##NAMES=HP
##CAS NAME=1,5-Anhydro-3-O-acetyl-2,4,6-tri-O-methyl-D-mannitol
##MOLFORM=C11H20O6
##CAS REGISTRY NO=93635-89-3
##MP= -300
##BP= -300
##MW= 248
##$RETENTION INDEX=1546
##$CONDENSED SPECTRUM=NO
##NPOINTS= 53
##XYDATA=(XY..XY) 1 
    61         40
    67         18
    68         38
    69        129
    70         29
    71        255
    72         52
    73         51
    74        546
    75        999
    76         31
    79         12
    81         30
    82         25
    83        148
    84         83
    85        161
    86         38
    87        105
    88         22
    89         57
    95         18
    96         21
    97        115
    98         21
    99         80
   100         52
   101        635
   102         51
   109         12
   111         97
   112         56
   113         24
   114        108
   115        123
   116         46
   117         83
   125        125
   126         31
   127         81
   128         14
   129        106
   130         15
   139         71
   141         37
   142         13
   143        244
   156         79
   157         42
   158         50
   159         10
   171         24
   188         16