##TITLE=Library Entry 39259
##JCAMP-DX=Revision 4.10 
##DATA TYPE=MASS SPECTRUM
##SAMPLE DESCRIPTION=A. VAN LANGENHOVE, HARVARD SCH. PUBLIC HEALTH, BOSTON,
 USA
##NAMES=HP
##CAS NAME=1,5-Anhydro-2-O-acetyl-3,4,6-tri-O-methyl-d-mannitol
##MOLFORM=C11H20O6
##CAS REGISTRY NO=93635-82-6
##MP= -300
##BP= -300
##MW= 248
##$RETENTION INDEX=1504
##$CONDENSED SPECTRUM=NO
##NPOINTS= 51
##XYDATA=(XY..XY) 1 
    61         52
    67         30
    68         28
    69        107
    70         31
    71        999
    72        242
    73        140
    74        135
    75        106
    76         15
    77         19
    79         13
    81         63
    82         24
    83         94
    84        128
    85        200
    86         79
    87        455
    88        193
    89         91
    91         15
    95         24
    96         10
    97        103
    98         16
    99         63
   100         29
   101        712
   102        407
   103         32
   109         17
   111        405
   112         58
   113         60
   114         35
   115         77
   116         14
   117         59
   124         16
   125         27
   129        189
   131         42
   142         36
   143         84
   147        151
   156         24
   171         88
   203         15
   206         11