##TITLE=Library Entry 57392
##JCAMP-DX=Revision 4.10 
##DATA TYPE=MASS SPECTRUM
##SAMPLE DESCRIPTION=A. VAN LANGENHOVE, HARVARD SCH. PUBLIC HEALTH, BOSTON,
 USA
##NAMES=HP
##CAS NAME=1,5-Anhydro-6-O-acetyl-2,3,4-tri-O-methyl-D-mannitol
##MOLFORM=C11H20O6
##CAS REGISTRY NO=93635-96-2
##MP= -300
##BP= -300
##MW= 248
##$RETENTION INDEX=1603
##$CONDENSED SPECTRUM=NO
##NPOINTS= 46
##XYDATA=(XY..XY) 1 
    68         11
    69         98
    70         97
    71        367
    72         39
    73        183
    74         39
    75        759
    76         25
    81         14
    83         37
    84         34
    85         76
    86         14
    87        999
    88        488
    89         60
    95         22
    96         10
    97         31
    98         19
    99        117
   100         15
   101        756
   102         57
   103         22
   111         51
   113         19
   114         73
   115         61
   117         51
   124         12
   125         35
   126         28
   127         30
   129        207
   130        329
   131         83
   141         13
   143         76
   156        141
   157         21
   175         28
   186         15
   188         33
   216         19