##TITLE=Library Entry 114839
##JCAMP-DX=Revision 4.10 
##DATA TYPE=MASS SPECTRUM
##SAMPLE DESCRIPTION=A.A.Kutin, Moscow, Russia
##NAMES=HP
##CAS NAME=Acetic acid, 2-indol-3-yl-, 2-(4-bromophenyl)-2-oxoethyl ester
##MOLFORM=C18H14BrNO3
##CAS REGISTRY NO=93654-02-5
##MP= -300
##BP= -300
##MW= 371
##$RETENTION INDEX=0
##$CONDENSED SPECTRUM=NO
##NPOINTS= 198
##XYDATA=(XY..XY) 1 
    34          1
    36          1
    38         16
    39         28
    41         35
    42         69
    43         28
    44         37
    45         10
    46          0
    48          0
    49          6
    50        125
    51         59
    52         19
    53          8
    54         10
    55         18
    56        116
    57         24
    58          6
    59          1
    60          1
    61          5
    62         13
    63         34
    64         12
    65         16
    66          1
    67          1
    68          3
    69          5
    70         35
    71          9
    72         15
    73          9
    74         53
    75        141
    76        161
    77        164
    78         20
    79         26
    80         50
    81         23
    82         50
    83          3
    84          5
    85          9
    86          9
    87          9
    88          4
    89         40
    90         56
    91         10
    92          3
    93          3
    94          1
    95          3
    96          1
    97          1
    98         18
   100        730
   101         64
   102         73
   103        104
   104         33
   105          7
   106          1
   107          2
   109          0
   110          0
   111          1
   112          3
   113          2
   114          2
   115          3
   116          3
   117          6
   118          4
   119          2
   120          1
   121          1
   122          0
   123          0
   124          0
   125          0
   126          1
   127          4
   128         50
   129        134
   130        999
   131        107
   132          9
   133          1
   134          0
   135          0
   137          0
   139          0
   140          0
   141          0
   142          1
   143          3
   144          7
   145          7
   146          5
   147          1
   148          0
   149          0
   151          0
   152          1
   153          1
   155        109
   156         27
   157        694
   158         78
   159          5
   160          1
   161          0
   165          0
   167          1
   169         22
   170          3
   171         24
   172          3
   173          2
   174         15
   175          4
   176          1
   177          0
   178          0
   179          1
   180          1
   181          1
   183        287
   185        283
   186         20
   187          1
   188          0
   189          1
   190          0
   191          0
   193          0
   195          0
   196          0
   197          1
   198          7
   199          2
   200          7
   201          1
   202          1
   203          1
   204          3
   205          2
   206          1
   208          0
   210          1
   211          0
   216          0
   217          1
   218          2
   219          1
   223          0
   224          0
   225          0
   226          0
   236          0
   237          0
   239          0
   241          0
   252          0
   254          0
   264          1
   266          0
   268          0
   276          4
   278          7
   279          1
   280          3
   281          0
   282          2
   283          2
   284          2
   285          1
   286          1
   294          0
   295          3
   296         16
   297          3
   298         18
   299          2
   312          0
   313          0
   315          0
   371         51
   372         11
   373         49
   374          9
   375          1