##TITLE=Library Entry 99837
##JCAMP-DX=Revision 4.10 
##DATA TYPE=MASS SPECTRUM
##SAMPLE DESCRIPTION=V.G.Zaikin, TIPS, Russian Acad. Sci.
##NAMES=HP
##CAS NAME=Methyl 2-(2-methylphenyl)-2,3-oxidoindan-1-one-3-carboxylate
##MOLFORM=C18H14O4
##CAS REGISTRY NO=93655-56-2
##MP= -300
##BP= -300
##MW= 294
##$RETENTION INDEX=0
##$CONDENSED SPECTRUM=NO
##NPOINTS= 55
##XYDATA=(XY..XY) 1 
    59         10
    69         10
    77         25
    81         10
    89         25
    90        130
    91        560
    92         50
   103         10
   104         25
   105         30
   118        205
   119        999
   120         90
   133         10
   147         10
   151         10
   152         30
   163         10
   164         10
   165         30
   176         20
   177         40
   178        350
   179        110
   180         20
   190         20
   191         10
   192         15
   194         10
   205         30
   206         35
   207         75
   208         25
   218         15
   219         15
   221         10
   222         10
   223         25
   233         40
   234         80
   235        300
   236         60
   262         10
   263         60
   264         10
   266         30
   267         10
   277        200
   278         40
   279         80
   280         20
   294        380
   295         75
   296          7