##TITLE=Library Entry 14038
##JCAMP-DX=Revision 4.10 
##DATA TYPE=MASS SPECTRUM
##SAMPLE DESCRIPTION=Div. of Experiment Therapeutics WRAIR, WRAMC, Washingto
n DC 20307
##NAMES=HP
##CAS NAME=Pyrido(3,2-d)pyrimidine, 2,4-diamino-6-piperidino-
##MOLFORM=C12H16N6
##CAS REGISTRY NO=93684-03-8
##MP= -300
##BP= -300
##MW= 244
##$RETENTION INDEX=0
##$CONDENSED SPECTRUM=NO
##NPOINTS= 141
##XYDATA=(XY..XY) 1 
    41        462
    42          6
    43        999
    44         33
    45          0
    47         34
    49        146
    51         86
    52         84
    53        219
    54          1
    55        298
    56         65
    57         27
    59          2
    60          8
    61          1
    63         28
    64        145
    65         83
    66         15
    67         65
    68        117
    69         48
    70         13
    71          2
    73         10
    74          0
    75          6
    76         23
    77         24
    78         43
    79        138
    80         86
    82         43
    84        351
    85          9
    86         59
    87          3
    88          9
    89          3
    90         64
    91         54
    92        111
    93         38
    94         26
    95         27
    96          2
    97          1
    98          2
    99          8
   101         28
   102          2
   103         25
   104         35
   105         38
   106         55
   107         37
   108         30
   110          0
   112          0
   113          1
   114         13
   116         19
   117         20
   118        151
   119        154
   120         80
   122         49
   124          1
   125          0
   126          2
   128          2
   129          3
   130         10
   131         17
   132         34
   133         32
   134        102
   135         23
   143         34
   144         48
   145         62
   147         34
   148          8
   150         18
   151          0
   153          0
   154          1
   155          2
   156          4
   157         21
   158          7
   159         26
   160        180
   161        471
   162         59
   163          1
   167          0
   169          2
   170         23
   172         57
   174         87
   175        160
   176        275
   177         29
   178          1
   182          1
   184         25
   185         24
   187         43
   188        327
   189        127
   190         15
   191          0
   195          5
   196          3
   198         49
   199          6
   201        132
   202          0
   203         84
   204          4
   210          1
   211          4
   212          4
   213          3
   215        315
   216         19
   217          0
   224          2
   226         19
   227          6
   229         48
   230          3
   241          8
   242         18
   243        150
   244        834
   245        104
   246         11