##TITLE=Library Entry 63543
##JCAMP-DX=Revision 4.10 
##DATA TYPE=MASS SPECTRUM
##SAMPLE DESCRIPTION=Div. of Experiment Therapeutics WRAIR, WRAMC, Washingto
n DC 20307
##NAMES=HP
##CAS NAME=Pyrido(3,2-d)pyrimidine, 2,4-diamino-6-(N-ethylbenzylamino)-
##MOLFORM=C16H18N6
##CAS REGISTRY NO=93683-91-1
##MP= -300
##BP= -300
##MW= 294
##$RETENTION INDEX=0
##$CONDENSED SPECTRUM=NO
##NPOINTS= 162
##XYDATA=(XY..XY) 1 
    41         60
    42         67
    43        396
    44         33
    45         50
    46          8
    49          5
    50         22
    51         82
    52         92
    53         73
    54         38
    55         27
    56          8
    57          5
    61          4
    62         12
    63         57
    64         73
    65        322
    66         42
    67         20
    68         40
    69         17
    70          4
    73          5
    74          7
    75         15
    76         21
    77         78
    78         52
    79        125
    80         24
    81          9
    82         12
    83          4
    84          4
    85          2
    86          3
    88          3
    89         55
    90         37
    91        999
    92        115
    93         19
    94         10
    95         18
    96          5
    97          4
   101          3
   102          5
   103         19
   104         36
   105         46
   106         48
   107         33
   108         11
   109          3
   110          7
   111          6
   112          2
   115          7
   116         11
   117         19
   118         84
   119         55
   120         53
   121          9
   122         32
   123          3
   124          4
   127          3
   128          4
   129          2
   130          4
   131          8
   132         54
   133         39
   134        106
   135         17
   136          3
   139          3
   140          7
   142          6
   143         49
   144         24
   145         39
   146          6
   147         16
   148          6
   149          5
   150         11
   151          2
   152          3
   153         18
   154          3
   158          7
   159         27
   160         98
   161        123
   162         22
   163          4
   164          2
   165          2
   167          8
   168         32
   169          6
   170          9
   171          3
   172         13
   173          4
   174          6
   175         27
   176         27
   177          4
   178          3
   179          4
   180          2
   184          9
   185          4
   186        128
   187         24
   188         22
   189         23
   190          3
   192          3
   193          2
   194         10
   196         30
   197          4
   201         27
   202         15
   203        732
   204         86
   205          7
   206          3
   217         22
   219          4
   221         10
   222          3
   223          9
   224          3
   238          3
   246          3
   248         16
   249          2
   250          5
   251         52
   252          9
   260          4
   263          5
   264          5
   265        326
   266         62
   267          5
   276          3
   279         32
   280          4
   293         15
   294        497
   295        101
   296          8