##TITLE=Library Entry 32834
##JCAMP-DX=Revision 4.10 
##DATA TYPE=MASS SPECTRUM
##SAMPLE DESCRIPTION=Chemical Concepts
##NAMES=HP
##CAS NAME=4-Cyclohexylidenebutyraldehyde
##MOLFORM=C10H16O
##CAS REGISTRY NO=937-59-7
##MP= -300
##BP= -300
##MW= 152
##$RETENTION INDEX=0
##$CONDENSED SPECTRUM=NO
##NPOINTS= 100
##XYDATA=(XY..XY) 1 
    26         12
    27        249
    28         36
    29        219
    30          5
    31         12
    37          3
    38         14
    39        382
    40         69
    41        660
    42         61
    43        105
    44         15
    45         38
    46          2
    50         26
    51         86
    52         50
    53        224
    54        225
    55        462
    56         42
    57         67
    58          6
    59          2
    60          6
    61          2
    62          6
    63         24
    64          7
    65        110
    66         79
    67        999
    68        236
    69         86
    70        111
    71         23
    72          3
    73          4
    74          4
    75          3
    76          3
    77        169
    78        140
    79        710
    80        197
    81        917
    82        116
    83         59
    84        104
    85          9
    86          1
    87          3
    89          4
    91        218
    92        163
    93        490
    94        105
    95        163
    96        151
    97        237
    98         26
    99         17
   100          2
   101         25
   102          2
   103          8
   104          3
   105         62
   106         55
   107         52
   108        548
   109        151
   110         89
   111         41
   112          4
   113          1
   114          1
   115          5
   116          1
   117          4
   118          1
   119        106
   120         10
   121         34
   122          5
   123         34
   124         17
   125          6
   133         13
   134        499
   135         61
   136          4
   137         14
   138          3
   151         10
   152         15
   153          3
   154          0