##TITLE=Library Entry 61473
##JCAMP-DX=Revision 4.10 
##DATA TYPE=MASS SPECTRUM
##SAMPLE DESCRIPTION=MASS SPECTROMETRY CENTER, UNIV. OF UTAH ALDRICH P01665-
6
##NAMES=HP
##CAS NAME=Benzeneacetic acid, hydrazide
##MOLFORM=C8H10N2O
##CAS REGISTRY NO=937-39-3
##MP= -300
##BP= -300
##MW= 150
##$RETENTION INDEX=0
##$CONDENSED SPECTRUM=NO
##NPOINTS= 42
##XYDATA=(XY..XY) 1 
    16          0
    26          5
    27         29
    29         13
    30         10
    31         55
    32        406
    37         10
    38         24
    39         99
    40         11
    41         30
    43         12
    45          2
    46          3
    50         28
    51         50
    52         17
    61          9
    62         25
    63         59
    64         22
    65        166
    66         13
    74          6
    75          0
    76          0
    77         11
    78          8
    89         53
    90        104
    91        999
    92         98
    93          6
   104          1
   116          0
   117         15
   118        511
   119         55
   136          0
   150        251
   151         30