##TITLE=Library Entry 59024
##JCAMP-DX=Revision 4.10 
##DATA TYPE=MASS SPECTRUM
##SAMPLE DESCRIPTION=W.T.RAINEY OAK RIDGE NATIONAL LABORATORY,OAK RIDGE,TN.U
SA
##NAMES=HP
##CAS NAME=Benzenemethanamine, N-methyl-N-nitroso-
##MOLFORM=C8H10N2O
##CAS REGISTRY NO=937-40-6
##MP= -300
##BP= -300
##MW= 150
##$RETENTION INDEX=1294
##$CONDENSED SPECTRUM=NO
##NPOINTS= 56
##XYDATA=(XY..XY) 1 
    30        159
    37         19
    38         50
    39        229
    40         25
    41         76
    42        547
    43         89
    44         38
    46         12
    49          6
    50        121
    51        235
    52         63
    53         12
    54          6
    55          6
    56         25
    59          6
    61         12
    62         38
    63         82
    64         19
    65         63
    73          6
    74         25
    75         25
    76         31
    77        203
    78         70
    79         25
    80          6
    85          6
    86         12
    87          6
    88          6
    89         70
    90         38
    91        999
    92        108
    93         12
   101          6
   102         25
   103         82
   104         82
   105          6
   106          6
   116          6
   117          6
   118         76
   119         12
   120         63
   121         19
   133          6
   150         95
   151         12