##TITLE=Library Entry 52716
##JCAMP-DX=Revision 4.10 
##DATA TYPE=MASS SPECTRUM
##SAMPLE DESCRIPTION=Chemical Concepts
##NAMES=HP
##CAS NAME=Bicyclo[2.2.1]heptane-1-carboxylic acid, 7,7-dimethyl-
##MOLFORM=C10H16O2
##CAS REGISTRY NO=937-75-7
##MP= -300
##BP= -300
##MW= 168
##$RETENTION INDEX=0
##$CONDENSED SPECTRUM=NO
##NPOINTS= 126
##XYDATA=(XY..XY) 1 
    26         11
    27        212
    28         41
    29        157
    30          3
    31         21
    37          2
    38         11
    39        238
    40         45
    41        486
    42         55
    43        208
    44         11
    45         61
    46          4
    47          7
    50         16
    51         58
    52         31
    53        157
    54         67
    55        493
    56         67
    57         72
    58          8
    59         46
    60         33
    61          5
    62          5
    63         16
    64          4
    65         67
    66         36
    67        327
    68         82
    69        254
    70        709
    71         56
    72          5
    73         41
    74          8
    75          7
    76          3
    77        125
    78         44
    79        305
    80         95
    81        392
    82        107
    83        999
    84         73
    85         14
    86         57
    87         14
    88         14
    89          4
    90          2
    91         87
    92         18
    93        124
    94         72
    95        239
    96         54
    97         74
    98         22
    99         75
   100         19
   101          8
   102          2
   103          7
   104          3
   105         29
   106          9
   107        240
   108        127
   109         50
   110         13
   111        119
   112        317
   113         64
   114         11
   115          5
   116          2
   117          5
   118          2
   119          6
   120          3
   121         28
   122        364
   123        415
   124         50
   125        572
   126        264
   127         35
   128          3
   129          3
   130          2
   131          1
   132          2
   133          2
   134          9
   135         90
   136         14
   137          5
   138          4
   139         79
   140         77
   141          9
   143          3
   149         20
   150        179
   151         45
   152          6
   153        177
   154         18
   155          2
   157          1
   163          3
   164          2
   165          3
   166          4
   167          4
   168        685
   169         86
   170          9