##TITLE=Library Entry 97371
##JCAMP-DX=Revision 4.10 
##DATA TYPE=MASS SPECTRUM
##SAMPLE DESCRIPTION=A.A.Kutin, Moscow, Russia
##NAMES=HP
##CAS NAME=3-Buten-1-ol, 4-phenyl-
##MOLFORM=C10H12O
##CAS REGISTRY NO=937-58-6
##MP= -300
##BP= -300
##MW= 148
##$RETENTION INDEX=0
##$CONDENSED SPECTRUM=NO
##NPOINTS= 56
##XYDATA=(XY..XY) 1 
    37          4
    38          8
    39        106
    40          3
    43          1
    44          1
    50         39
    51        109
    52         19
    53          2
    57         17
    58          5
    62         18
    64         14
    65         69
    66          0
    70          1
    71          0
    74         22
    75          6
    76         13
    77         95
    78          8
    79         26
    85          4
    86          5
    87          5
    89         48
    90         10
    91        236
    92         22
   101          0
   102         28
   103         23
   104         35
   105         13
   106         26
   107         65
   108          0
   113          1
   115        538
   116        124
   117        999
   118        217
   119         13
   120         15
   121         12
   127         15
   128         18
   129         24
   130         20
   131          1
   142          1
   145         11
   148        270
   149         22