##TITLE=Library Entry 34925
##JCAMP-DX=Revision 4.10 
##DATA TYPE=MASS SPECTRUM
##SAMPLE DESCRIPTION=P.A. Leclercq, Lab. Instrum. Anal., Eindhoven Univ. Tec
hnol., Netherlands
##NAMES=HP
##CAS NAME=Benzonitrile, 2-fluoro-4-(4'-propyl[1,1'-bicyclohexyl]-4-yl)-
##MOLFORM=C22H30FN
##CAS REGISTRY NO=93743-04-5
##MP= -300
##BP= -300
##MW= 327
##$RETENTION INDEX=0
##$CONDENSED SPECTRUM=NO
##NPOINTS= 81
##XYDATA=(XY..XY) 1 
    27        106
    29        168
    39        107
    41        595
    42         59
    43        146
    51         14
    53         93
    54        171
    55        623
    56         43
    57        176
    65         29
    67        247
    69        999
    70         70
    71         15
    77         45
    79        106
    80         44
    81        248
    82        281
    83        593
    84         40
    91         24
    93         22
    94         25
    95        105
    96         54
    97         31
   107         65
   108         30
   109         89
   110         27
   111         29
   120         27
   121         51
   122         70
   123        120
   124         97
   125        235
   126         46
   134        326
   135         60
   137         19
   139         26
   145         18
   146         41
   147        189
   148        144
   149         31
   158         47
   160        142
   161         31
   162         21
   163         43
   171         19
   172         55
   173         31
   174         36
   175         23
   186         73
   188         30
   200         42
   201         72
   202        167
   203        228
   204        171
   205         26
   206         48
   207         39
   216         35
   217         17
   228         23
   230         12
   284         23
   285         16
   298         18
   307         19
   327        278
   328         64