##TITLE=Library Entry 78054
##JCAMP-DX=Revision 4.10 
##DATA TYPE=MASS SPECTRUM
##SAMPLE DESCRIPTION=F. TILLEQUIN, DEP. PHARMACOGN., UNIV. RENE DES., PARIS,
 FR.
##NAMES=HP
##CAS NAME=Maymyrsine
##MOLFORM=C32H37NO10
##CAS REGISTRY NO=93772-06-6
##MP= -300
##BP= -300
##MW= 595
##$RETENTION INDEX=0
##$CONDENSED SPECTRUM=NO
##NPOINTS= 114
##XYDATA=(XY..XY) 1 
    39         25
    40         22
    41         82
    42         22
    43        778
    44         38
    45         31
    47         29
    50         23
    51         50
    53         22
    55         97
    56         22
    57         91
    59         39
    67         35
    69         81
    70         22
    71         65
    77        177
    78        141
    79         72
    80         33
    81         47
    82         30
    83        248
    84         24
    85        147
    91         41
    93         32
    95         48
    96         24
    97         44
    99         35
   105        999
   106        347
   107         65
   108         22
   109         59
   111         29
   119         36
   121         44
   122         50
   123         82
   124        579
   125         70
   127         29
   131         31
   133         31
   134         25
   135         36
   137         41
   138         31
   139         33
   140         21
   143         52
   144         24
   145         42
   147         42
   148         21
   149         67
   150         31
   151         50
   152         22
   153         42
   155         22
   159         58
   160         42
   161         43
   163         27
   165         33
   166         33
   167         48
   172         22
   173         51
   174         50
   175         38
   177         39
   182         21
   187         38
   189         25
   190         29
   191         31
   192         37
   195         56
   201         27
   202         77
   203         45
   205         26
   211         29
   215         32
   217         21
   219         32
   220         42
   228         21
   230         28
   231         24
   233         29
   237         23
   247         22
   248         22
   253         33
   262         21
   265         22
   427         22
   431         43
   520         20
   536         10
   538         10
   539         18
   553         50
   554         17
   580         60
   595         75