##TITLE=Library Entry 81023
##JCAMP-DX=Revision 4.10 
##DATA TYPE=MASS SPECTRUM
##SAMPLE DESCRIPTION=F. TILLEQUIN, DEP. PHARMACOGN., UNIV. RENE DES., PARIS,
 FR.
##NAMES=HP
##CAS NAME=Acetylmaymyrsine
##MOLFORM=C34H39NO11
##CAS REGISTRY NO=93772-07-7
##MP= -300
##BP= -300
##MW= 637
##$RETENTION INDEX=0
##$CONDENSED SPECTRUM=NO
##NPOINTS= 71
##XYDATA=(XY..XY) 1 
    41         32
    43        490
    44         23
    51         34
    55         32
    57         28
    69         34
    77        139
    78        117
    79         54
    80         27
    83         74
    85         34
    91         23
   105        999
   106        356
   107         62
   109         29
   121         25
   123         31
   124        512
   125         43
   131         22
   133         20
   143         25
   145         24
   147         22
   159         36
   161         23
   166         42
   173         40
   174         50
   175         25
   187         21
   202         52
   203         20
   215         34
   228         36
   398         27
   501         20
   502          8
   507          5
   508          7
   517          4
   520         12
   521          4
   522          4
   535          6
   536          8
   537          7
   538          4
   539         17
   556          8
   562         16
   563          6
   575          4
   578          5
   579          4
   580         16
   582          4
   589          7
   590          4
   591          4
   592          4
   595        302
   596        109
   597         75
   609         11
   610          5
   622         74
   637         19