##TITLE=Library Entry 26896
##JCAMP-DX=Revision 4.10 
##DATA TYPE=MASS SPECTRUM
##SAMPLE DESCRIPTION=Z. Moldovan, Inst. Isotop. Mol. Technol., Cluj-Napoca,
 Romania
##NAMES=HP
##CAS NAME=Hexanoic acid, 2-ethyl-, octyl ester
##MOLFORM=C16H32O2
##CAS REGISTRY NO=93777-45-8
##MP= -300
##BP= -300
##MW= 256
##$RETENTION INDEX=0
##$CONDENSED SPECTRUM=NO
##NPOINTS= 64
##XYDATA=(XY..XY) 1 
    27        164
    29        381
    39         75
    40         15
    41        567
    42        164
    43        455
    44        821
    45         37
    53         22
    54         30
    55        380
    56        269
    57        999
    58         52
    59         15
    67         30
    68         45
    69        194
    70        269
    71        224
    72         15
    73        172
    74         15
    81         15
    82         67
    83        194
    84        164
    85         30
    87         97
    88        455
    89        224
    90         15
    97         45
    98         30
    99        134
   100         15
   101         75
   102          7
   103         15
   111          7
   112        254
   113         30
   115         60
   116         52
   117         45
   127        171
   128         15
   129         15
   143          7
   144         37
   145        851
   146         75
   147          7
   157         45
   158          7
   185          7
   200         45
   201          7
   227          3
   228         11
   229          2
   256          2
   257          0