##TITLE=Library Entry 24534
##JCAMP-DX=Revision 4.10 
##DATA TYPE=MASS SPECTRUM
##SAMPLE DESCRIPTION=Z. Moldovan, Inst. Isotop. Mol. Technol., Cluj-Napoca,
 Romania
##NAMES=HP
##CAS NAME=Hexanoic acid, 2-ethyl-, decyl ester
##MOLFORM=C18H36O2
##CAS REGISTRY NO=93777-46-9
##MP= -300
##BP= -300
##MW= 284
##$RETENTION INDEX=0
##$CONDENSED SPECTRUM=NO
##NPOINTS= 69
##XYDATA=(XY..XY) 1 
    27        122
    29        311
    30         11
    31         22
    39         56
    40         11
    41        533
    42        133
    43        678
    44        356
    45         22
    53         22
    54         44
    55        400
    56        233
    57        999
    58         44
    59         11
    67         33
    68         44
    69        178
    70        189
    71        133
    72         11
    73        111
    81         11
    82         66
    83        133
    84        100
    85         89
    86         11
    87         78
    88        322
    89        189
    90         11
    96         22
    97        122
    98         78
    99        111
   100         11
   101         56
   103         11
   110         10
   111         67
   112         67
   113         11
   115         44
   116         44
   117         33
   127        111
   128         11
   140        144
   141         22
   144         22
   145        667
   146         67
   155          2
   157          2
   171          1
   185         33
   186          4
   213          2
   228         19
   229          2
   241          1
   255          1
   256          7
   257          1
   284          2