##TITLE=Library Entry 84828
##JCAMP-DX=Revision 4.10 
##DATA TYPE=MASS SPECTRUM
##SAMPLE DESCRIPTION=Institute of Organic Chemistry, Novosibirsk, USSR 1988
##NAMES=HP
##CAS NAME=Bis(N-benzyloxycarbonylglycyl)diaza-18-crown-6
##MOLFORM=C32H44N4O10
##CAS REGISTRY NO=93788-19-3
##MP= -300
##BP= -300
##MW= 644
##$RETENTION INDEX=0
##$CONDENSED SPECTRUM=NO
##NPOINTS= 223
##XYDATA=(XY..XY) 1 
    50          2
    51          9
    52          6
    53          2
    54          3
    55          2
    56          8
    57          6
    58          6
    59          5
    60          3
    61          1
    63          3
    64          1
    65          6
    67          2
    68          2
    69          6
    70         11
    71          8
    72         18
    73          8
    74          3
    77         65
    78         62
    79        673
    80         67
    81          5
    82          7
    83          6
    84          5
    85          6
    86         16
    87         15
    88         14
    89         23
    90         45
    91         67
    92         12
    93          2
    94          5
    95          4
    96          4
    97          4
    98          7
    99          6
   100         16
   101          8
   102          3
   103          2
   105         26
   106         19
   107        369
   108        999
   109         89
   110          9
   111         11
   112         14
   113          8
   114         23
   115          6
   116          5
   117          2
   118          4
   122          3
   123          4
   124          6
   125          7
   126         20
   127         86
   128         23
   129          6
   130          6
   131          3
   132          6
   133          3
   134          2
   137          4
   138          3
   139          3
   140         19
   141         23
   142         14
   143          5
   144         10
   145          6
   146          3
   150          4
   151          2
   152         16
   153         28
   154         14
   155         32
   156         21
   157          6
   158         12
   159          3
   160          3
   167          6
   168          8
   169         18
   170         15
   171         32
   172          7
   173          3
   174          2
   180          2
   181          2
   182          2
   183          7
   184         21
   185          9
   186          3
   187          4
   188          2
   189          6
   190          2
   194          3
   195          2
   196          3
   197          9
   198          6
   199          8
   200          3
   201          4
   202          4
   203          2
   211          2
   212          2
   213         15
   214          7
   215         43
   216          9
   217          4
   218          5
   219         13
   220          2
   221          2
   227          6
   228          3
   229          3
   230          2
   231          3
   233          2
   234          2
   235          3
   240          3
   241          6
   242          4
   243          2
   244          5
   245          2
   246          2
   252          3
   253          2
   254          3
   255          2
   256          2
   257          2
   258          3
   259          3
   260          4
   261          2
   270         10
   271          2
   272          3
   273          2
   275          2
   277          2
   278          2
   279          2
   284          7
   285          2
   286          2
   300          1
   301          2
   302          2
   303          2
   321          2
   322          2
   323          6
   325          2
   326          2
   327          2
   328          7
   329          2
   330          2
   339          2
   340          2
   341          5
   342          3
   344          3
   345          2
   346          5
   348          2
   353          1
   354          1
   358          3
   367          2
   368          1
   372          3
   373          2
   383          3
   384          2
   385         10
   386          2
   401          2
   403          2
   428          2
   429          3
   448          1
   449          1
   454          3
   480          1
   481          2
   510          1
   537          4
   538          2
   558          1
   583          1
   644          2
   645          1
   646          0