##TITLE=Library Entry 21437
##JCAMP-DX=Revision 4.10 
##DATA TYPE=MASS SPECTRUM
##SAMPLE DESCRIPTION=A. THALEN, RES. DEV. LAB., AB DRACO, LUND, SWEDEN
##NAMES=HP
##CAS NAME=(22S)-21-Acetoxy-6.alpha.,11.beta.-dihydroxy-16.alpha.,17.alpha.-
propylmethylenedioxypregna-1,4-diene-3,20-dione
##MOLFORM=C27H36O8
##CAS REGISTRY NO=93789-66-3
##MP= -300
##BP= -300
##MW= 488
##$RETENTION INDEX=0
##$CONDENSED SPECTRUM=NO
##NPOINTS= 443
##XYDATA=(XY..XY) 1 
    46         11
    47          9
    48          3
    49         11
    50         39
    51         66
    52         32
    53        171
    54         42
    55        999
    56        128
    57        411
    58         32
    59         65
    60         78
    61         22
    62          7
    63         22
    64         11
    65        128
    66          3
    67        241
    68         54
    69        255
    70        161
    71        389
    72         46
    73        368
    74         36
    75         26
    76         47
    77        375
    78        105
    79        415
    80        103
    81        349
    82         61
    83        155
    84         60
    85         66
    86         17
    87         47
    88         11
    89         31
    90         35
    91        583
    92        109
    93        316
    94        106
    95        262
    96         76
    97        133
    98         69
    99         83
   100         22
   101        304
   102         36
   103         86
   104         97
   105        503
   106        148
   107        434
   108        208
   109        555
   110         85
   111        133
   112         77
   113        113
   114         26
   115        183
   116         81
   117        176
   118         66
   119        251
   120        125
   121        920
   122        532
   123        201
   124         58
   125         58
   126         21
   127         82
   128        115
   129        219
   130         99
   131        270
   132        131
   133        280
   134        355
   135        506
   136        156
   137        437
   138        183
   139         90
   140         29
   141        106
   142         69
   143        159
   144        120
   145        340
   146        114
   147        457
   148        109
   149        736
   150        283
   151        113
   152         56
   153         90
   154         96
   155        207
   156         84
   157        163
   158        147
   159        399
   160        138
   161        255
   162         70
   163        153
   164         40
   165        110
   166         47
   167        232
   168         54
   169         93
   170         54
   171        269
   172        223
   173        235
   174         70
   175        125
   176         86
   177         86
   178         51
   179         98
   180         56
   181        110
   182         56
   183        104
   184         67
   185        177
   186         84
   187        138
   188         56
   189        130
   190         41
   191         76
   192         40
   193         76
   194         53
   195        141
   196         79
   197        195
   198         82
   199        121
   200         48
   201         70
   202         73
   203         78
   204         64
   205         87
   206         72
   207        115
   208         75
   209        208
   210         85
   211        167
   212         92
   213        138
   214        101
   215        286
   216         60
   217         58
   218         46
   219         58
   220         49
   221        142
   222          0
   223        294
   224        131
   225        209
   226         70
   227        112
   228         51
   229         42
   230         33
   231         36
   232         28
   233        106
   234         53
   235        189
   236        104
   237        245
   238        150
   239        138
   240         70
   241        141
   242         65
   243         49
   244         38
   245         37
   246         56
   247         78
   248         60
   249        167
   250         77
   251        209
   252         82
   253        152
   254         60
   255         86
   256        161
   257         57
   258         21
   259         46
   260          0
   261        148
   262         82
   263        185
   264        110
   265        132
   266         62
   267        137
   268         60
   269         77
   270         34
   271         34
   272         23
   273         25
   274         71
   275         56
   276         40
   277        137
   278         60
   279        350
   280        141
   281        187
   282        116
   283         46
   284         21
   285         39
   286          0
   287         26
   288         16
   289         33
   290         19
   291         50
   292         35
   293         54
   294         66
   295        172
   296         57
   297        304
   298         82
   299         37
   300         15
   301         15
   302         22
   303         42
   304         27
   305         57
   306         22
   307         41
   308         29
   309         59
   310         34
   311         33
   312         40
   313         52
   314         21
   315         79
   316         29
   317         15
   318         19
   319         19
   320         79
   321         87
   322         33
   323         55
   324         23
   325         36
   326         21
   327         30
   328         15
   329         12
   330          7
   331          9
   332          6
   333         29
   334         29
   335         21
   336         33
   337         43
   338         97
   339         92
   340          0
   341         30
   342         12
   343         13
   344          8
   345         17
   346         10
   347          9
   348         19
   349         16
   350          9
   351        121
   352         52
   353         27
   354         40
   355         26
   356         43
   357         41
   358         16
   359         13
   360          6
   361          5
   362          9
   363         38
   364         20
   365         17
   366         18
   367         23
   368         15
   369        190
   370         51
   371         26
   372         12
   373         18
   374         11
   375          7
   376          4
   377          5
   378          4
   379          7
   380         31
   381         77
   382         28
   383         20
   384         11
   385         74
   386         29
   387        841
   388        213
   389          0
   390          8
   391          4
   392         10
   393          6
   394          4
   395          4
   396          6
   397          6
   398         43
   399         36
   400         13
   401         15
   402          8
   403          9
   404          5
   405          8
   406          4
   407         30
   408         11
   409          9
   410         21
   411          8
   412          5
   413          4
   414          5
   415          8
   416         41
   417         12
   418          5
   419          4
   420          3
   421          3
   422          3
   423          3
   424          3
   425          3
   426         11
   427         19
   428         18
   429          8
   430          5
   431          3
   432          2
   435          4
   436          3
   437          4
   438          2
   439          2
   440          2
   441          5
   442          6
   443         16
   444          8
   445        121
   446         35
   447          8
   448          3
   449          2
   451         10
   452         41
   453         14
   454          6
   455          5
   456          3
   457          3
   458          3
   459          3
   460          3
   461          3
   462          2
   463          2
   464          2
   465          2
   466          2
   468          4
   469          5
   470         60
   471         24
   472          8
   473          5
   474          5
   475          3
   476          2
   477          2
   478          2
   479          2
   480          2
   481          2
   482          2
   483          2
   484          3
   485          2
   486          7
   487          7
   488         66
   489         25
   490          7
   491          6
   492          3