##TITLE=Library Entry 83295
##JCAMP-DX=Revision 4.10 
##DATA TYPE=MASS SPECTRUM
##SAMPLE DESCRIPTION=Institute of Organic Chemistry, Novosibirsk, USSR 1988
##NAMES=HP
##CAS NAME=(R,R)-Bis(phenylglycyl)diaza-18-crown-6
##MOLFORM=C28H40N4O6
##CAS REGISTRY NO=93788-01-3
##MP= -300
##BP= -300
##MW= 528
##$RETENTION INDEX=0
##$CONDENSED SPECTRUM=NO
##NPOINTS= 217
##XYDATA=(XY..XY) 1 
    51         19
    53         23
    55         26
    56        126
    57         43
    58         73
    59         19
    60         23
    61         13
    67         19
    69         83
    70        119
    71         63
    72         83
    73         23
    77         29
    78         53
    79         26
    81         16
    82         29
    83         29
    84         26
    85         73
    86        103
    87        126
    88        109
    89         33
    91         46
    92         36
    94         56
    95         23
    96         23
    97         29
    98         39
    99         79
   100         83
   101         36
   102         33
   103        133
   104        273
   105        216
   106        999
   107         66
   108         26
   112         33
   113         63
   114        116
   115         49
   116         86
   117         26
   118         86
   119         33
   120        106
   121         23
   123         29
   125         19
   128         63
   129         43
   130         46
   131         59
   132        269
   133         56
   134         39
   135         26
   139         29
   141         23
   142         26
   144         53
   145         29
   146         46
   147         29
   148         63
   150         19
   156         19
   157         36
   158         66
   159         39
   160        106
   161         46
   162         29
   172         39
   173         63
   174         59
   175         39
   176         39
   177         36
   178         79
   185         66
   186         39
   187         53
   188         23
   189         49
   190        106
   191         23
   192         46
   194        146
   195         33
   200         43
   201         63
   202         89
   203         73
   204         66
   205         29
   206         23
   207         23
   213         33
   215         43
   216         66
   217         43
   218         33
   219         56
   220         53
   221         33
   222         43
   223         19
   229         56
   230         33
   231         69
   232         33
   233         69
   234         29
   235         23
   236         33
   237         53
   244         23
   245         53
   246         23
   247        116
   248         63
   249         49
   250         59
   251         23
   252         23
   256         73
   257         39
   258         33
   259         59
   260         33
   261        116
   262         43
   263        249
   264         66
   265         66
   266         23
   267         26
   272         23
   273         26
   274        166
   275         39
   277         26
   278         26
   279         43
   284         29
   288         39
   289         56
   290         56
   291        306
   292         56
   293         53
   294         23
   302         39
   305         19
   307         39
   308         56
   309         86
   310         59
   311         33
   318         43
   319         33
   320         23
   321         33
   323         26
   325         39
   327        433
   328        126
   329         19
   332         19
   333         33
   335         36
   336         26
   337         53
   338         29
   339         23
   347         23
   348         29
   349         39
   350         19
   351         23
   353         23
   354         23
   363         23
   364         23
   365        146
   366         33
   367         59
   368         23
   375         23
   376         33
   377         56
   378         39
   379         19
   380         66
   381         23
   392        176
   393         83
   394         99
   395         76
   396         23
   406         16
   407         23
   408         19
   421         29
   422        116
   423         53
   527          9
   528         26
   529         13