##TITLE=Library Entry 82812
##JCAMP-DX=Revision 4.10 
##DATA TYPE=MASS SPECTRUM
##SAMPLE DESCRIPTION=Chemical Concepts
##NAMES=HP
##CAS NAME=1,3,2-Dioxaphosphorinane-2-methanol, 2-oxo-.alpha.-phenyl-
##MOLFORM=C10H13O4P
##CAS REGISTRY NO=93786-70-0
##MP= -300
##BP= -300
##MW= 228
##$RETENTION INDEX=0
##$CONDENSED SPECTRUM=NO
##NPOINTS= 119
##XYDATA=(XY..XY) 1 
    24          0
    25          3
    26         46
    27        155
    28        587
    29        124
    30         57
    31        121
    33          0
    36          2
    37         24
    38         32
    39         88
    40         14
    41         84
    42         64
    43         28
    44          4
    45         34
    46         12
    47        106
    48         11
    49         18
    50        156
    51        316
    52         78
    53         12
    54          0
    55          8
    56          1
    57        229
    58        781
    59         29
    60          2
    61          8
    62         12
    63         19
    64          4
    65        218
    66         30
    67          5
    68          0
    69          2
    70          2
    71          1
    72          0
    73         12
    74         49
    75         27
    76         33
    77        797
    78        114
    79         10
    80          0
    81          5
    82         13
    83        156
    84          1
    85          5
    86          3
    87          5
    89          5
    90          5
    91         20
    92         57
    93         10
    94         10
    95         27
    96         71
    97          1
    99          0
   100          0
   101          0
   102          3
   103          1
   104         15
   105        952
   106        999
   107         77
   108          5
   109          1
   110          0
   111          3
   112          0
   113          0
   114          0
   115          1
   118          0
   119          0
   120          0
   121         32
   122         26
   123         13
   124          0
   129          2
   130          5
   131          0
   134          1
   135          0
   136          0
   137          1
   139          0
   140          0
   150          0
   151          0
   153          0
   155          0
   165          0
   166          0
   167          0
   169          0
   179          0
   187          4
   188          0
   199          0
   200          1
   228         18
   229          1
   230          0