##TITLE=Library Entry 21382
##JCAMP-DX=Revision 4.10 
##DATA TYPE=MASS SPECTRUM
##SAMPLE DESCRIPTION=K. Jacobson, LBC, NIDDK, NIH, Bethesda, MD 20892
##NAMES=HP
##CAS NAME=2,5-Pyrrolidione, N-[2-(thienyl)acetyloxy]-
##MOLFORM=C10H9NO4S
##CAS REGISTRY NO=93799-48-5
##MP= -300
##BP= -300
##MW= 239
##$RETENTION INDEX=0
##$CONDENSED SPECTRUM=NO
##NPOINTS= 158
##XYDATA=(XY..XY) 1 
    41        167
    42        534
    43        424
    44        244
    45        200
    46         22
    47          9
    48          1
    49         20
    50         10
    51         27
    52         24
    53         77
    54         76
    55        999
    56        628
    57        140
    58         22
    59        278
    60         16
    61        133
    62          6
    63          8
    64          2
    65          5
    66          2
    67         20
    68         11
    69         52
    70        263
    71         23
    72          8
    73         16
    74         16
    75          2
    76          1
    77         12
    78         14
    79         12
    80         33
    81         20
    82         25
    83         36
    84         31
    85         18
    86         16
    87        632
    88         27
    89          5
    90          0
    91          1
    92          1
    93          2
    94          2
    95          6
    96         16
    97        276
    98        172
    99        191
   100         53
   101          8
   102          1
   103          0
   105          2
   106          8
   107         36
   108          3
   109          2
   110          4
   111         15
   112         11
   113         17
   114          7
   115        954
   116        161
   117         14
   118          1
   119          1
   121          2
   122          2
   123          2
   124         12
   125         22
   126          6
   127          7
   128          2
   129          1
   130          2
   131          1
   132          1
   133          0
   134          1
   135          3
   136          0
   137          1
   138          1
   139          1
   140          5
   141          4
   142         54
   143        120
   144         12
   145          2
   146          3
   147          1
   149          2
   151          1
   152          1
   153          4
   154          2
   155          2
   156          1
   157         45
   158          6
   159          7
   160          1
   161          1
   163          1
   166          2
   167          2
   168          1
   169          1
   170          3
   171          1
   172          0
   173          0
   177          0
   178          2
   179          2
   181          4
   182          1
   183          0
   184          0
   186          1
   187          0
   189          1
   191          0
   192          0
   193          2
   195          2
   196          0
   203          0
   205          2
   206          0
   209          0
   213          4
   214          0
   220          1
   221          2
   223          4
   224          0
   225          0
   226          1
   232          1
   237          1
   238          2
   239          6
   240          0