##TITLE=Library Entry 96803
##JCAMP-DX=Revision 4.10 
##DATA TYPE=MASS SPECTRUM
##SAMPLE DESCRIPTION=V.A.Korolev, Moscow, Russia
##NAMES=HP
##CAS NAME=2(1H)-Quinolinone, 4-bromo-
##MOLFORM=C9H6BrNO
##CAS REGISTRY NO=938-39-6
##MP= -300
##BP= -300
##MW= 223
##$RETENTION INDEX=0
##$CONDENSED SPECTRUM=NO
##NPOINTS= 92
##XYDATA=(XY..XY) 1 
    34          5
    36          6
    37        118
    38        189
    39        178
    40         77
    41         32
    42         13
    43         71
    44        102
    46         13
    47          8
    49         41
    50        214
    51        144
    52        105
    53         39
    54          3
    55          4
    56         24
    58        283
    60         15
    61        135
    62        309
    63        378
    64         93
    65         59
    66         18
    71          3
    72          6
    73         20
    74        105
    75         70
    76         50
    77         18
    78         11
    79         26
    80          9
    81         26
    82         12
    83          3
    84          9
    85         43
    86         78
    87        157
    88        199
    89        455
    90         65
    91          3
    97          5
    98        147
    99        124
   100         15
   102         16
   105         21
   106          5
   112         19
   113         18
   114        210
   115        332
   116        999
   117        123
   118          2
   119         11
   121         11
   127          4
   128          6
   132          3
   133          4
   134          4
   143          4
   144         16
   145          1
   166          6
   167         62
   168         12
   169         57
   170          5
   180          9
   181          2
   182          9
   183          2
   194         61
   195        224
   196         84
   197        215
   198         16
   222         14
   223        510
   224         54
   225        506
   226         35