##TITLE=Library Entry 79457
##JCAMP-DX=Revision 4.10 
##DATA TYPE=MASS SPECTRUM
##SAMPLE DESCRIPTION=Chemical Concepts
##NAMES=HP
##CAS NAME=1-Butanone, 2-methyl-1-phenyl-
##MOLFORM=C11H14O
##CAS REGISTRY NO=938-87-4
##MP= -300
##BP= -300
##MW= 162
##$RETENTION INDEX=1262
##$CONDENSED SPECTRUM=NO
##NPOINTS= 73
##XYDATA=(XY..XY) 1 
    26          2
    27         14
    28         15
    29         34
    30          0
    31          0
    32          3
    38          0
    39         14
    40          2
    41         33
    42          2
    43          3
    44          0
    50         12
    51         54
    52          8
    53          2
    54          0
    55          8
    56          8
    57         12
    62          0
    63          2
    64          1
    65          1
    69          5
    73          1
    74          0
    75          5
    76         30
    77        293
    78         25
    79          6
    80          0
    81          0
    83          0
    88          0
    91          6
    92          0
   102          2
   103         70
   104         10
   105        999
   106         79
   107          7
   111          0
   115          2
   116          1
   117          1
   119          1
   120          2
   127          1
   128          0
   129          2
   130          0
   131          2
   132          1
   133          8
   134         54
   135          6
   136          0
   143          0
   144          2
   145          0
   146          0
   147          5
   148          0
   160          0
   161          3
   162        123
   163         15
   164          1