##TITLE=Library Entry 79460
##JCAMP-DX=Revision 4.10 
##DATA TYPE=MASS SPECTRUM
##SAMPLE DESCRIPTION=Chemical Concepts
##NAMES=HP
##CAS NAME=Phenyl tert-butyl ketone
##MOLFORM=C11H14O
##CAS REGISTRY NO=938-16-9
##MP= -300
##BP= -300
##MW= 162
##$RETENTION INDEX=1233
##$CONDENSED SPECTRUM=NO
##NPOINTS= 76
##XYDATA=(XY..XY) 1 
    26          2
    27         24
    28          4
    29         80
    30          2
    37          0
    38          3
    39         33
    40          0
    41        126
    42          9
    43          2
    49          0
    50         26
    51         91
    52          6
    53          2
    54          0
    55          6
    56         22
    57        127
    58          5
    62          1
    63          2
    64          2
    65          1
    66          0
    69          4
    70          1
    73          0
    74          2
    75          5
    76         10
    77        246
    78         25
    79          7
    80          0
    83          0
    86          0
    91         10
    92          1
   101          0
   102          1
   103          2
   104          3
   105        999
   106         76
   107         35
   108          1
   109          0
   111          0
   113          0
   115          2
   116          1
   117          0
   119         13
   120          2
   123          1
   127          0
   128          1
   129          3
   130          0
   131          1
   132          0
   139          2
   140          0
   141          1
   144          0
   145          0
   146          0
   147          3
   148          0
   161          0
   162        142
   163         17
   164          1