##TITLE=Library Entry 71136
##JCAMP-DX=Revision 4.10 
##DATA TYPE=MASS SPECTRUM
##SAMPLE DESCRIPTION=Chemical Concepts
##NAMES=HP
##CAS NAME=Pyrrolidine-2-carboxylic acid, 1-ethyl-, ethyl ester
##MOLFORM=C9H17NO2
##CAS REGISTRY NO=938-54-5
##MP= -300
##BP= -300
##MW= 171
##$RETENTION INDEX=0
##$CONDENSED SPECTRUM=NO
##NPOINTS= 72
##XYDATA=(XY..XY) 1 
    26          6
    27         56
    29         67
    30         14
    31          3
    37          0
    38          1
    39         21
    40          6
    41         87
    42         37
    43         73
    44          8
    45          5
    51          1
    52          1
    53          7
    54         24
    55         31
    56         55
    57          3
    58          9
    59          7
    60          0
    65          0
    66          0
    67          5
    68         59
    69         22
    70        260
    71         20
    72          1
    73          1
    74          0
    77          0
    79          0
    80          3
    81          1
    82         18
    83         12
    84          6
    85          1
    86          1
    93          0
    94          1
    95          1
    96         54
    97         16
    98        999
    99        161
   100          8
   102          7
   111          0
   112          0
   113          0
   114          8
   124          0
   126          0
   128          7
   129          0
   130         24
   131          2
   140          0
   142          8
   143          0
   156          4
   157          0
   167          0
   170          5
   171         44
   172          6
   173          0