##TITLE=Library Entry 11111
##JCAMP-DX=Revision 4.10 
##DATA TYPE=MASS SPECTRUM
##SAMPLE DESCRIPTION=J. Klune, Insect Chem. Ecol. Lab., USDA, Beltsville, MD
 20705
##NAMES=HP
##CAS NAME=8-Tetradecyn-1-ol acetate
##MOLFORM=C16H28O2
##CAS REGISTRY NO=93827-22-6
##MP= -300
##BP= -300
##MW= 252
##$RETENTION INDEX=0
##$CONDENSED SPECTRUM=NO
##NPOINTS= 169
##XYDATA=(XY..XY) 1 
    41        432
    42         68
    43        999
    44         28
    45          7
    47          0
    50          4
    51         21
    52         46
    53        115
    54        500
    55        445
    56         59
    57         71
    58          6
    59          2
    61         90
    62          2
    63          5
    64          0
    65         59
    66         97
    67        627
    68        542
    69        204
    70         22
    71         28
    72          3
    73         25
    74          1
    75          1
    77         82
    78         37
    79        472
    80        334
    81        721
    82        432
    83        162
    84         22
    85         29
    86          3
    87          3
    88          0
    89          2
    91         90
    92         17
    93        427
    94        253
    95        445
    96        162
    97         66
    98         12
    99          5
   100          1
   101         10
   102          1
   103          2
   104          1
   105         26
   106         11
   107        276
   108        154
   109        148
   110        723
   111         97
   112          7
   113          2
   114          1
   115          2
   116          0
   117          3
   118          1
   119         10
   120          7
   121        355
   122         82
   123         58
   124        114
   125         17
   126          3
   127          2
   128          1
   129          3
   131          2
   132          0
   133          5
   134          3
   135        123
   136        145
   137         38
   138         10
   139          4
   140          1
   141          1
   143          7
   144          0
   145          1
   147          3
   148          1
   149         43
   150        135
   151         25
   152          3
   153          4
   154          1
   155          0
   157          0
   159          0
   161          2
   162          0
   163         24
   164         16
   165          6
   166          1
   167          6
   168          1
   169          3
   170          0
   171          0
   173          0
   175          2
   176          0
   177          7
   178          1
   179          1
   180          0
   181          1
   182          0
   185          0
   186          0
   187          0
   189          1
   190          0
   191          7
   192         22
   193         17
   194          4
   195          1
   196          3
   197          0
   203          0
   204          0
   205          1
   206          0
   207          1
   208          0
   209          4
   210         12
   211          5
   212          1
   217          1
   219          1
   220          0
   223          1
   224          2
   225          0
   231          0
   233          0
   235          2
   236          0
   237          2
   245          0
   247          0
   249          1
   250          0
   251          3
   252          9
   253          5
   254          0