##TITLE=Library Entry 64616
##JCAMP-DX=Revision 4.10 
##DATA TYPE=MASS SPECTRUM
##SAMPLE DESCRIPTION=Div. of Experiment Therapeutics WRAIR, WRAMC, Washingto
n DC 20307
##NAMES=HP
##CAS NAME=5-Nitro-N,N-bis[phenylmethyl]-2,4-pyrimidinediamine
##MOLFORM=C18H17N5O2
##CAS REGISTRY NO=93873-71-3
##MP= -300
##BP= -300
##MW= 335
##$RETENTION INDEX=0
##$CONDENSED SPECTRUM=NO
##NPOINTS= 185
##XYDATA=(XY..XY) 1 
    41         21
    42          4
    43         13
    44         11
    45          1
    47          5
    48          2
    49         26
    50          9
    51         42
    52         31
    53         16
    54          8
    55         10
    56          2
    57          4
    60          0
    62          3
    63         22
    64          8
    65        183
    66         22
    67         10
    68         19
    69          6
    70          2
    71          2
    73          0
    74          1
    75          3
    76          6
    77         65
    78         22
    79         54
    80          9
    81          5
    82          2
    83          2
    84         21
    85          1
    86         13
    87          0
    88          3
    89         37
    90         21
    91        999
    92         88
    93          8
    94         26
    95          7
    96          7
    97          2
    98          0
    99          0
   100          0
   101          3
   102          7
   103         12
   104         60
   105        110
   106        161
   107         19
   108          3
   109          1
   110          0
   111          2
   113          0
   114          2
   115          7
   116         14
   117         12
   118          5
   119          6
   120          0
   121          2
   122          3
   123          1
   124          1
   127          2
   128         14
   129         13
   130         10
   131         33
   132          5
   133          2
   134          0
   135          0
   136          0
   138          0
   139          0
   140          4
   141          3
   142          8
   143         19
   144          7
   145          2
   146          0
   147         17
   148          2
   149          0
   150          3
   152          0
   153          4
   154          3
   155         16
   156          7
   157          8
   158          4
   159          2
   160          1
   165          2
   166          0
   167          7
   168          4
   169          4
   170         13
   171          6
   172          1
   178          0
   179          0
   180          3
   181          2
   182         12
   183         12
   184         15
   185         10
   186          2
   187          0
   195          5
   196          4
   197         26
   198         24
   199          4
   200          0
   207          3
   208          0
   209          7
   210          3
   211          6
   212          9
   213          5
   214         15
   215          4
   216          1
   224          3
   225          0
   226          1
   227          2
   228          1
   229        154
   230         26
   231          3
   240          4
   241          0
   242          2
   243          0
   244         13
   245          3
   258          2
   259          0
   260          2
   261          0
   270          0
   271          0
   285          3
   286          2
   287         86
   288         19
   289          3
   290          1
   300         21
   301          5
   302          9
   303          2
   305          0
   314          0
   316          1
   317          9
   318        303
   319         64
   320          7
   334         11
   335        178
   336         38
   337          4