##TITLE=Library Entry 55981
##JCAMP-DX=Revision 4.10 
##DATA TYPE=MASS SPECTRUM
##SAMPLE DESCRIPTION=Japan AIST/NIMC Database- Spectrum MS-IW-6843
##NAMES=HP
##CAS NAME=N-Isovaleryl-dl-norleucine
##MOLFORM=C11H21NO3
##CAS REGISTRY NO=93882-93-0
##MP= -300
##BP= -300
##MW= 215
##$RETENTION INDEX=0
##$CONDENSED SPECTRUM=NO
##NPOINTS= 115
##XYDATA=(XY..XY) 1 
    15          2
    17          7
    18          1
    26          1
    27         36
    28         30
    29         73
    30         66
    31          2
    38          1
    39         27
    40          5
    41        142
    42         30
    43        122
    44         84
    45          9
    46          2
    51          1
    52          1
    53          6
    54         10
    55         42
    56         68
    57        304
    58         17
    59         70
    60         14
    65          1
    66          1
    67          7
    68          7
    69         61
    70         35
    71         11
    72          6
    73         17
    74         32
    75         14
    76         19
    77          1
    80          1
    81          2
    82          4
    83         11
    84         38
    85        254
    86        999
    87         72
    88         37
    89          6
    90          1
    95          2
    96         11
    97          8
    98          9
    99         41
   100         24
   101         26
   102         73
   103          4
   110         17
   111         10
   112         43
   113         70
   114         23
   115         10
   116          7
   117         73
   118          4
   125          1
   126          6
   127         91
   128         58
   129         13
   130         73
   131         24
   132         42
   133          3
   137          1
   138          1
   140          4
   141        120
   142         15
   143          2
   144          3
   145          6
   153          1
   154         40
   155        115
   156         22
   157          2
   158         18
   159        221
   160         17
   161          2
   168          2
   169          3
   170         88
   171         23
   172          6
   173        100
   174          9
   175          1
   182          2
   186         10
   187          1
   197         18
   198          4
   200          6
   201          1
   214          2
   215         68
   216         15
   217          2