##TITLE=Library Entry 24001
##JCAMP-DX=Revision 4.10 
##DATA TYPE=MASS SPECTRUM
##SAMPLE DESCRIPTION=A.A.Kutin, Moscow, Russia
##NAMES=HP
##CAS NAME=m-Nitro carbanilic acid, n-heptyl ester
##MOLFORM=C14H20N2O4
##CAS REGISTRY NO=93896-50-5
##MP= -300
##BP= -300
##MW= 280
##$RETENTION INDEX=0
##$CONDENSED SPECTRUM=NO
##NPOINTS= 133
##XYDATA=(XY..XY) 1 
    33          3
    34          4
    36          2
    37          3
    38         60
    39        274
    40         65
    41        720
    43        813
    44        229
    45         21
    46         12
    48          2
    50         65
    51         56
    52         56
    53         52
    55        327
    57        999
    58         33
    59          7
    61          9
    62         38
    63        110
    64        104
    65        109
    66         19
    67         25
    68         26
    69         71
    70         70
    71         29
    72          6
    73         11
    74         16
    75         30
    76         65
    77         28
    78         23
    79         33
    80         49
    81         19
    82          9
    83         21
    84          8
    85          5
    86          1
    87          4
    88          4
    90        117
    91        224
    92        101
    93         26
    94          6
    95          6
    96          8
    97         34
    98         20
    99          4
   100          1
   101          1
   103          0
   104          4
   105         12
   106         22
   107         12
   108         42
   109          7
   110          5
   111          4
   112          7
   113          4
   114          0
   115          4
   118         30
   119         14
   120          5
   122         12
   123          2
   124          1
   125          3
   127          2
   128          3
   129          1
   130          1
   131          2
   132          5
   134         12
   135         17
   136         11
   137         29
   138        223
   139         16
   140          1
   141          0
   143         28
   144          2
   146          3
   148          6
   149          6
   150          3
   151         13
   152          8
   153          3
   160          3
   161          2
   162          1
   164         41
   165         42
   166         36
   167          4
   168          6
   170          0
   171          8
   172          0
   173          2
   179         11
   180          4
   181          5
   182        162
   183         70
   184          8
   185          1
   187          0
   193          8
   194          1
   207          7
   208          0
   219          0
   224          1
   250          4
   280         37
   281          5