##TITLE=Library Entry 79183
##JCAMP-DX=Revision 4.10 
##DATA TYPE=MASS SPECTRUM
##SAMPLE DESCRIPTION=Q. Pu, LBC, NIDDK, NIH, Bethesda, MD 20892
##NAMES=HP
##CAS NAME=.gamma.-Chlorobutyrophenone
##MOLFORM=C10H11ClO
##CAS REGISTRY NO=939-52-6
##MP= -300
##BP= -300
##MW= 182
##$RETENTION INDEX=0
##$CONDENSED SPECTRUM=NO
##NPOINTS= 121
##XYDATA=(XY..XY) 1 
    41         56
    42         16
    43         21
    44         28
    45          4
    47          1
    48          2
    49         27
    50         64
    51        196
    52         15
    53          6
    54          2
    55         24
    56          5
    57         16
    58          2
    59          0
    60          2
    61          3
    62         11
    63         14
    64          6
    65         13
    66          2
    67          4
    68          3
    69         10
    70          4
    71          7
    72          2
    73          5
    74         18
    75         17
    76         30
    77        543
    78         66
    79          8
    80          0
    81          4
    82          4
    83          8
    84          6
    85          5
    86          3
    87          2
    88          0
    89          6
    90          1
    91         25
    92          4
    93          1
    94          0
    95          3
    96          2
    97          7
    98          2
    99          2
   101          1
   102          3
   103          7
   104         12
   105        999
   106         82
   107          7
   108          1
   109          2
   110          1
   111          4
   112          1
   113          1
   115         10
   116          2
   117          3
   118          1
   119          5
   120        347
   121         32
   122          5
   123          6
   124          2
   125          2
   126          1
   127          3
   128          2
   129          2
   131          2
   132          0
   133          7
   134          2
   135          0
   136          0
   137          0
   138          0
   139          1
   141          1
   145          2
   146          6
   147         22
   148          2
   149          2
   150          1
   151          1
   152          0
   153          0
   154          0
   155          0
   159          0
   162          0
   163          0
   164          3
   165          1
   166          0
   167          2
   168          0
   169          1
   181          1
   182         49
   183          6
   184         15
   185          2