##TITLE=Library Entry 97311
##JCAMP-DX=Revision 4.10 
##DATA TYPE=MASS SPECTRUM
##SAMPLE DESCRIPTION=NIST Mass Spectrometry Data Center, 2010
##NAMES=HP
##CAS NAME=Cyclopropanecarbonyl chloride, 2-phenyl-, trans-
##MOLFORM=C10H9ClO
##CAS REGISTRY NO=939-87-7
##MP= -300
##BP= -300
##MW= 180
##$RETENTION INDEX=1415
##$CONDENSED SPECTRUM=NO
##NPOINTS= 98
##XYDATA=(XY..XY) 1 
    14          1
    15          1
    25          1
    26          8
    27         25
    28          5
    29          1
    35          3
    36          5
    37          8
    38         24
    39        115
    40         10
    41         12
    42          2
    43          2
    44          1
    45          1
    47          1
    48          1
    49          6
    50         70
    51        125
    52         30
    53          7
    55        846
    56         27
    57        153
    60          2
    61         15
    62         52
    63        145
    64         28
    65        106
    66          7
    67          1
    68          5
    73         20
    74         38
    75         34
    76         34
    77         81
    78         64
    79          5
    84          1
    85          7
    86         16
    87         23
    88         12
    89        140
    90         31
    91        352
    92         26
    93          1
    97          1
    98          4
    99          4
   100          1
   101          6
   102         54
   103         64
   104         71
   105          7
   106          1
   109          1
   110          1
   111          1
   112          1
   113         10
   114         14
   115        865
   116        324
   117        999
   118        100
   119          5
   125        177
   126         15
   127        275
   128         32
   129          2
   131          1
   138         24
   139          2
   140          8
   141          1
   143          1
   144         33
   145        303
   146         33
   147          2
   149          1
   151          1
   152          2
   154          1
   165          1
   180         10
   181          1
   182          3