##TITLE=Library Entry 80981
##JCAMP-DX=Revision 4.10 
##DATA TYPE=MASS SPECTRUM
##SAMPLE DESCRIPTION=Chuck Anderson, Aldrich Chemical Co.
##NAMES=HP
##CAS NAME=Benzoic acid 2-bromoethyl ester
##MOLFORM=C9H9BrO2
##CAS REGISTRY NO=939-54-8
##MP= -300
##BP= -300
##MW= 228
##$RETENTION INDEX=0
##$CONDENSED SPECTRUM=NO
##NPOINTS= 46
##XYDATA=(XY..XY) 1 
    14          1
    15          7
    18          0
    26         11
    27         88
    28         13
    29          7
    30          0
    36          2
    37          0
    38          6
    39         12
    42          0
    43          3
    44          2
    49          2
    50         43
    51        153
    52          7
    53          1
    65          4
    73          3
    74         17
    75          9
    76         25
    77        441
    78         25
    79          6
    91          1
    93          7
    94          2
    95          5
   103          1
   104          1
   105        999
   106         68
   107         11
   109         21
   122        775
   123         41
   124          2
   135          2
   149        123
   150          9
   228          3
   230          3