##TITLE=Library Entry 97378
##JCAMP-DX=Revision 4.10 
##DATA TYPE=MASS SPECTRUM
##SAMPLE DESCRIPTION=Japan AIST/NIMC Database- Spectrum MS-NW-7150
##NAMES=HP
##CAS NAME=trans-2-Phenyl-1-cyclopropanecarboxylic acid
##MOLFORM=C10H10O2
##CAS REGISTRY NO=939-90-2
##MP= -300
##BP= -300
##MW= 162
##$RETENTION INDEX=0
##$CONDENSED SPECTRUM=NO
##NPOINTS= 107
##XYDATA=(XY..XY) 1 
    14          1
    15          2
    17          3
    18         10
    26          6
    27         29
    28         22
    29          7
    31          3
    37          5
    38         20
    39        130
    40         11
    41         14
    42          3
    43          8
    44          7
    45         26
    47          1
    49          3
    50         47
    51        112
    52         24
    53          8
    54          1
    55         16
    56         23
    57         35
    58         16
    59          2
    60          3
    61          9
    62         33
    63         89
    64         21
    65         83
    66          8
    67          2
    68          3
    69          3
    71          2
    72          2
    73          4
    74         19
    75         19
    76         18
    77         92
    78         45
    79         61
    80          5
    81          1
    83          1
    84          8
    85          5
    86          8
    87         10
    88          7
    89         77
    90         24
    91        269
    92         22
    93          2
    94          3
    98          2
    99          1
   101          4
   102         28
   103         32
   104         11
   105         43
   106          4
   107        207
   108         15
   109          1
   110          1
   111          1
   113          6
   114          8
   115        527
   116        287
   117        999
   118        106
   119          9
   120         30
   121          4
   122         16
   123          1
   127         11
   128          3
   129          3
   130          1
   131          5
   132          1
   133          8
   134          4
   135          5
   143          4
   144        192
   145         37
   146          4
   147          9
   148          1
   160          2
   161         28
   162        448
   163         49
   164          6