##TITLE=Library Entry 83149
##JCAMP-DX=Revision 4.10 
##DATA TYPE=MASS SPECTRUM
##SAMPLE DESCRIPTION=Chuck Anderson, Aldrich Chemical Co.
##NAMES=HP
##CAS NAME=Benzenemethanamine, 4-(trifluoromethoxy)-
##MOLFORM=C8H8F3NO
##CAS REGISTRY NO=93919-56-3
##MP= -300
##BP= -300
##MW= 191
##$RETENTION INDEX=0
##$CONDENSED SPECTRUM=NO
##NPOINTS= 66
##XYDATA=(XY..XY) 1 
    26          3
    27         13
    28        328
    29        143
    30        403
    31          6
    37          9
    38         28
    39         65
    40         11
    41         21
    42          4
    50         39
    51         58
    52         27
    53         12
    54          9
    61          6
    62         20
    63         57
    64         38
    65         63
    66         51
    67         26
    68          3
    69        121
    73          1
    74         18
    75         28
    76         24
    77        467
    78         76
    79         52
    80          3
    83         21
    89        108
    90         10
    91         11
    92         27
    93         46
    94         14
    95         47
    96         10
    97          5
   102          7
   104         31
   105         32
   106        999
   107         91
   108         12
   109         44
   121          4
   122          3
   127          1
   143         14
   150          8
   162         16
   163         11
   170          3
   175         80
   176          5
   188         47
   189         16
   190        625
   191         97
   192          6