##TITLE=Library Entry 77899
##JCAMP-DX=Revision 4.10 
##DATA TYPE=MASS SPECTRUM
##SAMPLE DESCRIPTION=Chemical Concepts
##NAMES=HP
##CAS NAME=3a,8a-(Epoxyborylenoxy)-8H-indeno[1,2-d]-1,3,2-dioxaborol-8-one,
 2,10-diphenyl-
##MOLFORM=C21H14B2O5
##CAS REGISTRY NO=93958-01-1
##MP= -300
##BP= -300
##MW= 368
##$RETENTION INDEX=0
##$CONDENSED SPECTRUM=NO
##NPOINTS= 139
##XYDATA=(XY..XY) 1 
    27         20
    28         21
    29          2
    30          3
    37          1
    38          5
    39         35
    40          1
    41          3
    42          1
    43          2
    44          2
    45          3
    49          3
    50        114
    51         46
    52         35
    53         18
    54          3
    55          2
    56          2
    57          1
    61          7
    62         16
    63          8
    64          2
    65          4
    66          6
    67          2
    68          1
    73          2
    74         19
    75         60
    76        480
    77         93
    78         28
    79          5
    80          0
    81          1
    82          3
    85          2
    86          5
    87          7
    88         30
    89          7
    90          3
    91          2
    97          2
    98          1
    99          1
   100          2
   101          3
   102          9
   103         40
   104        999
   105         79
   106          5
   109          1
   110          2
   111          1
   112          1
   113          1
   115          2
   117          1
   118          3
   119          0
   126          3
   127          2
   128          2
   129          3
   131         15
   132        483
   133         46
   134          4
   135          2
   136          1
   137          3
   139          1
   140          1
   141          0
   144          5
   147          1
   150          1
   151          2
   152          3
   153          2
   154          0
   157          1
   159          3
   160         40
   161          4
   162          3
   163          9
   164         12
   165          6
   166          1
   167          1
   170          3
   174          4
   175         12
   176          1
   177          1
   178          4
   179          5
   180          2
   181          1
   184         11
   188          1
   189          3
   190          5
   191          5
   192          1
   193          1
   195          1
   206          1
   207          0
   209          0
   231          1
   233          0
   235          9
   236         18
   237          2
   247          2
   248          3
   262          2
   263        189
   264        829
   265        128
   266         17
   267          1
   323          2
   324          3
   338          1
   366         17
   367        130
   368        266
   369         61
   370         10
   371          1