##TITLE=Library Entry 30536
##JCAMP-DX=Revision 4.10 
##DATA TYPE=MASS SPECTRUM
##SAMPLE DESCRIPTION=Chemical Concepts
##NAMES=HP
##CAS NAME=1,3,2-Dioxaborolane-4,5-dicarboxylic acid, 2-ethyl-, dimethyl est
er
##MOLFORM=C8H13BO6
##CAS REGISTRY NO=93957-98-3
##MP= -300
##BP= -300
##MW= 216
##$RETENTION INDEX=0
##$CONDENSED SPECTRUM=NO
##NPOINTS= 115
##XYDATA=(XY..XY) 1 
    26         40
    27         82
    28         79
    29        231
    30         19
    31         55
    32         10
    33          9
    36          2
    37          7
    38          7
    39         40
    40         19
    41         71
    42        100
    43        193
    44          9
    45         74
    46          3
    47          1
    49          1
    50          5
    51          4
    52          8
    53         53
    54         19
    55         60
    56         44
    57        206
    58         15
    59        999
    60         27
    61          5
    63          1
    64          0
    66          1
    67          3
    68         10
    69        103
    70        251
    71        421
    72         77
    73        289
    74         13
    75          5
    76          1
    77          3
    78         27
    79          3
    81          1
    82          4
    83         18
    84         20
    85         86
    86          6
    87          1
    90          1
    91          1
    94          1
    95          4
    96         14
    97         44
    98         64
    99         24
   100         63
   101        129
   102          6
   103          6
   104          0
   105          4
   106         15
   107          1
   108          0
   109          0
   110          2
   111          3
   112          8
   113         44
   114          9
   115          5
   116          3
   117          2
   118          2
   123          3
   124         15
   125         47
   126          8
   127         71
   128        428
   129        813
   130         54
   131         34
   132          2
   140          0
   141          3
   142          8
   143         29
   144          1
   145          1
   153          1
   154          3
   155         16
   156        169
   157        551
   158         48
   159         44
   160          4
   161          0
   171          1
   184          4
   187          1
   207          1
   215          5
   216         18
   217          2