##TITLE=Library Entry 33178
##JCAMP-DX=Revision 4.10 
##DATA TYPE=MASS SPECTRUM
##SAMPLE DESCRIPTION=TNO Volatile Compounds in Food - Chemical Concepts
##NAMES=HP
##CAS NAME=Piperidine, 1-(1-oxo-2-butynyl)-
##MOLFORM=C9H13NO
##CAS REGISTRY NO=93953-22-1
##MP= -300
##BP= -300
##MW= 151
##$RETENTION INDEX=0
##$CONDENSED SPECTRUM=NO
##NPOINTS= 51
##XYDATA=(XY..XY) 1 
    26         16
    27         59
    29         22
    30         37
    34          3
    37          8
    38         42
    39        250
    41         67
    42        194
    43         23
    44         78
    50          3
    51          7
    52         16
    53         27
    54         74
    55        117
    56        128
    57         53
    65          3
    66         40
    67        999
    68        117
    69         35
    70         81
    71          1
    77          1
    79         16
    80         36
    81         21
    82         78
    83         20
    84        309
    85         16
    91          0
    94         47
    95         52
    96          8
    97          1
   108         69
   109         16
   110         11
   120          1
   122         58
   123         69
   134          2
   136        135
   137          7
   150        240
   151        380