##TITLE=Library Entry 83757
##JCAMP-DX=Revision 4.10 
##DATA TYPE=MASS SPECTRUM
##SAMPLE DESCRIPTION=Institute of Organic Chemistry, USSR, 1990
##NAMES=HP
##CAS NAME=2-Methyl-4-(3'-phenylpropyl)pyridine
##MOLFORM=C15H17N
##CAS REGISTRY NO=93971-09-6
##MP= -300
##BP= -300
##MW= 211
##$RETENTION INDEX=0
##$CONDENSED SPECTRUM=NO
##NPOINTS= 21
##XYDATA=(XY..XY) 1 
    51         31
    65        115
    66         31
    77        110
    78         39
    79         80
    91        237
    92        130
    93         60
   104         40
   105         75
   106        111
   107        999
   108        177
   118         20
   119         52
   120        185
   121         80
   134         30
   196         20
   211         75