##TITLE=Library Entry 58893
##JCAMP-DX=Revision 4.10 
##DATA TYPE=MASS SPECTRUM
##SAMPLE DESCRIPTION=Japan AIST/NIMC Database- Spectrum MS-IW-5576
##NAMES=HP
##CAS NAME=3-Bromo-4-hydroxy-6-isopropyl-5-oxo-1,3,6-cycloheptatriene-1-carb
aldehyde tosylhydrazone
##MOLFORM=C18H19BrN2O4S
##CAS REGISTRY NO=93994-22-0
##MP= -300
##BP= -300
##MW= 438
##$RETENTION INDEX=0
##$CONDENSED SPECTRUM=NO
##NPOINTS= 177
##XYDATA=(XY..XY) 1 
    14          8
    16          4
    26         11
    27         41
    28        522
    29          9
    32          6
    34          4
    37          8
    38         19
    39        136
    40         16
    41         82
    42          8
    43         32
    44         25
    45         67
    46          6
    47          6
    48         12
    49          7
    50         57
    51        124
    52         38
    53         50
    54          7
    55         35
    56          6
    57         14
    58         15
    59          8
    60         15
    61         26
    62         47
    63         95
    64         42
    65        328
    66         30
    67         35
    68          4
    69         28
    70          7
    71         12
    72          4
    73          6
    74         18
    75         24
    76         23
    77        172
    78         79
    79        119
    80         87
    81         33
    82         85
    83         39
    84          7
    85          6
    86         11
    87          9
    88          6
    89         80
    90         44
    91        999
    92        415
    93         46
    94          9
    95         13
    96          6
    97         11
    98          5
    99          7
   102         18
   103         55
   104         70
   105         42
   106         10
   107         98
   108         67
   109         16
   110          6
   111         14
   113          4
   114          5
   115         34
   116          9
   117         27
   118         13
   119         86
   120         15
   121         58
   122         21
   123        115
   124        327
   125         34
   126         18
   127         14
   128         22
   129         33
   130         16
   131         38
   132         75
   133         40
   134         13
   138          5
   139        174
   140         79
   141         15
   142          8
   143          5
   144          6
   145         14
   146         17
   147        132
   148         32
   149          6
   155         16
   156        191
   157         27
   158         16
   159         10
   160         17
   161         28
   162          9
   163          5
   170          4
   172         12
   173          6
   174         14
   175         88
   176         29
   177         20
   178          4
   179          8
   183          8
   184          7
   185         17
   186          8
   187          9
   195          4
   198         14
   199          5
   200         14
   201          4
   209          5
   211         65
   212         12
   213         64
   214         12
   215          6
   225         10
   226         27
   227         78
   228         36
   229         74
   230          9
   237          5
   239         27
   240          5
   241         36
   242          6
   243         11
   252          4
   253          4
   254         73
   255        240
   256        106
   257        220
   258         33
   259          4
   267          4
   269          6
   270          7
   272          8
   278          8
   282          4
   283          4
   284          5