##TITLE=Library Entry 58912
##JCAMP-DX=Revision 4.10 
##DATA TYPE=MASS SPECTRUM
##SAMPLE DESCRIPTION=Japan AIST/NIMC Database- Spectrum MS-IW-5863
##NAMES=HP
##CAS NAME=1-(Alpha-acetamidotoluene-p-sulfonyl)-3-phenethylurea
##MOLFORM=C18H21N3O4S
##CAS REGISTRY NO=93996-21-5
##MP= -300
##BP= -300
##MW= 375
##$RETENTION INDEX=0
##$CONDENSED SPECTRUM=NO
##NPOINTS= 169
##XYDATA=(XY..XY) 1 
    14          3
    15         17
    16          3
    17          1
    25          1
    26          8
    27         34
    28         98
    29         10
    30        894
    31         26
    32          3
    33          2
    34          6
    37          5
    38         17
    39         86
    40         28
    41         56
    42         30
    43        442
    44        109
    45          9
    46          9
    47          1
    48          9
    49          3
    50         54
    51         96
    52         34
    53         10
    54          5
    55          2
    56          9
    57          1
    58         10
    59          6
    60          4
    61          7
    62         18
    63         71
    64         32
    65        149
    66         13
    67          5
    68          1
    69          4
    70          1
    71          3
    72          5
    73          8
    74         15
    75         15
    76         39
    77        152
    78         86
    79         53
    80          7
    81          1
    82          1
    84          1
    85          2
    86          4
    87          3
    88          3
    89        153
    90         78
    91        999
    92        152
    93         19
    94          6
    95          5
    96          1
    97          1
    98          2
   101          2
   102         15
   103         65
   104        139
   105        339
   106        338
   107         41
   108          4
   109          9
   110          4
   111          3
   116         12
   117         36
   118         24
   119         32
   120         21
   121         67
   122         25
   123          9
   124          5
   125          4
   127          3
   128          6
   129          4
   130          5
   131          4
   132         10
   133          3
   134          2
   135          5
   136          5
   137          5
   138          9
   139          2
   140          2
   141         11
   142          1
   145          1
   146          3
   147        355
   148         67
   149          9
   150          1
   152         16
   153         10
   154          8
   155          2
   158          2
   159          4
   161          1
   163          1
   164          9
   165          2
   167          1
   168          7
   169          5
   170        143
   171         12
   172          7
   177         23
   178          3
   179          1
   180          1
   181         11
   182          2
   183          1
   184          7
   185         34
   186          5
   187          2
   195          2
   196         20
   197          4
   198          1
   209          2
   210          2
   211        116
   212        171
   213         24
   214          9
   215          1
   223          1
   227          1
   228         96
   229         12
   230          5
   239          1
   253          7
   254        240
   255         34
   256         13
   257          2
   268         15
   269          3