##TITLE=Library Entry 82499
##JCAMP-DX=Revision 4.10 
##DATA TYPE=MASS SPECTRUM
##SAMPLE DESCRIPTION=Japan AIST/NIMC Database- Spectrum MS-NW-4457
##NAMES=HP
##CAS NAME=Isonicotinic acid phenyl ester
##MOLFORM=C12H9NO2
##CAS REGISTRY NO=94-00-8
##MP= -300
##BP= -300
##MW= 199
##$RETENTION INDEX=0
##$CONDENSED SPECTRUM=NO
##NPOINTS= 45
##XYDATA=(XY..XY) 1 
    14          1
    17          1
    18          2
    26          6
    27          5
    28          4
    37          6
    38         15
    39         70
    40          9
    41          1
    44          1
    49          6
    50         57
    51        243
    52         16
    53          6
    55          4
    61          2
    62          6
    63         16
    64          8
    65         56
    66         17
    67          1
    74          3
    75          4
    76          6
    77         19
    78        531
    79         33
    80          1
    89          1
    92          1
    93         10
    94         37
    95          3
   105          1
   106        999
   107         68
   108          4
   198          1
   199        236
   200         34
   201          3