##TITLE=Library Entry 79099
##JCAMP-DX=Revision 4.10 
##DATA TYPE=MASS SPECTRUM
##SAMPLE DESCRIPTION=NIST Mass Spectrometry Data Center
##NAMES=HP
##CAS NAME=1,3-Phenylenedibenzoate
##MOLFORM=C20H14O4
##CAS REGISTRY NO=94-01-9
##MP= -300
##BP= -300
##MW= 318
##$RETENTION INDEX=0
##$CONDENSED SPECTRUM=NO
##NPOINTS= 24
##XYDATA=(XY..XY) 1 
    27          1
    38          1
    39          3
    50         23
    51         99
    52          9
    53          1
    62          1
    63          5
    64          4
    74          6
    75          6
    76         19
    77        455
    78         33
    79          1
    92          1
   105        999
   106        116
   107          6
   128          1
   318         62
   319         13
   320          1