##TITLE=Library Entry 24017
##JCAMP-DX=Revision 4.10 
##DATA TYPE=MASS SPECTRUM
##SAMPLE DESCRIPTION=Japan AIST/NIMC Database- Spectrum MS-NW-7481
##NAMES=HP
##CAS NAME=Vinyl 2-ethylhexanoate
##MOLFORM=C10H18O2
##CAS REGISTRY NO=94-04-2
##MP= -300
##BP= -300
##MW= 170
##$RETENTION INDEX=0
##$CONDENSED SPECTRUM=NO
##NPOINTS= 60
##XYDATA=(XY..XY) 1 
    14          1
    15         10
    26          4
    27         74
    28         11
    29         87
    30          2
    31          3
    32          1
    33          1
    38          1
    39         36
    40          7
    41        158
    42         25
    43        233
    44         10
    45          5
    50          1
    51          3
    52          1
    53          9
    54          5
    55         85
    56         35
    57        999
    58         44
    59          2
    65          1
    67          6
    68          3
    69         28
    70         38
    71         13
    72          1
    73          4
    77          1
    79          1
    81          3
    82          1
    83          9
    84          1
    85          5
    86          3
    87          1
    95          1
    97          6
    98          7
    99        124
   100          9
   109          2
   111          1
   113          1
   114          7
   115          1
   125          2
   127        116
   128         11
   129          1
   141          1