##TITLE=Library Entry 79100
##JCAMP-DX=Revision 4.10 
##DATA TYPE=MASS SPECTRUM
##SAMPLE DESCRIPTION=Japan AIST/NIMC Database- Spectrum MS-IW-5623
##NAMES=HP
##CAS NAME=Ethyl benzoylacetate
##MOLFORM=C11H12O3
##CAS REGISTRY NO=94-02-0
##MP= -300
##BP= -300
##MW= 192
##$RETENTION INDEX=0
##$CONDENSED SPECTRUM=NO
##NPOINTS= 61
##XYDATA=(XY..XY) 1 
    15          2
    26          1
    27         12
    28          8
    29         20
    30          1
    31         13
    38          1
    39          8
    41          2
    42          4
    43         10
    44          3
    45          9
    46          3
    50         15
    51         56
    52          4
    53          1
    59          1
    62          2
    63          5
    64          1
    65          9
    69         28
    70          1
    74          5
    75          5
    76         10
    77        233
    78         24
    79          3
    85          1
    87          5
    89          5
    90          2
    91         15
    92          1
   102          2
   103          2
   104          3
   105        999
   106         79
   107          5
   115          1
   118          1
   120         18
   121          4
   122          2
   139          3
   141          1
   146         38
   147         38
   148          4
   161          1
   162          1
   163          1
   164          2
   192         69
   193          9
   194          1