##TITLE=Library Entry 90220
##JCAMP-DX=Revision 4.10 
##DATA TYPE=MASS SPECTRUM
##SAMPLE DESCRIPTION=Japan AIST/NIMC Database- Spectrum MS-IW-5627
##NAMES=HP
##CAS NAME=2-Propenoic acid, 2-cyano-3-ethoxy-, ethyl ester
##MOLFORM=C8H11NO3
##CAS REGISTRY NO=94-05-3
##MP= -300
##BP= -300
##MW= 169
##$RETENTION INDEX=0
##$CONDENSED SPECTRUM=NO
##NPOINTS= 103
##XYDATA=(XY..XY) 1 
    13          1
    14          5
    15         20
    16          1
    17          3
    18         10
    25          3
    26         28
    27        242
    28         63
    29        683
    30         28
    31         60
    37          1
    38          9
    39         27
    40         94
    41         56
    42         48
    43         66
    44         34
    45        129
    46         10
    47         41
    50          1
    51         20
    52         43
    53         34
    54         19
    55         10
    56          8
    57          6
    58          2
    59          4
    60          4
    61          2
    64          1
    66          9
    67        300
    68        531
    69        222
    70         24
    71         16
    72         21
    73         11
    74          2
    75         31
    76          1
    78          1
    79          3
    80         10
    81          4
    82          7
    83          4
    84          5
    85        937
    86         48
    87         12
    88          7
    89          3
    94         11
    95        310
    96        660
    97        116
    98         42
    99         12
   100          1
   101          4
   103         55
   104          3
   105          2
   106          1
   108         34
   109          4
   110          1
   111          1
   112         78
   113        999
   114         68
   115         29
   116          3
   117          3
   122          7
   123         32
   124        303
   125         42
   126        124
   127         10
   128          2
   129          2
   133          8
   136          2
   140         22
   141        248
   142         26
   143          8
   144          1
   154         11
   155          1
   168          1
   169        372
   170         39
   171          2