##TITLE=Library Entry 13128
##JCAMP-DX=Revision 4.10 
##DATA TYPE=MASS SPECTRUM
##SAMPLE DESCRIPTION=J. SHAW, BORRISTON RESEARCH, ROCKVILLE, MD, USA
##NAMES=HP
##CAS NAME=Acetic acid, (2,4-dichlorophenoxy)-, 1-methylethyl ester
##MOLFORM=C11H12Cl2O3
##CAS REGISTRY NO=94-11-1
##MP= -300
##BP= -300
##MW= 262
##$RETENTION INDEX=1700
##$CONDENSED SPECTRUM=NO
##NPOINTS= 164
##XYDATA=(XY..XY) 1 
    12          1
    13          2
    14         27
    15        101
    16         23
    26         18
    27        192
    28         39
    29         87
    30          7
    31         21
    32          3
    35          3
    36          8
    37         11
    38         17
    39         71
    41        245
    42        106
    43        999
    44         43
    45         21
    47          2
    49          7
    50         26
    51         15
    52          1
    53          5
    55          9
    56          5
    57         35
    58          9
    59         11
    60          4
    61         13
    62         26
    63         74
    64          4
    65          5
    69          5
    70          1
    71          6
    72         10
    73         42
    74         58
    75         81
    76          7
    77         12
    78          1
    79          2
    81          1
    83         12
    84         15
    85         18
    86          5
    87         12
    89          3
    91          3
    92          1
    93          2
    94          1
    95          1
    96          2
    97         16
    98         21
    99         20
   100          8
   101          6
   105          1
   107         10
   109        114
   110         33
   111        117
   112         27
   113         29
   114          7
   115          7
   117          2
   119          2
   120          1
   121          2
   123          1
   125          8
   126         13
   127         16
   128         26
   129          7
   130          6
   131          1
   133         52
   135         39
   136          2
   137          6
   138          1
   139          8
   140          5
   141          9
   142          5
   143          9
   145        122
   147        117
   148         11
   149         37
   150          7
   151          5
   153          1
   155          6
   156          2
   157          2
   159          2
   161         39
   162        210
   163         76
   164        126
   165         34
   166         20
   167          9
   169         10
   171          1
   173         17
   175        462
   177        347
   178         37
   179         44
   180          6
   181          1
   183          2
   185        126
   187         50
   188          2
   189          1
   191         11
   193          8
   195          1
   196          4
   197          1
   198          1
   199          2
   201         20
   202         17
   204          2
   205          2
   209          2
   211          4
   217          1
   219         40
   220         71
   221         28
   222         43
   223          7
   224          6
   227          6
   228          1
   229          2
   233          1
   235          1
   236          2
   237          1
   238          2
   262        161
   264        113
   265         11
   266         13
   267          1