##TITLE=Library Entry 27098
##JCAMP-DX=Revision 4.10 
##DATA TYPE=MASS SPECTRUM
##SAMPLE DESCRIPTION=H. Fales, LC, NHLBI, NIH, Bethesda, MD 20892
##NAMES=HP
##CAS NAME=Triethylene glycol di(2-ethylhexoate)
##MOLFORM=C22H42O6
##CAS REGISTRY NO=94-28-0
##MP= -300
##BP= -300
##MW= 402
##$RETENTION INDEX=0
##$CONDENSED SPECTRUM=NO
##NPOINTS= 159
##XYDATA=(XY..XY) 1 
    41        250
    43        436
    44         67
    45        423
    47         11
    49         40
    51         14
    53         19
    55        292
    57        999
    58         64
    59         41
    60          6
    61          4
    63          2
    65          4
    67         13
    69        105
    70        233
    71         96
    73        229
    74          1
    75         20
    77          6
    78          1
    79          4
    80          2
    81         10
    83         47
    84         26
    86         62
    87         52
    88        150
    89        147
    90          6
    91          2
    93          2
    95          2
    96         43
    97          7
    98        182
    99        348
   101         77
   102         31
   103         40
   104          1
   105          6
   107          6
   108          2
   109          3
   110          1
   111          8
   113        109
   114        193
   115         74
   116         31
   117         15
   118          6
   119          8
   121          7
   123          1
   124         32
   126         29
   127        603
   128         41
   129         19
   130          2
   131         11
   132         34
   133          9
   135         16
   136          0
   137          1
   138          0
   139          2
   141         46
   142         58
   143        118
   145         73
   146         56
   147          3
   149          3
   151          6
   152         17
   153          7
   155         13
   157          5
   158         56
   159          5
   160         27
   161          1
   162          1
   163          2
   168         13
   169         39
   170        326
   171        887
   172         90
   174         91
   176         23
   177          2
   183          0
   184          8
   185          7
   186          5
   187          5
   188          3
   189         30
   190          8
   191          0
   196          3
   198          1
   199          0
   200          7
   201         22
   202         12
   204         17
   205          1
   211          0
   213          0
   214         23
   215         20
   216          3
   218          3
   220          1
   221          0
   228          2
   229          3
   230         13
   231          2
   233          5
   240          1
   241          1
   243          5
   245          0
   246         20
   247          3
   248          0
   249          0
   256          0
   258         30
   259          5
   260          0
   261          0
   277          5
   279          0
   285          0
   286          0
   290          1
   302          2
   303          1
   318          0
   346          7
   347          1
   359          0
   372          1
   374          1
   402          7
   403          1