##TITLE=Library Entry 28434
##JCAMP-DX=Revision 4.10 
##DATA TYPE=MASS SPECTRUM
##SAMPLE DESCRIPTION=Tox21 Consortium/NIST Mass Spectrometry Data Center, 20
12
##NAMES=HP
##CAS NAME=Tetracaine
##MOLFORM=C15H24N2O2
##CAS REGISTRY NO=94-24-6
##MP= -300
##BP= -300
##MW= 264
##$RETENTION INDEX=2219
##$CONDENSED SPECTRUM=NO
##NPOINTS= 99
##XYDATA=(XY..XY) 1 
    15          2
    26          1
    27          8
    28         10
    29         15
    30         15
    38          1
    39          7
    40          1
    41         16
    42         43
    43         22
    44         14
    45          2
    50          6
    51          7
    52          3
    53          2
    54          3
    55          6
    56         35
    57         12
    58        999
    59         38
    60          1
    62          1
    63          6
    64          7
    65         27
    66          4
    68          1
    69          1
    70         16
    71        774
    72         74
    73          3
    74          2
    75          4
    76         21
    77         22
    78         17
    79         10
    80          1
    81          1
    86          3
    88          2
    89          3
    90          6
    91         18
    92         60
    93          7
    94          2
   102          2
   103          4
   104         40
   105        123
   106         25
   107          2
   110          3
   114          1
   115          1
   116          1
   117          9
   118         14
   119         11
   120         20
   121          3
   130          4
   131          2
   132         16
   133          6
   134          2
   137          1
   144          1
   146          2
   147          4
   148          7
   150        117
   151         12
   152          1
   160          1
   162          2
   163          1
   164          3
   165          1
   174          2
   176        143
   177         19
   178          2
   191          1
   192          4
   193         46
   194          6
   195          1
   220          3
   221          7
   222          1
   233          1
   263          1