##TITLE=Library Entry 88859
##JCAMP-DX=Revision 4.10 
##DATA TYPE=MASS SPECTRUM
##SAMPLE DESCRIPTION=Japan AIST/NIMC Database- Spectrum MS-IW-2146
##NAMES=HP
##CAS NAME=Chloropropamide
##MOLFORM=C10H13ClN2O3S
##CAS REGISTRY NO=94-20-2
##MP= -300
##BP= -300
##MW= 276
##$RETENTION INDEX=1724
##$CONDENSED SPECTRUM=NO
##NPOINTS= 149
##XYDATA=(XY..XY) 1 
    14          1
    15          6
    16          1
    25          1
    26          9
    27         50
    28         78
    29         49
    30        757
    31         15
    32          1
    36          4
    37          9
    38         18
    39         31
    40          7
    41         65
    42         38
    43         91
    44         23
    45          8
    46          4
    47          2
    48          9
    49          9
    50        132
    51         58
    52          8
    53          3
    54          7
    55          4
    56         75
    57         19
    58         82
    59         76
    60          4
    61         16
    62         10
    63         26
    64         15
    65          7
    66          1
    69          9
    70          3
    71          2
    72          4
    73         36
    74         85
    75        368
    76         78
    77         13
    78          2
    79          2
    80          1
    81          3
    82          3
    83          2
    84         24
    85        292
    86         19
    87         15
    88          2
    89          4
    90         15
    91          4
    92          4
    93          2
    95          3
    96          2
    97          1
    98          2
    99         35
   100          4
   101         38
   102          3
   105          1
   106          3
   107          2
   108          9
   109          5
   110         10
   111        999
   112         81
   113        326
   114         25
   115          2
   123          3
   124          2
   125          5
   126         20
   127        165
   128        191
   129         63
   130         57
   131         11
   132          1
   133          4
   134          1
   139          1
   140          4
   141          1
   142          3
   143          2
   144          3
   145          1
   146          1
   149          2
   151          1
   153          1
   159         15
   160          2
   161          5
   162          1
   169          2
   170          1
   171          1
   174          1
   175        832
   176         62
   177        306
   178         21
   179         13
   184          2
   191         49
   192          7
   193         19
   194          2
   195          1
   204          2
   212         29
   213          3
   214          9
   215          1
   217        289
   218         27
   219        113
   220          9
   221          5
   235          3
   237          1
   247         18
   248          2
   249          7
   254          3
   256          2
   258          1
   261          1
   276          4
   278          2