##TITLE=Library Entry 83659
##JCAMP-DX=Revision 4.10 
##DATA TYPE=MASS SPECTRUM
##SAMPLE DESCRIPTION=DORIS ROUSE - DAVID BRENT
##NAMES=HP
##CAS NAME=Styramate
##MOLFORM=C9H11NO3
##CAS REGISTRY NO=94-35-9
##MP= -300
##BP= -300
##MW= 181
##$RETENTION INDEX=1667
##$CONDENSED SPECTRUM=NO
##NPOINTS= 52
##XYDATA=(XY..XY) 1 
    18         59
    26         15
    27         46
    28        121
    29         73
    30          8
    31         81
    32          9
    38         12
    39         96
    40          8
    41         12
    42         28
    43        196
    44        233
    45        116
    46         58
    47          6
    50         55
    51        169
    52         44
    53         27
    61          7
    62         12
    63         31
    64          8
    65         46
    66          5
    74         18
    75        309
    76         25
    77        443
    78        144
    79        715
    80         47
    89         21
    90         25
    91        116
    92         19
   102          6
   103         54
   104         55
   105        123
   106         18
   107        999
   108         92
   109          6
   119          9
   120        505
   121         63
   122          5
   138         12