##TITLE=Library Entry 79277
##JCAMP-DX=Revision 4.10 
##DATA TYPE=MASS SPECTRUM
##SAMPLE DESCRIPTION=J.Little, Eastman Chem.Comp.
##NAMES=HP
##CAS NAME=1,2-Ethanediol, monobenzoate
##MOLFORM=C9H10O3
##CAS REGISTRY NO=94-33-7
##MP= -300
##BP= -300
##MW= 166
##$RETENTION INDEX=1780
##$CONDENSED SPECTRUM=NO
##NPOINTS= 33
##XYDATA=(XY..XY) 1 
    43         56
    44         80
    45         65
    50        154
    51        313
    52         47
    74         61
    75         52
    76         93
    77        635
    78        125
    79        114
    91         32
    92         37
    93          7
   103         12
   104         22
   105        999
   106        207
   107         19
   118          7
   121          6
   122         98
   123        609
   124        115
   125         12
   135         54
   136         37
   137          3
   148         12
   149         11
   150          1
   167          3