##TITLE=Library Entry 37703
##JCAMP-DX=Revision 4.10 
##DATA TYPE=MASS SPECTRUM
##SAMPLE DESCRIPTION=Japan AIST/NIMC Database- Spectrum MS-NW-8458
##NAMES=HP
##CAS NAME=1-Butanol, 3-methyl-, benzoate
##MOLFORM=C12H16O2
##CAS REGISTRY NO=94-46-2
##MP= -300
##BP= -300
##MW= 192
##$RETENTION INDEX=1439
##$CONDENSED SPECTRUM=NO
##NPOINTS= 69
##XYDATA=(XY..XY) 1 
    15          4
    18          1
    26          4
    27         72
    28         20
    29         65
    30          2
    31          2
    37          1
    38          5
    39         56
    40          8
    41        113
    42        123
    43        111
    44          5
    45          9
    49          1
    50         47
    51        181
    52         13
    53         12
    54          8
    55        300
    56         18
    57          9
    59          1
    62          1
    63          2
    65          6
    66          1
    67          3
    68          1
    69         30
    70        999
    71         63
    72          1
    73          1
    74         10
    75         10
    76         27
    77        502
    78         42
    79         63
    80          4
    84          1
    87          2
    91          4
    92          2
    93          1
    94          2
   103          1
   104          5
   105        947
   106         76
   107          7
   120          1
   121          2
   122         64
   123        239
   124         18
   125          1
   135          6
   136          1
   149          9
   150          1
   177          1
   192          1
   193          1