##TITLE=Library Entry 82764
##JCAMP-DX=Revision 4.10 
##DATA TYPE=MASS SPECTRUM
##SAMPLE DESCRIPTION=RADIAN CORP
##NAMES=HP
##CAS NAME=Nicotinic acid benzyl ester
##MOLFORM=C13H11NO2
##CAS REGISTRY NO=94-44-0
##MP= -300
##BP= -300
##MW= 213
##$RETENTION INDEX=1770
##$CONDENSED SPECTRUM=NO
##NPOINTS= 42
##XYDATA=(XY..XY) 1 
    27          7
    38          4
    39         42
    41          4
    50         43
    51        161
    52         32
    53         10
    62          7
    63         31
    64          9
    65        162
    66         11
    74          2
    75          2
    76          7
    77         82
    78        279
    79        161
    80         11
    89         93
    90        145
    91        883
    92         67
    93          2
   105         28
   106        999
   107        123
   108         19
   126          6
   127          1
   141          2
   166         10
   167         13
   168         41
   169          3
   194          3
   195          5
   212        162
   213        416
   214         59
   215          5