##TITLE=Library Entry 79746
##JCAMP-DX=Revision 4.10 
##DATA TYPE=MASS SPECTRUM
##SAMPLE DESCRIPTION=Japan AIST/NIMC Database- Spectrum MS-NW-4115
##NAMES=HP
##CAS NAME=1,2-Ethanediol, dibenzoate
##MOLFORM=C16H14O4
##CAS REGISTRY NO=94-49-5
##MP= -300
##BP= -300
##MW= 270
##$RETENTION INDEX=2108
##$CONDENSED SPECTRUM=NO
##NPOINTS= 31
##XYDATA=(XY..XY) 1 
    18          2
    27          3
    28          3
    29          1
    38          1
    39          3
    50         13
    51         52
    52          3
    74          3
    75          4
    76          9
    77        195
    78         13
    79          1
    94          1
   104          3
   105        999
   106         76
   107          4
   118          3
   122          3
   135          1
   148         18
   149          9
   150          1
   181          1
   227         79
   228         11
   229          1
   270          5