##TITLE=Library Entry 47671
##JCAMP-DX=Revision 4.10 
##DATA TYPE=MASS SPECTRUM
##SAMPLE DESCRIPTION=Chemical Concepts
##NAMES=HP
##CAS NAME=Chalcone
##MOLFORM=C15H12O
##CAS REGISTRY NO=94-41-7
##MP= -300
##BP= -300
##MW= 208
##$RETENTION INDEX=1971
##$CONDENSED SPECTRUM=NO
##NPOINTS= 149
##XYDATA=(XY..XY) 1 
    26          8
    27         41
    29          0
    31          0
    37          6
    38         16
    39         51
    41          2
    42          0
    43          1
    45          0
    47          0
    49          4
    50        148
    51        479
    52         60
    53         14
    54          1
    55          0
    56          0
    57          0
    58          0
    60          0
    61          4
    62         22
    63         59
    64          8
    65          7
    66          1
    67          0
    68          0
    69         11
    70          0
    71          0
    72          0
    73          5
    74         52
    75         55
    76        110
    77        999
    78         95
    79          5
    80          0
    81          0
    82          1
    83          0
    84          0
    85          1
    86          5
    87          9
    88          8
    89         93
    90         30
    91          4
    92          0
    93          0
    94          0
    95          2
    96          0
    97          1
    98          7
    99          2
   100          2
   101         15
   102        140
   103        503
   104         55
   105        348
   106         32
   107          2
   108          0
   109          1
   110          0
   111          1
   112          0
   113          2
   114          1
   115          9
   116          1
   117          0
   118          0
   119          2
   120          0
   121          0
   122          5
   123          0
   125          1
   126          4
   127          4
   128          3
   129          4
   130        143
   131        419
   132         38
   133          4
   134          1
   135          0
   137          1
   138          1
   139          6
   140          0
   141          1
   142          0
   143          0
   145          0
   147          3
   148          0
   149          0
   150          5
   151          9
   152         24
   153          7
   154          2
   155          0
   162          0
   163          2
   164          2
   165         96
   166         14
   167          2
   168          0
   169          9
   170          0
   174          0
   175          0
   176         15
   177         13
   178         96
   179        212
   180         60
   181          8
   182          1
   185          0
   187          1
   188          1
   189          8
   190          5
   191         14
   192          3
   193          5
   194          1
   195          0
   203          0
   205          1
   206          1
   207        813
   208        851
   209        134
   210         12