##TITLE=Library Entry 2176
##JCAMP-DX=Revision 4.10 
##DATA TYPE=MASS SPECTRUM
##SAMPLE DESCRIPTION=NIST Mass Spectrometry Data Center, 1994
##NAMES=HP
##CAS NAME=Cyclohexanone, 2-(2-propenyl)-
##MOLFORM=C9H14O
##CAS REGISTRY NO=94-66-6
##MP= -300
##BP= -300
##MW= 138
##$RETENTION INDEX=0
##$CONDENSED SPECTRUM=NO
##NPOINTS= 75
##XYDATA=(XY..XY) 1 
    12          3
    13          2
    14         12
    15         72
    16          4
    17          2
    18          2
    24          1
    26         94
    27        656
    28        201
    29        191
    30          5
    31          1
    37         16
    38         74
    39        882
    40        165
    41        999
    42        273
    43        107
    44          6
    45          2
    50         51
    51        106
    52         66
    53        270
    54        418
    55        434
    56         63
    57         34
    58          1
    59          3
    61          2
    62          9
    63         27
    64          1
    65         94
    66         83
    67        701
    68        219
    69        138
    70         50
    71         13
    74          1
    75          3
    77         88
    79        527
    80        115
    81        318
    82         93
    83         84
    84         60
    85          4
    91         53
    92         34
    94        415
    95        380
    96         78
    97        113
    98         18
   105         24
   106          3
   107          9
   108          3
   109        279
   110         99
   111         11
   119          5
   120          8
   123        118
   124          8
   137         33
   138        173
   139         16