##TITLE=Library Entry 50823
##JCAMP-DX=Revision 4.10 
##DATA TYPE=MASS SPECTRUM
##SAMPLE DESCRIPTION=Japan AIST/NIMC Database- Spectrum MS-IW-1277
##NAMES=HP
##CAS NAME=1,4-Cyclohexanedicarboxylic acid, dimethyl ester
##MOLFORM=C10H16O4
##CAS REGISTRY NO=94-60-0
##MP= -300
##BP= -300
##MW= 200
##$RETENTION INDEX=0
##$CONDENSED SPECTRUM=NO
##NPOINTS= 110
##XYDATA=(XY..XY) 1 
    15         71
    16          1
    18          2
    26          3
    27         52
    28         32
    29         32
    30          2
    31         18
    32         12
    33          7
    38          2
    39         71
    40         14
    41        138
    42         10
    43         20
    44          3
    45         30
    47          1
    50          4
    51         11
    52          8
    53         63
    54        119
    55        170
    56          9
    57          5
    58          3
    59        135
    60          4
    61          9
    63          2
    65         12
    66         66
    67        166
    68         35
    69         41
    70         13
    71         20
    72          6
    73          4
    74         26
    75          5
    77         29
    78          7
    79        132
    80        416
    81        999
    82        105
    83         15
    84          3
    85          9
    86          2
    87        103
    88          9
    89          1
    91          7
    92          3
    93          5
    94         22
    95         21
    96          7
    97         27
    98         22
    99         13
   100         78
   101         24
   102          1
   105          1
   106          1
   107         13
   108        629
   109        362
   110         33
   111         32
   112         25
   113         18
   114         17
   115          2
   118          1
   122          1
   123          4
   124          9
   125         29
   126         94
   127         15
   128          2
   135          2
   136         72
   137          8
   138          1
   139         10
   140        931
   141        323
   142         29
   143          2
   146          2
   153          2
   154          2
   155          2
   156          9
   157          4
   167          1
   168        324
   169        215
   170         21
   171          2
   200          6
   201          5