##TITLE=Library Entry 70958
##JCAMP-DX=Revision 4.10 
##DATA TYPE=MASS SPECTRUM
##SAMPLE DESCRIPTION=Japan AIST/NIMC Database- Spectrum MS-IW-3592
##NAMES=HP
##CAS NAME=Cyclohexanone, 2-propyl-
##MOLFORM=C9H16O
##CAS REGISTRY NO=94-65-5
##MP= -300
##BP= -300
##MW= 140
##$RETENTION INDEX=1135
##$CONDENSED SPECTRUM=NO
##NPOINTS= 63
##XYDATA=(XY..XY) 1 
    15          3
    26          4
    27         77
    28         19
    29         58
    30          1
    31          1
    38          3
    39         82
    40         16
    41        226
    42        114
    43         86
    44          4
    45          1
    50          3
    51          9
    52          4
    53         27
    54         65
    55        260
    56        109
    57         23
    58          4
    63          2
    65          6
    66          4
    67         50
    68         19
    69        111
    70        201
    71         15
    72          2
    77          8
    78          2
    79         13
    80          9
    81         47
    82          6
    83        181
    84         41
    85          6
    86          2
    91          4
    93         11
    94          3
    95          7
    96         23
    97        145
    98        999
    99         76
   100          5
   107          2
   109          1
   110          1
   111         71
   112          7
   113          1
   125          1
   138          1
   139          1
   140         25
   141          3