##TITLE=Library Entry 82995
##JCAMP-DX=Revision 4.10 
##DATA TYPE=MASS SPECTRUM
##SAMPLE DESCRIPTION=Japan AIST/NIMC Database- Spectrum MS-IW-4971
##NAMES=HP
##CAS NAME=Formamide, N-(2-methylphenyl)-
##MOLFORM=C8H9NO
##CAS REGISTRY NO=94-69-9
##MP= -300
##BP= -300
##MW= 135
##$RETENTION INDEX=1283
##$CONDENSED SPECTRUM=NO
##NPOINTS= 69
##XYDATA=(XY..XY) 1 
    15          1
    26          4
    27         25
    28         28
    29         13
    30         18
    31          1
    37          5
    38         13
    39         63
    40          9
    41         13
    42          9
    43          3
    44          1
    49          2
    50         32
    51         72
    52         48
    53         39
    54         12
    55          2
    61          4
    62         10
    63         33
    64         16
    65         52
    66         12
    67          9
    68          1
    73          1
    74          8
    75          8
    76         10
    77        173
    78         64
    79        143
    80         43
    81          6
    85          1
    86          2
    87          1
    88          1
    89         60
    90         68
    91         90
    92         11
    93          2
    94          4
   102          2
   103          1
   104         33
   105         12
   106        999
   107        386
   108         53
   109          3
   116          6
   117         29
   118        148
   119         14
   120         11
   121          1
   132          5
   133          6
   134         30
   135        798
   136         74
   137          5