##TITLE=Library Entry 62216
##JCAMP-DX=Revision 4.10 
##DATA TYPE=MASS SPECTRUM
##SAMPLE DESCRIPTION=Japan AIST/NIMC Database- Spectrum MS-NW-4794
##NAMES=HP
##CAS NAME=Benzaldehyde, 2-hydroxy-, oxime
##MOLFORM=C7H7NO2
##CAS REGISTRY NO=94-67-7
##MP= -300
##BP= -300
##MW= 137
##$RETENTION INDEX=1560
##$CONDENSED SPECTRUM=NO
##NPOINTS= 83
##XYDATA=(XY..XY) 1 
    15          3
    17          7
    18         37
    25          2
    26         14
    27         28
    28         56
    29         10
    30          6
    31          6
    32          2
    36          4
    37         38
    38         83
    39        227
    40         21
    41         45
    42          5
    43          4
    44          9
    45         18
    46          9
    48          2
    49          9
    50         52
    51         91
    52         80
    53         46
    54          9
    55         11
    56          1
    59          1
    60          7
    61         21
    62         44
    63        167
    64        328
    65        264
    66         37
    67          6
    68         15
    69          7
    70          5
    72          1
    73          4
    74         13
    75         24
    76         22
    77         69
    78         34
    79          6
    80         21
    81         20
    82          3
    86          2
    87          4
    88          6
    89          6
    90         26
    91        999
    92        162
    93         46
    94         24
    95          2
    99          1
   102        108
   103         10
   104          1
   105         24
   106          3
   107          5
   108          6
   109          3
   110          3
   118          9
   119        461
   120        238
   121         55
   122          6
   136          5
   137        904
   138         75
   139          7