##TITLE=Library Entry 87474
##JCAMP-DX=Revision 4.10 
##DATA TYPE=MASS SPECTRUM
##SAMPLE DESCRIPTION=RADIAN CORP
##NAMES=HP
##CAS NAME=Phenol, 2-ethoxy-
##MOLFORM=C8H10O2
##CAS REGISTRY NO=94-71-3
##MP= -300
##BP= -300
##MW= 138
##$RETENTION INDEX=1128
##$CONDENSED SPECTRUM=NO
##NPOINTS= 47
##XYDATA=(XY..XY) 1 
    20          1
    26         10
    27         63
    29         31
    37          2
    38         10
    39         46
    42          3
    45          6
    50         35
    51         46
    52         60
    53        108
    54         31
    55          7
    61          3
    62         15
    63         73
    64        114
    65         43
    66         11
    67          3
    74          4
    75          1
    77          6
    79         12
    80         12
    81        246
    82         86
    83          5
    91         12
    92         70
    93         11
    94          4
    95         12
   109         92
   110        999
   111         69
   112          4
   121          8
   122          1
   123          3
   136          1
   137          1
   138        402
   139         34
   140          3