##TITLE=Library Entry 84890
##JCAMP-DX=Revision 4.10 
##DATA TYPE=MASS SPECTRUM
##SAMPLE DESCRIPTION=NIST Mass Spectrometry Data Center, 1998.
##NAMES=HP
##CAS NAME=2,6-Pyridinediamine, 3-(phenylazo)-
##MOLFORM=C11H11N5
##CAS REGISTRY NO=94-78-0
##MP= -300
##BP= -300
##MW= 213
##$RETENTION INDEX=2345
##$CONDENSED SPECTRUM=NO
##NPOINTS= 117
##XYDATA=(XY..XY) 1 
    26          4
    27         14
    28         41
    29          7
    30          6
    37         11
    38         40
    39        100
    40         16
    41         17
    42         16
    43        133
    44          6
    45          1
    46          1
    49          2
    50         38
    51        191
    52        130
    53        114
    54        468
    55         38
    56          2
    61          3
    62         10
    63         44
    64         69
    65        103
    66        110
    67         14
    68         14
    69          8
    70          1
    73          1
    74         10
    75          8
    76         10
    77        390
    78         37
    79         70
    80         68
    81        828
    82         61
    83          3
    87          1
    88          2
    89          6
    90          9
    91         25
    92         64
    93         28
    94          3
    95          2
    96          1
    97          1
   101          1
   102          3
   103          4
   104          7
   105         10
   107         28
   108        999
   109         72
   110          2
   113          2
   114          9
   115         23
   116          8
   117          5
   118          3
   119          1
   121          5
   122          5
   123          1
   124          4
   127          1
   128          3
   129          2
   130         10
   131          2
   132          1
   133          1
   134          3
   136        279
   137         20
   138          1
   139          1
   140         20
   141          9
   142          5
   143          7
   144          3
   145          1
   146          1
   155          2
   156          3
   157          9
   158          6
   159          2
   166          1
   167         16
   168         11
   169          3
   170          6
   171          1
   172          1
   182          1
   183          4
   184         86
   185         32
   186          3
   195          2
   211          1
   212         10
   213        803
   214        113
   215          7