##TITLE=Library Entry 49622
##JCAMP-DX=Revision 4.10 
##DATA TYPE=MASS SPECTRUM
##SAMPLE DESCRIPTION=NIST Mass Spectrometry Data Center, 1998.
##NAMES=HP
##CAS NAME=Benzenamine, 2-ethoxy-
##MOLFORM=C8H11NO
##CAS REGISTRY NO=94-70-2
##MP= -300
##BP= -300
##MW= 137
##$RETENTION INDEX=1207
##$CONDENSED SPECTRUM=NO
##NPOINTS= 74
##XYDATA=(XY..XY) 1 
    14          1
    15          2
    25          1
    26         14
    27         66
    28         28
    29         37
    30          5
    31          1
    37          5
    38         18
    39         65
    40         10
    41         24
    42         11
    43          6
    44          2
    45          1
    47          2
    49          4
    50         34
    51         69
    52        142
    53        236
    54         53
    55          8
    56          1
    61          5
    62         12
    63         44
    64         35
    65        111
    66         24
    67          4
    68          3
    69          1
    70          1
    73          1
    74          3
    75          5
    76          9
    77         10
    78         28
    79         27
    80        999
    81         88
    82          7
    83          1
    88          1
    89          1
    90          3
    91         25
    92         53
    93         27
    94         19
    95          5
   104          1
   106          3
   108        973
   109        647
   110         45
   111          3
   117          1
   118          2
   119          3
   120          7
   121          1
   122         19
   123          2
   134          1
   135          1
   137        784
   138         75
   139          5