##TITLE=Library Entry 98303
##JCAMP-DX=Revision 4.10 
##DATA TYPE=MASS SPECTRUM
##SAMPLE DESCRIPTION=NIST Mass Spectrometry Data Center, 1994
##NAMES=HP
##CAS NAME=2,4-Dimethylbenzenemethanamine
##MOLFORM=C9H13N
##CAS REGISTRY NO=94-98-4
##MP= -300
##BP= -300
##MW= 135
##$RETENTION INDEX=0
##$CONDENSED SPECTRUM=NO
##NPOINTS= 83
##XYDATA=(XY..XY) 1 
    12          0
    13          1
    14          2
    15         19
    16          4
    17         14
    18          3
    27         99
    28        134
    29         46
    30        208
    31          5
    33          0
    37          8
    38         33
    39        143
    40         21
    41         54
    42         15
    43          5
    44          3
    46          1
    47          4
    50         52
    51        102
    52         41
    53         47
    54         15
    55          4
    56          2
    58          3
    59         12
    60         18
    61          8
    62         27
    63         62
    64          2
    65         94
    66         25
    73          3
    74         15
    75         14
    76          3
    77        167
    78         68
    79         75
    80         13
    81          1
    85          2
    86          4
    87          5
    89         27
    91        342
    92         52
    93        160
    94         13
    95          0
    98          2
    99          1
   100          0
   102         24
   103         88
   104         32
   105         65
   106         33
   107        179
   108         15
   109          1
   115         62
   117        450
   118        999
   119        195
   120        226
   121         18
   128          1
   130          9
   131          5
   132         21
   133          1
   134        136
   135         79
   136          8
   137          0