##TITLE=Library Entry 22320
##JCAMP-DX=Revision 4.10 
##DATA TYPE=MASS SPECTRUM
##SAMPLE DESCRIPTION=Japan AIST/NIMC Database- Spectrum MS-NW- 525
##NAMES=HP
##CAS NAME=1,3-Hexanediol, 2-ethyl-
##MOLFORM=C8H18O2
##CAS REGISTRY NO=94-96-2
##MP= -300
##BP= -300
##MW= 146
##$RETENTION INDEX=2667
##$CONDENSED SPECTRUM=NO
##NPOINTS= 84
##XYDATA=(XY..XY) 1 
    14          1
    15          9
    16          1
    17         10
    18         38
    19          3
    26          6
    27        119
    28         34
    29        153
    30          9
    31        108
    32          2
    37          1
    38          4
    39         68
    40         16
    41        402
    42         29
    43        254
    44         34
    45         22
    47          7
    50          3
    51          7
    52          3
    53         30
    54         16
    55        634
    56        999
    57        199
    58         10
    59         10
    60          1
    61          9
    62          1
    63          1
    65          4
    66          2
    67         58
    68         29
    69         46
    70         18
    71        110
    72         60
    73        339
    74         15
    75          2
    77          4
    78          1
    79          8
    80          2
    81         42
    82          6
    83          8
    84          4
    85         94
    86          8
    87          3
    88          5
    89         11
    91         10
    93          2
    95         19
    96          3
    97         28
    98         24
    99         27
   100          9
   101          2
   103        127
   104          7
   105          1
   109          1
   110         21
   111          4
   113          3
   114          1
   115          2
   116          1
   126          1
   128          6
   129          2
   145          1