##TITLE=Library Entry 67376
##JCAMP-DX=Revision 4.10 
##DATA TYPE=MASS SPECTRUM
##SAMPLE DESCRIPTION=Japan AIST/NIMC Database- Spectrum MS-NW-3611
##NAMES=HP
##CAS NAME=Propanoic acid, 2-phenoxy-
##MOLFORM=C9H10O3
##CAS REGISTRY NO=940-31-8
##MP= -300
##BP= -300
##MW= 166
##$RETENTION INDEX=1372
##$CONDENSED SPECTRUM=NO
##NPOINTS= 87
##XYDATA=(XY..XY) 1 
    13          1
    14          1
    15         12
    18          2
    25          2
    26         23
    27         92
    28         22
    29         26
    30          1
    31          5
    32          1
    36          1
    37         10
    38         36
    39        171
    40         39
    41          5
    42          4
    43         51
    44          7
    45         59
    46          3
    47          2
    49          3
    50         50
    51        180
    52         16
    53         10
    54          3
    55         66
    56          9
    57          2
    59          1
    60          6
    61          6
    62         14
    63         42
    64         22
    65        158
    66        157
    67         10
    68          5
    69          1
    71          1
    72          3
    73          7
    74         12
    75          9
    76         15
    77        525
    78         59
    79         10
    80          1
    81          2
    82          1
    88          1
    89          2
    90          1
    91         49
    92         13
    93        133
    94        999
    95         76
    96          5
   102          1
   103         29
   104          4
   105          5
   106          1
   107          6
   108          1
   109          1
   110          2
   118          1
   119          4
   120         14
   121        958
   122         88
   123          7
   133          1
   135          1
   148          7
   149          1
   166        503
   167         53
   168          6