##TITLE=Library Entry 98699
##JCAMP-DX=Revision 4.10 
##DATA TYPE=MASS SPECTRUM
##SAMPLE DESCRIPTION=T.YAMAMOTO, DEP. CHEM., FAC. SCI., JOSAI UNIV., SAITAMA
, JAPAN
##NAMES=HP
##CAS NAME=6-Amino-2-(m-tolyl)-1,3,5-thiadiazine-4-thione
##MOLFORM=C10H9N3S2
##CAS REGISTRY NO=94014-50-3
##MP= -300
##BP= -300
##MW= 235
##$RETENTION INDEX=0
##$CONDENSED SPECTRUM=NO
##NPOINTS= 44
##XYDATA=(XY..XY) 1 
    39         87
    40         30
    41         91
    43        145
    44         52
    45        137
    51         36
    55         69
    56         25
    57         52
    58         21
    59         49
    60         91
    63         50
    64         22
    65        143
    69         44
    71         29
    73         41
    77         21
    81         21
    83         30
    85         41
    87         20
    89        120
    90         99
    91        243
    92         20
    97         22
   101         26
   104         32
   116        125
   117        114
   118        999
   119        114
   143        103
   149         20
   177         29
   202         26
   220         40
   234         28
   235        630
   236        103
   237         79