##TITLE=Library Entry 77864
##JCAMP-DX=Revision 4.10 
##DATA TYPE=MASS SPECTRUM
##SAMPLE DESCRIPTION=T.YAMAMOTO, DEP. CHEM., FAC. SCI., JOSAI UNIV., SAITAMA
, JAPAN
##NAMES=HP
##CAS NAME=6-Methylamino-2-phenyl-1,3,5-thiadiazine-4-thione
##MOLFORM=C10H9N3S2
##CAS REGISTRY NO=94014-49-0
##MP= -300
##BP= -300
##MW= 235
##$RETENTION INDEX=0
##$CONDENSED SPECTRUM=NO
##NPOINTS= 49
##XYDATA=(XY..XY) 1 
    39         35
    40         41
    41         52
    42         26
    43         44
    44         50
    45         64
    46         22
    50         53
    51        117
    52         23
    55         49
    56         20
    57         43
    59         15
    60         33
    67         18
    69         38
    71         23
    72        141
    73        207
    74        139
    75         34
    76        112
    77        282
    78         27
    79         17
    81         18
    83         22
    85         18
    87         16
    95         17
    97         16
    99         32
   102         21
   103        144
   104        999
   105        106
   122         20
   129         27
   132         39
   147         15
   149         21
   163        108
   177         56
   202         43
   235        590
   236         98
   237         59