##TITLE=Library Entry 11782
##JCAMP-DX=Revision 4.10 
##DATA TYPE=MASS SPECTRUM
##SAMPLE DESCRIPTION=TNO Volatile Compounds in Food - Chemical Concepts
##NAMES=HP
##CAS NAME=4-Thiazoleethanol, 5-methyl-, acetate
##MOLFORM=C8H11NO2S
##CAS REGISTRY NO=94021-41-7
##MP= -300
##BP= -300
##MW= 185
##$RETENTION INDEX=0
##$CONDENSED SPECTRUM=NO
##NPOINTS= 84
##XYDATA=(XY..XY) 1 
    25          1
    26         14
    27         57
    28          2
    29         19
    30          3
    31          5
    32          0
    33          1
    34          1
    37          4
    38          8
    39         54
    40         23
    41         41
    42         29
    43        999
    44         26
    45        159
    46          7
    47         13
    48          2
    49          1
    50          8
    51         20
    52         12
    53         29
    54          8
    55         11
    56          1
    57          4
    58         59
    59         54
    60          6
    61          4
    62          2
    63          4
    64          2
    65         16
    66          7
    67          3
    68          7
    69         23
    70         14
    71         31
    72          9
    73         11
    74          1
    75          0
    79          1
    80          9
    81          6
    82          2
    83          5
    84         18
    85         53
    86          9
    87          4
    88          0
    92         12
    93          1
    96          1
    97         50
    98         79
    99         14
   100          5
   101          1
   110          1
   111          4
   112        149
   113        163
   114         19
   115          8
   116          1
   124         46
   125        840
   126         81
   127         40
   128          3
   140          1
   141          1
   142          7
   143          1
   185          2