##TITLE=Library Entry 63699
##JCAMP-DX=Revision 4.10 
##DATA TYPE=MASS SPECTRUM
##SAMPLE DESCRIPTION=LAC, NIDDK, NIH, Bethesda, MD 20892
##NAMES=HP
##CAS NAME=2-Phenylethanamine, 4'-benzyloxy-3'-hydroxy-
##MOLFORM=C15H17NO2
##CAS REGISTRY NO=94026-91-2
##MP= -300
##BP= -300
##MW= 243
##$RETENTION INDEX=0
##$CONDENSED SPECTRUM=NO
##NPOINTS= 103
##XYDATA=(XY..XY) 1 
    41         20
    42          8
    43          9
    44         43
    45          2
    46          0
    48          0
    49          0
    50         10
    51         40
    52         16
    53         11
    54          3
    55         13
    56          1
    57          1
    58          0
    60          0
    61          1
    62          6
    63         28
    64         13
    65        140
    66         27
    67          9
    68          2
    69          2
    70          2
    71          0
    74          1
    75          2
    76          2
    77         37
    78         12
    79          6
    80          4
    81          4
    82          2
    83          1
    84          0
    86          0
    87          0
    88          0
    89         25
    90         19
    91        999
    92        102
    93          7
    94         27
    95          6
    96          1
    97          0
   102          0
   104          1
   105          8
   106          4
   107          2
   108          1
   109          1
   110          1
   111          0
   115          1
   118          0
   120         14
   121          2
   122         18
   123        131
   124         12
   125          1
   128          0
   132          0
   134          2
   135          1
   136          1
   137          1
   138          1
   139          2
   141          0
   150          1
   151          3
   152          5
   153          1
   155          0
   164          0
   165          1
   166          0
   167          1
   168          0
   181          1
   183          0
   195          1
   211          1
   212          0
   213          1
   214        250
   215         32
   216          3
   226          4
   227          1
   242          5
   243         52
   244          7
   245          1