##TITLE=Library Entry 27611
##JCAMP-DX=Revision 4.10 
##DATA TYPE=MASS SPECTRUM
##SAMPLE DESCRIPTION=Institute of Organic Chemistry, Novosibirsk, USSR 1988
##NAMES=HP
##CAS NAME=1,3,5-Trivinyl-1,3,5-tributoxycyclotrisiloxane
##MOLFORM=C18H36O6Si3
##CAS REGISTRY NO=94048-06-3
##MP= -300
##BP= -300
##MW= 432
##$RETENTION INDEX=0
##$CONDENSED SPECTRUM=NO
##NPOINTS= 84
##XYDATA=(XY..XY) 1 
    27        120
    41        373
    42        104
    43        207
    44        105
    45         84
    55        171
    56        314
    57        999
    58         43
    59         18
    83        128
    84         59
    85         22
   193        182
   194         33
   195         39
   203        220
   204         74
   205         67
   206         21
   207        142
   208         26
   209        230
   210         38
   219        378
   220        121
   221        222
   222         46
   223         71
   224         19
   229        213
   230         47
   231         91
   233        116
   234         23
   235         40
   236         34
   237        425
   238         81
   239         88
   247        195
   248         49
   249        130
   250         30
   265        181
   266        104
   267         36
   277        242
   278         59
   279         50
   281        169
   282         44
   283         31
   293        114
   294         24
   295         25
   303         98
   304         28
   317        261
   318         69
   319         83
   320         67
   333         98
   334         30
   335         26
   349        192
   350         56
   351         35
   359        224
   360         70
   361        102
   362         27
   375        145
   376         87
   377         46
   389        476
   390        161
   391         94
   392         20
   405         35
   406          9
   432         54
   433         19