##TITLE=Library Entry 25429
##JCAMP-DX=Revision 4.10 
##DATA TYPE=MASS SPECTRUM
##SAMPLE DESCRIPTION=Institute of Organic Chemistry, Novosibirsk, USSR 1988
##NAMES=HP
##CAS NAME=1,3-Diethyl-1,1,3,3-tetrabutoxydisiloxane
##MOLFORM=C20H46O5Si2
##CAS REGISTRY NO=94048-03-0
##MP= -300
##BP= -300
##MW= 422
##$RETENTION INDEX=0
##$CONDENSED SPECTRUM=NO
##NPOINTS= 87
##XYDATA=(XY..XY) 1 
    29        376
    41        355
    42        147
    43        310
    44        206
    55        541
    56        790
    57        999
    58        346
    59         30
    67        142
    68         54
    69        452
    70        181
    71        946
    72         33
    73        169
    74         25
    79        123
    80         42
    81        126
    82         52
    83        127
    84         90
    85        256
    86         17
    91        131
    92         29
    95        152
    96         98
    97        117
    98         86
    99         92
   109         83
   110         29
   111        137
   112         65
   123        110
   124         60
   125         92
   126         35
   135         58
   136         21
   137         72
   138         26
   161         78
   162         17
   169        148
   170         18
   171         28
   181        121
   182         24
   187         88
   188         41
   203        153
   204         27
   205         38
   221         45
   222         15
   223         27
   225         72
   226         24
   233         98
   234         25
   237         33
   238          8
   247        274
   248         97
   249         39
   267         31
   268         21
   281         47
   282         13
   283         35
   284         10
   293         71
   294         14
   337         53
   338         17
   349        573
   350        192
   351         59
   352         12
   393        634
   394        170
   395         36
   396          9