##TITLE=Library Entry 69656
##JCAMP-DX=Revision 4.10 
##DATA TYPE=MASS SPECTRUM
##SAMPLE DESCRIPTION=TNO Volatile Compounds in Food - Chemical Concepts
##NAMES=HP
##CAS NAME=2,4-Hexadiene, 1,1-diethoxy-, (E,E)-
##MOLFORM=C10H18O2
##CAS REGISTRY NO=94088-28-5
##MP= -300
##BP= -300
##MW= 170
##$RETENTION INDEX=0
##$CONDENSED SPECTRUM=NO
##NPOINTS= 85
##XYDATA=(XY..XY) 1 
    25          1
    26         39
    27        331
    28          1
    29        798
    30         20
    31        185
    32          1
    33          1
    37          2
    38         17
    39        300
    40         60
    41        747
    42         65
    43        598
    44         61
    45         85
    46         20
    47        209
    50         16
    51         49
    52         27
    53        139
    54         20
    55        289
    56         16
    57         75
    58          2
    59         29
    60         26
    61          8
    62          1
    63         10
    64          0
    65         78
    66         75
    67        315
    68        158
    69        281
    70         32
    71        160
    72          7
    73         36
    75         74
    76          1
    77         86
    78         31
    79        206
    80         57
    81        396
    82         58
    83         57
    84          1
    85         21
    86          2
    88         42
    89          4
    94          1
    95        208
    96        153
    97        999
    98         77
    99        148
   100          7
   101         13
   102          0
   103         31
   109          1
   111          8
   113         58
   114         13
   116         23
   123          0
   124         80
   125        357
   126         41
   127          2
   128          6
   129         33
   141         84
   142         21
   155         29
   170        110
   171          8