##TITLE=Library Entry 16925
##JCAMP-DX=Revision 4.10 
##DATA TYPE=MASS SPECTRUM
##SAMPLE DESCRIPTION=M.H.Baker ET AL,Biomed.Mass Spectrom.,11,512,(1984)
##NAMES=HP
##CAS NAME=1,1,1,2,2-Pentafluorohexan-5-ol
##MOLFORM=C6H9F5O
##CAS REGISTRY NO=94099-52-2
##MP= -300
##BP= -300
##MW= 192
##$RETENTION INDEX=0
##$CONDENSED SPECTRUM=NO
##NPOINTS= 53
##XYDATA=(XY..XY) 1 
    39         19
    41         10
    43        107
    45        999
    47         12
    49          5
    51         12
    53          7
    54          4
    55         24
    56          8
    57         12
    58          6
    61          5
    64          5
    65         10
    67          8
    77         31
    78          3
    81          5
    83          3
    84         11
    85         43
    87          5
    96          5
    97          4
   100          7
   102          8
   105          5
   109         47
   112          2
   113          2
   115          4
   117          8
   120          1
   127         10
   128          4
   130          3
   131          2
   135          1
   137         48
   139          5
   145          1
   157         26
   160          4
   161          3
   163          1
   164          3
   175          8
   176          3
   177         76
   178          7
   191         11