##TITLE=Library Entry 66019
##JCAMP-DX=Revision 4.10 
##DATA TYPE=MASS SPECTRUM
##SAMPLE DESCRIPTION=M.H.Baker ET AL,Biomed.Mass Spectrom.,11,512,(1984)
##NAMES=HP
##CAS NAME=1,1-Difluorocyclohexan-3-ol
##MOLFORM=C6H10F2O
##CAS REGISTRY NO=94099-53-3
##MP= -300
##BP= -300
##MW= 136
##$RETENTION INDEX=0
##$CONDENSED SPECTRUM=NO
##NPOINTS= 66
##XYDATA=(XY..XY) 1 
    40        352
    41        220
    42        299
    43        296
    44        646
    47         59
    49         79
    50         23
    51        110
    52         12
    53         86
    54        105
    55        160
    56        233
    57        250
    60        674
    61         34
    62         10
    63         11
    64        139
    65        138
    66         38
    67        104
    68         84
    69         76
    70         34
    71         39
    72        813
    73        559
    74         43
    75         52
    76         24
    77        160
    78         11
    79          6
    80          4
    81        262
    82         11
    83         11
    84          4
    85         30
    86         32
    87        167
    88        132
    90         21
    91         35
    92          7
    93        999
    94         34
    95         60
    96         54
    97         87
    98        561
    99        100
   101        128
   105          5
   108          5
   113          5
   114          4
   115         87
   116        408
   117         20
   118         68
   135         31
   136         22
   137          2