##TITLE=Library Entry 3212
##JCAMP-DX=Revision 4.10 
##DATA TYPE=MASS SPECTRUM
##SAMPLE DESCRIPTION=CARL DJERASSI DEPT OF CHEM STANFORD UNIV STANFORD CALIF
 94305
##NAMES=HP
##CAS NAME=1(2H)-Naphthalenone, octahydro-3,8a-dimethyl-, (3.alpha.,4a.beta.
,8a.alpha.)-
##MOLFORM=C12H20O
##CAS REGISTRY NO=941-20-8
##MP= -300
##BP= -300
##MW= 180
##$RETENTION INDEX=0
##$CONDENSED SPECTRUM=NO
##NPOINTS= 77
##XYDATA=(XY..XY) 1 
    38         20
    39        530
    40        180
    41        999
    42        250
    43        200
    44         10
    45         20
    50         20
    51         70
    52         40
    53        300
    54        150
    55        510
    56         80
    57         30
    63         20
    65         80
    66         60
    67        640
    68        340
    69        310
    70         30
    71         80
    77        110
    78         20
    79        150
    80         70
    81        620
    82        230
    83         90
    84         70
    85         30
    91         90
    92         30
    93        110
    94         90
    95        560
    96        200
    97         60
    98        210
    99         40
   105         50
   106         50
   107        100
   108        100
   109        470
   110        200
   111        130
   112         20
   119         30
   120         50
   121        110
   122         90
   123         70
   124         70
   125        190
   126         40
   133         70
   134         40
   135         50
   136        470
   137        140
   138        100
   139         30
   147        140
   148         10
   149         10
   151         40
   152         10
   162        190
   163         40
   165        150
   166         50
   180        270
   181         60
   182         50