##TITLE=Library Entry 57128
##JCAMP-DX=Revision 4.10 
##DATA TYPE=MASS SPECTRUM
##SAMPLE DESCRIPTION=Chemical Concepts
##NAMES=HP
##CAS NAME=1,3-Dioxolane-2-propanoic acid, 2-methyl-, ethyl ester
##MOLFORM=C9H16O4
##CAS REGISTRY NO=941-43-5
##MP= -300
##BP= -300
##MW= 188
##$RETENTION INDEX=0
##$CONDENSED SPECTRUM=NO
##NPOINTS= 68
##XYDATA=(XY..XY) 1 
    26         18
    27         95
    28         27
    29        129
    30          5
    31         13
    39         38
    40          7
    41         36
    42         33
    43        702
    44         21
    45         51
    50         14
    51         22
    52         32
    53         25
    54         11
    55         79
    56         26
    57         15
    58          5
    59          8
    60          6
    61          4
    63          5
    64          6
    65          5
    69          5
    70          6
    71         73
    72          8
    73         31
    74         16
    75          9
    77         14
    78          7
    79         39
    81          9
    83          6
    84          4
    85         55
    86          8
    87        999
    88         46
    89          8
    91          8
    92          4
    97         11
    98         11
    99        481
   100         34
   101         46
   102         12
   105          4
   113          5
   115         15
   120         15
   127          3
   128          6
   129         40
   130          3
   143        179
   144         17
   145         13
   158          8
   173        121
   174         11