##TITLE=Library Entry 62591
##JCAMP-DX=Revision 4.10 
##DATA TYPE=MASS SPECTRUM
##SAMPLE DESCRIPTION=M. M. CAMPBELL
##NAMES=HP
##CAS NAME=Benzenesulfonyl azide, 4-methyl-
##MOLFORM=C7H7N3O2S
##CAS REGISTRY NO=941-55-9
##MP= -300
##BP= -300
##MW= 197
##$RETENTION INDEX=0
##$CONDENSED SPECTRUM=NO
##NPOINTS= 20
##XYDATA=(XY..XY) 1 
    37         30
    40         20
    51         20
    63         30
    64         60
    65        140
    77         30
    78         20
    79         20
    89         40
    90         20
    91        999
    92         80
   106        190
   107        160
   155        990
   156         70
   157         40
   197        140
   198         20