##TITLE=Library Entry 40238
##JCAMP-DX=Revision 4.10 
##DATA TYPE=MASS SPECTRUM
##SAMPLE DESCRIPTION=Chemical Concepts
##NAMES=HP
##CAS NAME=4-Pentenamide, 4-[(diethylamino)methyl]-N,N-diethyl-2-methylene-
##MOLFORM=C15H28N2O
##CAS REGISTRY NO=94123-18-9
##MP= -300
##BP= -300
##MW= 252
##$RETENTION INDEX=0
##$CONDENSED SPECTRUM=NO
##NPOINTS= 127
##XYDATA=(XY..XY) 1 
    26         60
    27        199
    28        227
    29        791
    30        490
    31          5
    38          7
    39        133
    40         38
    41        151
    42        277
    43         52
    44        123
    45          5
    46         10
    50          6
    51         27
    52         19
    53        141
    54         36
    55        100
    56        211
    57         43
    58        254
    59         17
    63          8
    64          3
    65         61
    66         31
    67         84
    68         49
    69         30
    70        107
    71         31
    72        999
    73         78
    74         74
    75         10
    77         83
    78         30
    79        162
    80         53
    81        260
    82         47
    83         27
    84         48
    85         17
    86        543
    87         40
    90          2
    91         14
    92          7
    93         52
    94         47
    95         28
    96         81
    97         36
    98         67
    99         21
   100        893
   101         34
   102          2
   104          5
   105         11
   106         21
   107        122
   108        111
   109         57
   110         73
   111         89
   112        440
   113         66
   114          6
   118          4
   119          4
   120         14
   121         12
   122        149
   123         27
   124        272
   125         34
   126        128
   127         11
   128          3
   129          5
   133          3
   134         11
   135          7
   136        127
   137         18
   138         87
   139         16
   140         26
   141          3
   148          4
   149          7
   150        915
   151        111
   152        109
   153         29
   154          7
   162          4
   164         42
   165          8
   166         65
   167         15
   168          6
   178         22
   179        213
   180        736
   181        158
   182         19
   183          2
   193          8
   194          2
   195         10
   207          2
   209          6
   210          3
   222          2
   223         86
   224         11
   237         18
   238          3
   251          5
   252         91
   253         18