##TITLE=Library Entry 49486
##JCAMP-DX=Revision 4.10 
##DATA TYPE=MASS SPECTRUM
##SAMPLE DESCRIPTION=Chemical Concepts
##NAMES=HP
##CAS NAME=Bicyclo[3.2.0]hept-2-ene, 2-methyl-
##MOLFORM=C8H12
##CAS REGISTRY NO=94122-58-4
##MP= -300
##BP= -300
##MW= 108
##$RETENTION INDEX=0
##$CONDENSED SPECTRUM=NO
##NPOINTS= 74
##XYDATA=(XY..XY) 1 
    25          3
    26         29
    27        120
    28         27
    29         20
    30          0
    37          4
    38         14
    39        152
    40         23
    41         72
    42          4
    43          4
    44          0
    45          2
    46          0
    49          2
    50         30
    51         67
    52         41
    53         55
    54         14
    55         10
    56          1
    57          2
    58          0
    59          0
    60          0
    61          2
    62          7
    63         19
    64          4
    65         53
    66         18
    67         20
    68          3
    69          0
    70          0
    71          2
    73          0
    74          4
    75          4
    76          2
    77        170
    78         54
    79        469
    80        999
    81         78
    82          2
    83          0
    84          0
    85          0
    86          0
    87          0
    89          3
    90          1
    91        120
    92         16
    93        155
    94         13
    95          3
    96          1
    97          0
    98          0
   102          0
   103          4
   104          1
   105         10
   106          3
   107         14
   108         67
   109          7
   110          0
   112          0