##TITLE=Library Entry 70054
##JCAMP-DX=Revision 4.10 
##DATA TYPE=MASS SPECTRUM
##SAMPLE DESCRIPTION=Chemical Concepts
##NAMES=HP
##CAS NAME=2-Butenamide, N,N-diethyl-2,3-dimethyl-
##MOLFORM=C10H19NO
##CAS REGISTRY NO=94123-23-6
##MP= -300
##BP= -300
##MW= 169
##$RETENTION INDEX=0
##$CONDENSED SPECTRUM=NO
##NPOINTS= 88
##XYDATA=(XY..XY) 1 
    26          3
    27        119
    28         23
    29        133
    30         20
    31          1
    37          0
    38          4
    39         81
    40         19
    41        439
    42         76
    43         12
    44         41
    45          1
    46          2
    50          4
    51         13
    52          8
    53         59
    54         11
    55         21
    56         29
    58         66
    59          2
    62          0
    63          1
    64          0
    65         11
    66          4
    67         68
    68         56
    69        720
    70         55
    71          2
    72         68
    73         20
    74         18
    75          0
    77          0
    79          1
    80          2
    81          4
    82          4
    83          8
    84          3
    86          4
    92          0
    93          0
    94          2
    95          4
    96        173
    97        999
    98         66
    99          5
   100         20
   101          3
   106          0
   108          2
   109          5
   110         10
   111          7
   112         12
   113          0
   114          2
   122          1
   123          0
   124          6
   125          6
   126         24
   127          3
   128          0
   136          4
   137          1
   138          6
   139         12
   140         66
   141          9
   142          0
   152          2
   153          2
   154        546
   155         59
   156          4
   168          6
   169        390
   170         58
   171          5