##TITLE=Library Entry 69201
##JCAMP-DX=Revision 4.10 
##DATA TYPE=MASS SPECTRUM
##SAMPLE DESCRIPTION=Chemical Concepts
##NAMES=HP
##CAS NAME=Iron, tris(.eta.3-2-propenyl)-
##MOLFORM=C9H15Fe
##CAS REGISTRY NO=94139-77-2
##MP= -300
##BP= -300
##MW= 179
##$RETENTION INDEX=0
##$CONDENSED SPECTRUM=NO
##NPOINTS= 94
##XYDATA=(XY..XY) 1 
    23          0
    25          1
    26          3
    27         13
    36          2
    37          8
    38         18
    39        125
    41         93
    42         28
    50          2
    51          3
    52          2
    53         11
    54         51
    55          5
    56        787
    57        158
    58          2
    65          3
    66          3
    67         37
    68          7
    69         19
    70         62
    71        134
    72          5
    74          0
    77          4
    79         21
    80          9
    81         48
    82        159
    83         90
    84         22
    91          0
    92          1
    93         27
    94         91
    95        285
    96        999
    97        189
    98        178
    99          8
   102          0
   104          0
   105          0
   106          1
   108         29
   109         92
   110        318
   111        160
   112        105
   113          6
   114          1
   116          1
   117          0
   118          2
   119          7
   120          1
   121         96
   122          4
   123          8
   124          2
   130          0
   132          6
   133         14
   134         85
   135        230
   136         66
   137        653
   138        254
   139         22
   140          1
   142          0
   147          0
   148          0
   149          1
   152          0
   153          0
   161          0
   162          1
   165          1
   166          0
   167          0
   171          0
   175          2
   176          0
   177         34
   178          5
   179        366
   180         46
   181          4
   182          0