##TITLE=Library Entry 29613
##JCAMP-DX=Revision 4.10 
##DATA TYPE=MASS SPECTRUM
##SAMPLE DESCRIPTION=A.A.Kutin, Moscow, Russia
##NAMES=HP
##CAS NAME=7-Oxa-1-bromobicyclo[2.2.1]heptane-2,3-dicarboxylic acid, dimethy
l ester
##MOLFORM=C10H13BrO5
##CAS REGISTRY NO=94160-68-6
##MP= -300
##BP= -300
##MW= 292
##$RETENTION INDEX=0
##$CONDENSED SPECTRUM=NO
##NPOINTS= 175
##XYDATA=(XY..XY) 1 
    33         28
    34          6
    36          4
    37         28
    39        981
    40        259
    41        664
    42        186
    43        126
    44         60
    45        101
    46          4
    47         13
    50         82
    51        163
    53        530
    54         85
    55        274
    56         28
    57         47
    59        999
    61         37
    62         20
    63         47
    65        390
    66        267
    67        271
    68         85
    69        169
    70         23
    71         98
    72         11
    73          6
    74          5
    75         19
    77         52
    79        136
    81        338
    82         83
    83         53
    84         30
    85         90
    86          5
    87          5
    88          1
    89          1
    91         26
    93        225
    94        115
    95        184
    96         30
    97        135
    98         71
    99         23
   101         72
   102          8
   103          2
   104          2
   105          8
   107         40
   109        128
   111        195
   113        329
   114         30
   115          5
   117         13
   119         25
   121        181
   122         25
   123         31
   124         28
   125        228
   126         31
   127         33
   128          4
   129          7
   131         17
   132          5
   133         20
   134          5
   135          9
   136          2
   137          7
   139         60
   140          7
   141         15
   142          2
   143         11
   145         58
   146         45
   147         34
   148         44
   149         40
   150         10
   151          9
   152         24
   153        260
   154         28
   155          8
   156          7
   157          8
   159         20
   161         19
   162          2
   163         20
   164          1
   165         17
   166          0
   167          1
   169         31
   171         21
   173         30
   174          4
   175         26
   176          3
   177          4
   178          1
   179          7
   180         31
   181        112
   182         10
   183          3
   184          6
   185         73
   186          6
   187          2
   188          0
   189         12
   191         14
   193          9
   194          1
   195          0
   197          0
   198          0
   199          1
   200          2
   201         50
   203         57
   204          6
   205         34
   207         36
   208          2
   209          0
   210          2
   212          3
   213        169
   214         16
   215          2
   217          3
   218          0
   219          1
   220          0
   227          0
   229          9
   231         19
   232         11
   233        320
   235        341
   236         25
   237          2
   245          0
   247          0
   249          0
   259          0
   260          1
   261         45
   262          5
   263         40
   264          4
   265          0
   266          0
   283          0
   292          2
   293          0
   294          2