##TITLE=Library Entry 44904
##JCAMP-DX=Revision 4.10 
##DATA TYPE=MASS SPECTRUM
##SAMPLE DESCRIPTION=A.A.Kutin, Moscow, Russia
##NAMES=HP
##CAS NAME=1,3,4-Thiadiazol-2-amine, 5-(4-fluorophenyl)-
##MOLFORM=C8H6FN3S
##CAS REGISTRY NO=942-70-1
##MP= -300
##BP= -300
##MW= 195
##$RETENTION INDEX=0
##$CONDENSED SPECTRUM=NO
##NPOINTS= 139
##XYDATA=(XY..XY) 1 
    33         14
    34          5
    35          2
    36         10
    37         20
    38         22
    39         27
    40         11
    41         13
    42         41
    43          9
    44         17
    45         51
    46         16
    47         54
    48          5
    49         16
    50         69
    51         34
    52          6
    53          1
    54          1
    55          2
    56         15
    57         80
    58         12
    59         24
    60        124
    61         23
    62         33
    63         33
    64         10
    65          2
    66          1
    68         34
    69         91
    70         27
    71          6
    74        999
    75        187
    76         58
    77          4
    78          1
    79          2
    80          9
    81         40
    82         22
    83          7
    84          3
    85          7
    86          9
    87         16
    88          8
    89          9
    90          1
    91          2
    92          8
    93         35
    94         86
    95        240
    96         18
    98         17
    99          5
   100          9
   101          3
   102          7
   103          1
   104          2
   105          7
   106         10
   107         69
   108         46
   109         62
   110          4
   111          5
   112          4
   113          2
   114          0
   115          1
   116          1
   117          4
   118          2
   119          8
   121        118
   122        236
   123         20
   124          1
   125          2
   126         13
   127          2
   128          1
   129          1
   130          0
   131          0
   133         10
   134          3
   136         51
   137         12
   139        302
   140         24
   141         13
   142          1
   143          0
   144          0
   145          0
   146          0
   147          0
   151          1
   153         76
   154          6
   155          5
   156          1
   157          1
   158          0
   160          0
   161          0
   162          0
   166          0
   167          0
   169          0
   170          0
   171          0
   172          0
   173          1
   174          0
   175          0
   176          0
   177          1
   178          0
   179          0
   180          0
   187          0
   189          0
   190          0
   195        736
   196         73
   197         32
   198          3
   199          0