##TITLE=Library Entry 79247
##JCAMP-DX=Revision 4.10 
##DATA TYPE=MASS SPECTRUM
##SAMPLE DESCRIPTION=Japan AIST/NIMC Database- Spectrum MS-NW-3877
##NAMES=HP
##CAS NAME=Acetoxime benzoate
##MOLFORM=C10H11NO2
##CAS REGISTRY NO=942-89-2
##MP= -300
##BP= -300
##MW= 177
##$RETENTION INDEX=0
##$CONDENSED SPECTRUM=NO
##NPOINTS= 73
##XYDATA=(XY..XY) 1 
    12          1
    13          1
    14          5
    15         67
    16          1
    17          1
    18          4
    25          2
    26         10
    27         28
    28         21
    29         10
    30          9
    36          1
    37          9
    38         17
    39         36
    40         29
    41         65
    42        135
    43          5
    44          6
    45          6
    47          2
    49          5
    50         53
    51        125
    52         19
    53          3
    54         11
    55          9
    56         73
    57         18
    58          2
    61          3
    62          2
    63          3
    64          1
    65          7
    66          5
    67          1
    68          1
    69          1
    70          4
    71          3
    72          2
    73          4
    74         16
    75          9
    76         20
    77        364
    78         35
    79          2
    91          1
    92          1
    93          1
    94          9
    95          1
    97         14
    98          1
   103          1
   104          5
   105        999
   106         75
   107          5
   112         13
   113          1
   121          2
   122        230
   123         17
   124          2
   136          1
   177          1