##TITLE=Library Entry 31154
##JCAMP-DX=Revision 4.10 
##DATA TYPE=MASS SPECTRUM
##SAMPLE DESCRIPTION=W.Jennings, T.Shibamoto
##NAMES=HP
##CAS NAME=10-Undecenoic acid, propyl ester
##MOLFORM=C14H26O2
##CAS REGISTRY NO=94230-80-5
##MP= -300
##BP= -300
##MW= 226
##$RETENTION INDEX=1565
##$CONDENSED SPECTRUM=NO
##NPOINTS= 95
##XYDATA=(XY..XY) 1 
    27          7
    29         39
    37         79
    41        189
    42        238
    43        811
    44         27
    45         19
    54         79
    55        673
    56        167
    57        119
    58          7
    59         59
    60        548
    61        999
    62         19
    66         69
    67        258
    68        227
    69        507
    70        147
    71        109
    73        379
    74         47
    75          7
    79         27
    80         38
    81        319
    82        399
    83        559
    84        489
    85        128
    86          7
    87        139
    88          7
    91          7
    93         38
    94         47
    95        139
    96        488
    97        352
    98        299
    99         88
   100         67
   101        139
   102        299
   103         39
   105         27
   106          7
   107         47
   108          7
   109         79
   110        159
   111         99
   112         39
   113         39
   114         89
   115        219
   116         19
   117          7
   119         27
   121         39
   122        119
   123        218
   124        459
   125        159
   126         19
   127         38
   128          7
   129         38
   132         27
   133         79
   137         89
   138         68
   139         19
   140         27
   141         39
   142         19
   143         27
   147         47
   148         68
   149        269
   150         39
   151          7
   155         19
   156          7
   165         39
   166        251
   167        219
   168         19
   169          7
   183          7
   184          7
   185         19