##TITLE=Library Entry 90504
##JCAMP-DX=Revision 4.10 
##DATA TYPE=MASS SPECTRUM
##SAMPLE DESCRIPTION=D.Harvey ET AL.J.Chrom.,301,173,(1984)
##NAMES=HP
##CAS NAME=Anteiso-pentacosanoic acid, pyrrolidide
##MOLFORM=C29H57NO
##CAS REGISTRY NO=94245-51-9
##MP= -300
##BP= -300
##MW= 435
##$RETENTION INDEX=0
##$CONDENSED SPECTRUM=NO
##NPOINTS= 89
##XYDATA=(XY..XY) 1 
    41          4
    43         16
    44          9
    55          7
    56          4
    57         13
    67          4
    69         16
    70         24
    71         42
    72         22
    73         18
    76         11
    81          7
    82          9
    83         16
    84          9
    86          9
    92          4
    96          7
    97          9
    98         13
    99         16
   109          4
   110          4
   111         11
   112          7
   113        999
   114         76
   116          4
   118         18
   126        138
   127         29
   128          7
   133         29
   134          7
   139          1
   140         17
   141          6
   142          2
   145          4
   146          1
   147          1
   150          2
   154          8
   155         19
   156          2
   168         17
   169          8
   170          2
   182         15
   183          4
   184          1
   196          6
   197          2
   210          6
   211          2
   224          6
   225          2
   238          5
   239          1
   252          4
   253          1
   266          4
   267          1
   280          4
   281          1
   294          5
   296          1
   308          4
   309          1
   322          4
   323          1
   336          3
   350          2
   364          3
   378          7
   379          2
   380          1
   392          2
   406         13
   407         51
   408          1
   420          6
   421          2
   434         43
   435          9
   436          2
   437          1