##TITLE=Library Entry 4280
##JCAMP-DX=Revision 4.10 
##DATA TYPE=MASS SPECTRUM
##SAMPLE DESCRIPTION=Chemical Concepts
##NAMES=HP
##CAS NAME=1-Cyclopropyl-6,7,8-trifluoro-4-oxo-1,4-dihydroquinoline-3-carbox
ylic acid, ethyl ester
##MOLFORM=C15H12F3NO3
##CAS REGISTRY NO=94242-51-0
##MP= -300
##BP= -300
##MW= 311
##$RETENTION INDEX=0
##$CONDENSED SPECTRUM=NO
##NPOINTS= 247
##XYDATA=(XY..XY) 1 
    34          2
    36          3
    37          6
    38         17
    39        362
    40         29
    41        999
    42         59
    43        142
    44         15
    45         12
    46          2
    47          1
    49          1
    50          5
    51         15
    52         22
    53        219
    54         50
    55         36
    56         29
    57         17
    58          1
    59          8
    60          6
    61          9
    62          7
    63          7
    64          3
    65          7
    66         13
    67         24
    68         47
    69         36
    70          4
    71          7
    72          5
    73         10
    74         11
    75         28
    76          4
    77          3
    78         49
    79         17
    80        115
    81         75
    82         14
    83          6
    84          2
    85          7
    86          9
    87         11
    88          5
    89          1
    91          2
    92         27
    93         19
    94         20
    95          7
    96          4
    97          5
    98          5
    99         47
   100         12
   101          4
   103          1
   104          5
   105         45
   106         31
   107          9
   108         20
   109         38
   110          4
   111         10
   112         11
   113          3
   114          3
   115          3
   116          2
   117          7
   118         39
   119         37
   120          3
   121          4
   122          2
   123         16
   124          6
   125         11
   126          4
   127          4
   128          3
   129          5
   130         65
   131         26
   132          7
   133         13
   134          4
   135         30
   136          7
   137          8
   138          7
   139          3
   140          2
   141          2
   142         12
   143         58
   144         29
   145          9
   146         23
   147         11
   148          3
   149          4
   150         17
   151          9
   152          4
   153          1
   154          4
   155         14
   156         32
   157         12
   158         36
   159         18
   160          4
   161          4
   162         18
   163          9
   164          8
   165          5
   166          3
   167          3
   168         15
   169         52
   170         55
   171         23
   172         16
   173          6
   174         70
   175         92
   176         12
   177          3
   178          3
   179          2
   180          4
   181          9
   182         37
   183         31
   184         38
   185         19
   186         23
   187          6
   188          6
   189          7
   190         39
   191          8
   192         17
   193          4
   194          6
   195          5
   196          8
   197         11
   198         23
   199         14
   200         29
   201          5
   202          4
   203          2
   204          1
   205          3
   206          8
   207          6
   208         35
   209         26
   210        151
   211         59
   212         16
   213          5
   214          6
   215          2
   216          7
   217          3
   218         27
   219         33
   220         40
   221         34
   222         17
   223          7
   224         73
   225         35
   226         53
   227         44
   228         25
   229          7
   230          2
   231          1
   234          1
   235          2
   236         66
   237         54
   238        374
   239        506
   240         72
   241         11
   242         10
   243          2
   244          1
   245          1
   246         44
   247          8
   248          2
   249          1
   250          2
   251          1
   252          4
   253          2
   254         22
   255         11
   256          4
   257          1
   262          1
   263          1
   264         66
   265         70
   266        119
   267         81
   268         18
   269          2
   271          5
   272          1
   273          1
   275          1
   280          1
   281          1
   282         25
   283        143
   284         20
   285          3
   290          1
   291          2
   292         44
   293          7
   294          1
   297          4
   308          1
   310         18
   311        143
   312         29
   313          3