##TITLE=Library Entry 67201
##JCAMP-DX=Revision 4.10 
##DATA TYPE=MASS SPECTRUM
##SAMPLE DESCRIPTION=Chemical Concepts
##NAMES=HP
##CAS NAME=1,6-Hexanedisulfonic acid, diphenyl ester
##MOLFORM=C18H22O6S2
##CAS REGISTRY NO=94265-81-3
##MP= -300
##BP= -300
##MW= 398
##$RETENTION INDEX=0
##$CONDENSED SPECTRUM=NO
##NPOINTS= 215
##XYDATA=(XY..XY) 1 
    25          0
    26          4
    27         41
    29         74
    30          2
    31          1
    35          0
    36          0
    37          1
    38         10
    39        144
    41        296
    42         33
    43         42
    44          5
    45          3
    46          1
    47          2
    48          2
    49          0
    50          5
    51         20
    52          2
    53         21
    54         13
    55        855
    56         73
    57         14
    58          2
    59          1
    60          4
    61          1
    62          2
    63         16
    64          9
    65        163
    66         39
    67         55
    68          4
    69         20
    70          3
    71          8
    72          0
    73          4
    74          1
    75          1
    76          2
    77         57
    78          6
    79         23
    80          3
    81        254
    82         41
    83        929
    84         54
    85          5
    86          0
    87          2
    88          0
    89          2
    90          0
    91          7
    92          2
    93         28
    94        999
    95        153
    96         10
    97          5
    98          2
    99          1
   100          0
   101          0
   102          1
   103          2
   104          1
   105         10
   106          1
   107         19
   108          1
   109          2
   110          1
   111          3
   112          0
   113          1
   114          0
   115          2
   116          1
   117          1
   118          1
   119          1
   120          4
   121          6
   122          1
   123          0
   124          0
   125          1
   126          0
   127          0
   128          1
   129          3
   130          1
   131          2
   132          0
   133          3
   134          1
   135          2
   136          0
   137          0
   138          0
   139          0
   140          0
   141          3
   142          0
   143          1
   144          0
   145          1
   146          0
   147        114
   148          8
   149          6
   150          0
   151          0
   152          0
   153          0
   155          0
   157          1
   158          1
   159          7
   160          0
   161          2
   162          0
   163          0
   165          0
   166          0
   167          0
   169          0
   171          2
   172          0
   173          5
   174          1
   175          4
   176          0
   177          1
   178          0
   179          0
   181          0
   183          0
   184          0
   185          0
   186          0
   187          0
   189          0
   191          0
   192          0
   193          0
   194          0
   195          0
   197          0
   199          2
   200          0
   203          0
   205          2
   206          0
   207          0
   208          0
   209          0
   211          1
   212          0
   213          0
   214          0
   215          0
   216          0
   217          0
   219          0
   220          0
   221          0
   222          0
   223          3
   224          0
   225          0
   227          1
   229          0
   233          0
   235          0
   236          0
   237          0
   241         70
   242          9
   243          3
   244          0
   253          0
   254          0
   256          0
   262          0
   265          0
   270          0
   277          0
   279          0
   287          0
   289          0
   291          0
   297          0
   305        121
   306         18
   307         14
   308          1
   309          0
   323          0
   334          0
   368          0
   398         51
   399         10
   400          6
   401          1
   402          0