##TITLE=Library Entry 3028
##JCAMP-DX=Revision 4.10 
##DATA TYPE=MASS SPECTRUM
##SAMPLE DESCRIPTION=Chemical Concepts
##NAMES=HP
##CAS NAME=2,4-Di-tert-butyl-6-(tert-butylamino)phenol
##MOLFORM=C18H31NO
##CAS REGISTRY NO=94260-23-8
##MP= -300
##BP= -300
##MW= 277
##$RETENTION INDEX=0
##$CONDENSED SPECTRUM=NO
##NPOINTS= 136
##XYDATA=(XY..XY) 1 
    34         48
    35          3
    36         23
    37         15
    39        399
    40        514
    41        999
    42        182
    43        362
    44        333
    45         35
    49          1
    50         24
    51         54
    53        103
    55        382
    56        169
    57        965
    58         75
    59          9
    60         24
    63         23
    64          6
    65         50
    67         90
    68         35
    69        107
    70        112
    71         60
    72         26
    73         17
    74         11
    76          2
    77         51
    79         51
    80         20
    81         42
    82         57
    83         61
    84         48
    85         24
    87         15
    89          4
    91         71
    92         12
    93         18
    94         14
    95         26
    96         16
    97         15
    98         17
    99          5
   101         23
   103         18
   105         36
   106         18
   107         22
   108          8
   109         18
   110          8
   111          8
   112         25
   113         11
   115         18
   116         19
   117         19
   119         16
   120         21
   121         13
   122         12
   123         20
   124          5
   125          1
   127          8
   128          9
   129         13
   130         10
   131         24
   132          9
   133         15
   134         19
   135         11
   136          9
   137          1
   141          4
   143          7
   145          7
   146          5
   147         23
   148         13
   149         19
   150         26
   151         10
   155          1
   158          2
   159          1
   161          6
   162         11
   163         13
   164         79
   165         12
   170          2
   171         13
   177         14
   178         13
   179         14
   185          1
   189          9
   190         28
   191         41
   192          7
   201          1
   203          3
   204         12
   205         41
   206        295
   207        321
   208         41
   209          1
   218          3
   219         14
   220         86
   221        376
   222        128
   223         16
   230          3
   232          3
   246         17
   247          3
   260          4
   261          3
   262         58
   263         11
   276         10
   277        109
   278         19