##TITLE=Library Entry 49956
##JCAMP-DX=Revision 4.10 
##DATA TYPE=MASS SPECTRUM
##SAMPLE DESCRIPTION=NIST Mass Spectrometry Data Center
##NAMES=HP
##CAS NAME=Propanoic acid, 3-[(2-furanylmethyl)thio]-, ethyl ester
##MOLFORM=C10H14O3S
##CAS REGISTRY NO=94278-27-0
##MP= -300
##BP= -300
##MW= 214
##$RETENTION INDEX=0
##$CONDENSED SPECTRUM=NO
##NPOINTS= 86
##XYDATA=(XY..XY) 1 
    13          1
    14          1
    15          6
    16          1
    26         20
    27        147
    28         52
    29        109
    30          4
    32          1
    33          1
    34          1
    35          4
    37          2
    38          9
    39         33
    40          2
    41          9
    42         10
    43         15
    45         90
    46         19
    47         10
    48          1
    49          1
    50         17
    51         40
    52         30
    53        192
    54         11
    55         18
    56          3
    57          5
    58         19
    59         25
    60         17
    61         18
    62          2
    63         11
    65          1
    68          2
    69         13
    70          1
    71          2
    72          1
    73          9
    75          1
    77          5
    79          4
    81        999
    82         77
    83          7
    84          7
    85         24
    86          2
    87         16
    88          6
    89          5
    91          4
    97         11
    98          1
   101          5
   105         13
   107          6
   112         53
   113        132
   114         11
   115          6
   125          1
   126          2
   133         25
   134          2
   135          2
   139          1
   140         13
   141          1
   168          3
   169          6
   170          1
   180         19
   181          4
   185          1
   214        162
   215         19
   216          8
   217          1