##TITLE=Library Entry 5681
##JCAMP-DX=Revision 4.10 
##DATA TYPE=MASS SPECTRUM
##SAMPLE DESCRIPTION=Chemical Concepts
##NAMES=HP
##CAS NAME=1-[3-(4-Bromophenyl)-2-thioureido]-1-deoxy-b-d-glucopyranose 2,3,
4,6-tetraacetate
##MOLFORM=C21H25BrN2O9S
##CAS REGISTRY NO=94273-12-8
##MP= -300
##BP= -300
##MW= 560
##$RETENTION INDEX=0
##$CONDENSED SPECTRUM=NO
##NPOINTS= 109
##XYDATA=(XY..XY) 1 
    38         23
    40         58
    43        999
    44         39
    45         21
    46         11
    47          1
    48          1
    50         18
    51          8
    52          5
    53          5
    55         13
    56          6
    57          9
    59         14
    60         23
    61          9
    63         19
    64          9
    65         19
    66          3
    67          3
    69         17
    70          9
    71          8
    72          8
    73          9
    74          7
    75          9
    76          8
    77          3
    79          5
    80          6
    81         18
    82          7
    83          5
    84          7
    85          9
    86          4
    87          4
    88          9
    90          9
    91          6
    92          9
    93          3
    97         21
    98          7
    99          8
   100          7
   101          4
   102          7
   103          5
   105          1
   108         13
   109         30
   110          5
   112          9
   113          4
   115         11
   116          2
   117          2
   118          1
   119          1
   124          3
   125          4
   126         11
   127         10
   128          2
   130          1
   134          5
   135          3
   136          1
   139          5
   140          1
   141          3
   142          2
   143          4
   145          5
   150          4
   151          1
   154          3
   155          4
   157          5
   168         21
   169         11
   170          4
   171         10
   172          3
   173          9
   174          1
   184          1
   186          1
   187          1
   189          1
   196          1
   197          1
   198          1
   199          1
   210          9
   211          2
   213          6
   214          3
   215          6
   216          2
   231          1
   257          1
   270          1
   331          1