##TITLE=Library Entry 71975
##JCAMP-DX=Revision 4.10 
##DATA TYPE=MASS SPECTRUM
##SAMPLE DESCRIPTION=Chemical Concepts
##NAMES=HP
##CAS NAME=Hexanoic acid, 2-butenyl ester
##MOLFORM=C10H18O2
##CAS REGISTRY NO=94291-54-0
##MP= -300
##BP= -300
##MW= 170
##$RETENTION INDEX=0
##$CONDENSED SPECTRUM=NO
##NPOINTS= 80
##XYDATA=(XY..XY) 1 
    25          1
    26         21
    27        266
    28         81
    29        329
    30          9
    31         10
    37          3
    38         11
    39        247
    40         32
    41        234
    42        113
    43        761
    44         30
    45         17
    49          1
    50          7
    51         13
    52          9
    53         74
    54        165
    55        814
    56         81
    57         32
    58          3
    59          5
    60         53
    61         11
    62          1
    63          1
    65          1
    66          1
    67          7
    68         18
    69        131
    70         29
    71        686
    72         51
    73         70
    74          5
    75          9
    77          1
    79          2
    80          3
    81         16
    82          4
    83         11
    84          2
    85          3
    86          7
    87         21
    88          2
    89         13
    91          1
    95          4
    96          9
    97         74
    98          4
    99        999
   100         72
   101          9
   110          9
   111          2
   113          2
   114         34
   115         22
   116         30
   117         20
   118          1
   123          2
   124          1
   126          1
   127         45
   128         15
   129          2
   141         28
   142          3
   170         17
   171          2