##TITLE=Library Entry 32432
##JCAMP-DX=Revision 4.10 
##DATA TYPE=MASS SPECTRUM
##SAMPLE DESCRIPTION=Japan AIST/NIMC Database- Spectrum MS-NW-5212
##NAMES=HP
##CAS NAME=1,2-Epoxy-5,9-cyclododecadiene
##MOLFORM=C12H18O
##CAS REGISTRY NO=943-93-1
##MP= -300
##BP= -300
##MW= 178
##$RETENTION INDEX=0
##$CONDENSED SPECTRUM=NO
##NPOINTS= 144
##XYDATA=(XY..XY) 1 
    14          7
    15         21
    16          1
    26         22
    27        457
    28        107
    29        185
    30          4
    31         32
    32         10
    37          4
    38         25
    39        642
    40        111
    41        992
    42        198
    43        121
    44         40
    45          9
    46          1
    49          1
    50         37
    51        127
    52         75
    53        365
    54        815
    55        406
    56         55
    57        209
    58         14
    59          4
    60          2
    61          2
    62         10
    63         46
    64         15
    65        176
    66        145
    67        999
    68        427
    69        218
    70        192
    71         32
    72          4
    73          1
    74          7
    75          9
    76          9
    77        294
    78        198
    79        873
    80        465
    81        623
    82        150
    83        225
    84         44
    85          8
    86          2
    87          4
    88          1
    89         11
    90          5
    91        599
    92        194
    93        449
    94        180
    95        267
    96        178
    97        294
    98         36
    99          7
   100          1
   101          2
   102          7
   103         32
   104        122
   105        196
   106        236
   107        140
   108         75
   109        345
   110        147
   111         70
   112          7
   113          2
   114          1
   115         44
   116         23
   117        243
   118         79
   119        209
   120         71
   121        168
   122         74
   123        308
   124        121
   125         10
   126          2
   127          8
   128         20
   129         26
   130         18
   131        180
   132        145
   133         54
   134        160
   135         96
   136         54
   137         41
   138          5
   139          2
   140          1
   141          6
   142          3
   143          6
   144          2
   145         62
   146          8
   147         16
   148          6
   149         98
   150         51
   151          8
   152          4
   153          3
   154          2
   155          3
   156          4
   157          3
   158          6
   159         22
   160        172
   161         30
   162          9
   163         29
   164          4
   172          1
   174          2
   175          1
   176          8
   177          9
   178         93
   179         13
   180          2