##TITLE=Library Entry 66978
##JCAMP-DX=Revision 4.10 
##DATA TYPE=MASS SPECTRUM
##SAMPLE DESCRIPTION=Exported from NIST MS Search
##NAMES=HP
##CAS NAME=Carbonic acid, 1-methylethyl phenyl ester
##MOLFORM=C10H12O3
##CAS REGISTRY NO=943-57-7
##MP= -300
##BP= -300
##MW= 180
##$RETENTION INDEX=0
##$CONDENSED SPECTRUM=NO
##NPOINTS= 21
##XYDATA=(XY..XY) 1 
    41        145
    42         30
    43        448
    44         60
    50          9
    51         36
    64          9
    65         60
    66         36
    77        151
    78          6
    93         21
    94        999
    95         66
   103         24
   121        424
   122         24
   135         30
   136         81
   165         24
   180         24