##TITLE=Library Entry 26693
##JCAMP-DX=Revision 4.10 
##DATA TYPE=MASS SPECTRUM
##SAMPLE DESCRIPTION=DJ89-528-T4
##NAMES=HP
##CAS NAME=Cyclohexanecarboxylic acid, 4-(1,1-dimethylethyl)-, trans-
##MOLFORM=C11H20O2
##CAS REGISTRY NO=943-29-3
##MP= -300
##BP= -300
##MW= 184
##$RETENTION INDEX=0
##$CONDENSED SPECTRUM=NO
##NPOINTS= 40
##XYDATA=(XY..XY) 1 
    41        220
    43         60
    53         30
    54         30
    55         90
    56        539
    57        999
    58         50
    60         10
    67         90
    68         40
    69         50
    73         60
    77         30
    79         30
    80         40
    81        250
    82         40
    83         40
    97         10
    99         30
   100         50
   108         60
   109         80
   110         30
   111         10
   113         10
   123        150
   124         10
   126         50
   127        529
   128        300
   129        809
   130         70
   131         10
   151         50
   152         10
   169         50
   170         10
   184         18