##TITLE=Library Entry 14436
##JCAMP-DX=Revision 4.10 
##DATA TYPE=MASS SPECTRUM
##SAMPLE DESCRIPTION=A.A.Kutin, Moscow, Russia
##NAMES=HP
##CAS NAME=Ethanone, 1-[3-(2-hydroxynaphth-1-yl)methylenaminophenyl]-
##MOLFORM=C19H15NO2
##CAS REGISTRY NO=94300-94-4
##MP= -300
##BP= -300
##MW= 289
##$RETENTION INDEX=0
##$CONDENSED SPECTRUM=NO
##NPOINTS= 122
##XYDATA=(XY..XY) 1 
    37          5
    38         31
    39        143
    40         41
    41         47
    43        999
    44         34
    45          0
    50        162
    51        220
    52         39
    53          1
    58          6
    59          1
    60          4
    61          9
    62         50
    63        170
    64         57
    65        141
    66         12
    67          5
    68          0
    73          0
    74          6
    75         94
    76        172
    77        293
    78         48
    79          5
    80          0
    81         14
    82         32
    83         18
    84         13
    85          9
    86         18
    87         38
    88         53
    89         92
    90         30
    91        194
    92         22
    93          8
    94         87
    96         80
    97          8
    98         27
    99         15
   100         33
   101         78
   102         62
   103         15
   104         17
   105         35
   106          4
   107         44
   109        137
   110         18
   111          7
   112         12
   113         73
   114        170
   115        385
   116         71
   117          8
   118          5
   119         26
   120         20
   122        107
   123         88
   124          3
   125         23
   126         95
   127        163
   128        102
   129         31
   130          8
   131          1
   132          0
   133          1
   134          6
   135          4
   137        277
   139         24
   140         52
   141         46
   142         19
   143         65
   144         68
   145         41
   146         16
   147          2
   151         12
   152         57
   153         19
   154         37
   155          8
   169         59
   170        131
   171         29
   172         17
   173          0
   188         10
   189         59
   190          3
   216         42
   217         71
   218          3
   219          0
   246        118
   247         22
   248          2
   272        125
   273         28
   274          6
   275          0
   288        751
   289        642
   290        145
   291         16
   292          1