##TITLE=Library Entry 64434
##JCAMP-DX=Revision 4.10 
##DATA TYPE=MASS SPECTRUM
##SAMPLE DESCRIPTION=Chemical Concepts
##NAMES=HP
##CAS NAME=Cyclohexanone, 2-[[bis(phenylmethyl)amino]phenylmethyl]-
##MOLFORM=C27H29NO
##CAS REGISTRY NO=94318-25-9
##MP= -300
##BP= -300
##MW= 383
##$RETENTION INDEX=0
##$CONDENSED SPECTRUM=NO
##NPOINTS= 126
##XYDATA=(XY..XY) 1 
    26          6
    27         17
    28         14
    29          5
    37          5
    38         10
    39         61
    40         10
    41         40
    42         13
    43          7
    44          1
    49          2
    50         21
    51         36
    52         11
    53          8
    54          3
    55         28
    56          2
    57          2
    61          5
    62         12
    63         36
    64         13
    65        130
    66         10
    67         14
    68         12
    69          8
    70         24
    71          1
    73          1
    74          5
    75          7
    76         20
    77         29
    78         10
    79          8
    80          3
    81          4
    82          1
    83          7
    84          1
    85          1
    86          2
    87          2
    88          2
    89         44
    90         34
    91        999
    92        124
    93          7
    95          1
    96          3
    97          7
    98         13
    99          1
   101          1
   102          5
   103         54
   104         23
   105          9
   106         32
   107          3
   115         29
   116         18
   117         48
   118         29
   119          3
   120          6
   127          4
   128         12
   129         16
   130         12
   131          4
   132          2
   139          1
   141          4
   142          1
   143          8
   144          2
   145          1
   152          5
   153          1
   157          1
   158          3
   159          1
   164          1
   165         11
   166          6
   167          9
   168          1
   169          3
   170          1
   178          1
   179          2
   180          1
   181         35
   182          7
   183          1
   185         12
   186         10
   187          3
   192          1
   193          7
   194         80
   195         51
   196         26
   197          6
   198          1
   208          1
   210          1
   284          1
   285          2
   286        402
   287        106
   288         12
   289          1
   292         16
   293          4
   306          2
   307          0
   382          0
   383          2
   384          0