##TITLE=Library Entry 61019
##JCAMP-DX=Revision 4.10 
##DATA TYPE=MASS SPECTRUM
##SAMPLE DESCRIPTION=John Halket,Royal Holloway, University of London, UK
##NAMES=HP
##CAS NAME=5,8-Dihydroxy-4a-methyl-4,4a,4b,5,6,7,8,8a,9,10-decahydro-2(3H)-p
henanthrenone
##MOLFORM=C15H22O3
##CAS REGISTRY NO=94327-62-5
##MP= -300
##BP= -300
##MW= 250
##$RETENTION INDEX=0
##$CONDENSED SPECTRUM=NO
##NPOINTS= 181
##XYDATA=(XY..XY) 1 
    15          9
    19         14
    27        163
    28         94
    29        231
    30         12
    31        100
    32          1
    37          1
    39        209
    40         46
    41        382
    42         73
    43        252
    44        172
    45         70
    46          3
    47         18
    50         18
    51         90
    52         44
    53        173
    55        342
    56         48
    57        319
    58         25
    59         12
    60          5
    61          2
    62          6
    63         38
    65        190
    66         57
    67        156
    68         25
    69        100
    70         28
    71         92
    72         11
    73          7
    74          8
    75          7
    77        438
    78        140
    79        446
    80         68
    81         91
    82         26
    83         47
    84          8
    85         26
    86          4
    87         46
    88         10
    89         30
    91        999
    92        158
    93        233
    94         94
    95        124
    96         98
    97         43
    98          9
    99          6
   100          1
   101          5
   102         21
   103        136
   104        108
   105        861
   106        194
   107        208
   108         77
   109        122
   110         58
   111         74
   112          7
   113          6
   115        196
   116         86
   117        356
   118        222
   119        337
   120        109
   121         84
   122        155
   123         93
   124         92
   125         14
   127         36
   128        129
   129        222
   130        117
   131        532
   132        241
   133        221
   134         77
   135         69
   136        106
   137         43
   138          9
   139         11
   141         57
   142         84
   143        456
   144        178
   145        274
   146        111
   147        201
   148         74
   149         46
   150         14
   151         11
   152         65
   153         17
   154         10
   155        100
   156         66
   157        347
   158        319
   159        288
   160        120
   161        348
   162         84
   163         27
   164         24
   165         10
   166         13
   167         13
   168         13
   169         29
   170        208
   171        241
   172        204
   173        193
   174         74
   175        252
   176         95
   177         23
   178          5
   179          3
   181        100
   182         17
   183         10
   185         58
   186        177
   187         43
   188        199
   189         88
   190         39
   191         10
   192          2
   193          2
   194          1
   195          9
   196         58
   197         18
   199        659
   200        100
   201         14
   202          3
   203         23
   204         30
   205          4
   206          2
   207          2
   213         24
   214        203
   215         64
   217         86
   218         14
   219          2
   230          1
   232        327
   233         52
   234          5
   235          1
   248          1
   250        135
   251         24
   252          3