##TITLE=Library Entry 23021
##JCAMP-DX=Revision 4.10 
##DATA TYPE=MASS SPECTRUM
##SAMPLE DESCRIPTION=Chemical Concepts
##NAMES=HP
##CAS NAME=4-(Piperonylideneamino)antipyrine
##MOLFORM=C19H17N3O3
##CAS REGISTRY NO=94332-50-0
##MP= -300
##BP= -300
##MW= 335
##$RETENTION INDEX=0
##$CONDENSED SPECTRUM=NO
##NPOINTS= 148
##XYDATA=(XY..XY) 1 
    33          3
    34          1
    36          3
    38         12
    39         40
    40         14
    41         11
    42         18
    43         26
    44          4
    46          1
    50         27
    51         67
    52         11
    54         24
    56        999
    59          1
    60          1
    61          2
    62          7
    63         24
    64         26
    65         33
    67         14
    68          3
    69          2
    70          1
    71          1
    73          8
    75         24
    76         37
    77         87
    78         10
    80          1
    81          1
    82          5
    83          4
    84          3
    85          1
    87          1
    88          1
    89          6
    91         40
    92          6
    93          5
    94          1
    95          1
    96          1
    99          1
   100          1
   102         27
   104         19
   105          4
   106          1
   107          1
   108          1
   110          3
   111          1
   112          1
   115          4
   116          3
   117          3
   119         20
   121         85
   123          6
   127          1
   128          3
   129          3
   130          9
   131          3
   132          2
   133          1
   134          3
   135          7
   136          1
   138          1
   139          1
   141          1
   142          1
   144          3
   145          3
   146          5
   147          5
   148          7
   149         11
   150          1
   153          1
   156          1
   157          1
   158          2
   159          5
   160         18
   162          8
   163          1
   165          1
   167         29
   170          1
   171          1
   172          1
   173          3
   174          5
   175          2
   176          1
   184          3
   185          2
   186          5
   187          9
   188         35
   189          4
   190          1
   193          1
   194          1
   198          1
   200          1
   201          9
   202          3
   203          2
   204          1
   212          1
   213          4
   214          9
   215         20
   216          6
   217          1
   221          1
   224          2
   225          5
   226         42
   227          5
   228          1
   240          1
   241          2
   243         42
   244          6
   245          1
   251          1
   258          1
   305          1
   306          1
   307          1
   318          1
   319          1
   320          1
   333          3
   334          5
   335        146
   336         25
   337          3