##TITLE=Library Entry 66206
##JCAMP-DX=Revision 4.10 
##DATA TYPE=MASS SPECTRUM
##SAMPLE DESCRIPTION=G. Lange, Inst. Org. Chem., Univ. Wurzburg, Wurzburg, G
ermany
##NAMES=HP
##CAS NAME=Spiro[cyclopropane-1,8'-[4.5]diazatricyclo[4.3.0.0(3,7)]nonane]-4
',5'-dicarboximide, N-phenyl-
##MOLFORM=C17H17N3O2
##CAS REGISTRY NO=94348-07-9
##MP= -300
##BP= -300
##MW= 295
##$RETENTION INDEX=0
##$CONDENSED SPECTRUM=NO
##NPOINTS= 97
##XYDATA=(XY..XY) 1 
    36         18
    37          6
    38         19
    39        128
    40         48
    41        133
    42         21
    43         20
    44         91
    45         12
    50         17
    51         60
    52         45
    53         74
    54         37
    55         27
    56         26
    57          8
    62          6
    63         33
    64         73
    65        130
    66        111
    67         38
    68         15
    69         32
    70         14
    71         12
    74          5
    75          5
    76          7
    77        327
    78        131
    79        167
    80         71
    81         21
    82         35
    84         23
    85         19
    89         16
    90         20
    91        726
    92        484
    93        999
    94         89
    95         26
    97         13
   103         27
   104         29
   105         99
   106        145
   107         31
   108          8
   109         11
   115         13
   116         10
   117         67
   118        128
   119        351
   120         97
   121         61
   122         12
   130          8
   131         12
   132         44
   133         48
   134         60
   135         30
   136          6
   147         38
   148         70
   149         23
   159         10
   160         32
   161         35
   162          8
   173          6
   175         45
   176        141
   177         30
   178         20
   190         13
   191         11
   203         45
   204         19
   214          8
   227          6
   228          6
   241         26
   251          5
   266         21
   267          8
   280          5
   294          7
   295        274
   296         54
   297          6