##TITLE=Library Entry 50013
##JCAMP-DX=Revision 4.10 
##DATA TYPE=MASS SPECTRUM
##SAMPLE DESCRIPTION=NIST Mass Spectrometry Data Center
##NAMES=HP
##CAS NAME=(2E,4E,10E)-N-Isobutylhexadeca-2,4,10-trienamide
##MOLFORM=C20H35NO
##CAS REGISTRY NO=943546-13-2
##MP= -300
##BP= -300
##MW= 305
##$RETENTION INDEX=2558
##$CONDENSED SPECTRUM=NO
##NPOINTS= 151
##XYDATA=(XY..XY) 1 
    27         31
    29         53
    30         23
    39         75
    40         19
    41        440
    42         61
    43         77
    44          9
    45         11
    47          6
    51         23
    52         17
    53        234
    54         66
    55        683
    56         70
    57        423
    58         49
    59         27
    60        176
    65        113
    66        251
    67        663
    68        130
    69        213
    72        143
    73         33
    74         96
    75          9
    77        188
    78         45
    79        384
    80        130
    81        999
    82        156
    83         82
    85         67
    86         23
    91        134
    92         38
    93        150
    94        153
    95        326
    96        262
    97         79
    98        158
   100         80
   102         16
   105         72
   106         17
   107        280
   108         73
   109        182
   110        168
   111         23
   113         59
   115        406
   116        108
   118         18
   119         30
   120         34
   121        161
   122         60
   123        104
   124         61
   125         29
   126         64
   127         32
   128        181
   129         51
   133         58
   134         50
   135        161
   136         49
   137         69
   139         25
   140         37
   141         90
   142         30
   147         44
   151         15
   152        389
   153         58
   154        333
   155         68
   156          7
   163         24
   164         21
   166        110
   168         30
   169         22
   172          9
   173         15
   174         14
   177         10
   178         32
   179         11
   180        204
   181         48
   182         15
   183         10
   184          6
   188          9
   189          7
   190         24
   191         49
   192         27
   194         34
   195         12
   196         25
   200          6
   205         28
   206         35
   208         54
   209         34
   210         30
   212          8
   215          5
   217          9
   219          6
   220         17
   222         38
   223         26
   224         11
   226          6
   228          6
   229          4
   231          7
   233        100
   234         71
   235         11
   236          5
   237          7
   240          7
   244          5
   246          9
   248         38
   249         17
   250          6
   262         48
   263         10
   264          8
   271          5
   276         33
   277          7
   290         26
   291          4
   304         26
   305        203
   306         50