##TITLE=Library Entry 53766
##JCAMP-DX=Revision 4.10 
##DATA TYPE=MASS SPECTRUM
##SAMPLE DESCRIPTION=NIST Mass Spectrometry Data Center
##NAMES=HP
##CAS NAME=(2E,4E,10E)-1-(Piperidin-1-yl)hexadeca-2,4,10-trien-1-one
##MOLFORM=C21H35NO
##CAS REGISTRY NO=943546-16-5
##MP= -300
##BP= -300
##MW= 317
##$RETENTION INDEX=2792
##$CONDENSED SPECTRUM=NO
##NPOINTS= 87
##XYDATA=(XY..XY) 1 
    39         57
    40         20
    41        426
    42         98
    43        152
    53        203
    54         67
    55        664
    56        129
    65         78
    66        183
    67        445
    68         73
    69        358
    70         59
    77        160
    79        265
    80         69
    81        656
    82        106
    83        100
    84        999
    85        132
    86        127
    91         97
    92         28
    93         85
    94         93
    95        176
    97         58
    98         27
   106         16
   107        160
   108         60
   109         73
   112        512
   113         35
   117         71
   120         27
   121         79
   124         42
   125         16
   126         20
   127        471
   133         34
   134         43
   136         74
   137         87
   138        435
   139        104
   140        109
   150        111
   151         71
   152         78
   153         72
   163         24
   164        598
   165         94
   166        153
   169         15
   176         18
   177         22
   178        184
   179         86
   191         27
   192        451
   193         65
   195         13
   206         63
   208         45
   209         13
   220         88
   221         30
   234         45
   246         44
   248         11
   260         48
   271         10
   274         84
   275         27
   288         56
   289         19
   300         22
   301          8
   316         35
   317        200
   318         44