##TITLE=Library Entry 6109
##JCAMP-DX=Revision 4.10 
##DATA TYPE=MASS SPECTRUM
##SAMPLE DESCRIPTION=A.A.Kutin, Moscow, Russia
##NAMES=HP
##CAS NAME=p-Nitro carbanilic acid, n-nonyl ester
##MOLFORM=C16H24N2O4
##CAS REGISTRY NO=94373-85-0
##MP= -300
##BP= -300
##MW= 308
##$RETENTION INDEX=0
##$CONDENSED SPECTRUM=NO
##NPOINTS= 167
##XYDATA=(XY..XY) 1 
    33          6
    34          6
    35          4
    36         18
    37          8
    38         22
    39        124
    40         95
    41        605
    43        999
    44         53
    45          9
    46          2
    47          0
    48          0
    50         21
    51         15
    52         21
    53         33
    55        270
    56         80
    57        335
    58         13
    59          2
    60          1
    61          4
    62         11
    63         42
    64         39
    65         34
    66          7
    67         21
    68         22
    69         86
    70         41
    71        210
    72         10
    73          3
    74          4
    75         16
    76         22
    77          6
    78          7
    79         10
    80         11
    81         10
    82         14
    83         38
    84         23
    85        100
    86          6
    88          2
    90         34
    91         21
    92         24
    93         11
    94          1
    95          2
    96          4
    97         23
    98         16
    99          2
   100          0
   101          0
   102          0
   103          0
   104          1
   105          3
   106          8
   107          5
   108         55
   109          4
   110          0
   111          1
   112          1
   113          0
   114          0
   115          0
   116          0
   117          1
   118          4
   119          7
   120          2
   121          3
   122         13
   123          3
   124          3
   125          2
   126          6
   127          2
   128          0
   129          0
   130          0
   131          0
   132          1
   133          2
   134          8
   135          5
   136          2
   138        157
   139         13
   140          1
   141          0
   143          0
   144          0
   145          0
   146          0
   148          4
   149          3
   150          4
   151          8
   152          5
   153          1
   154          0
   155          0
   157          0
   159          0
   160          0
   161          6
   162          0
   163          4
   164          6
   165         26
   166         17
   167          7
   168          1
   169          0
   171         35
   172          3
   173          0
   174          0
   175          0
   177          0
   179          6
   182        162
   183         88
   184         10
   185          1
   187          2
   188          0
   189          1
   190          0
   191          0
   193          3
   194          0
   195          0
   205          0
   207          3
   208          0
   209          0
   217          0
   221          2
   223          3
   224          0
   235          2
   236          0
   237          0
   247          0
   278          2
   279          0
   291          0
   292          2
   293          0
   306          0
   308         36
   309          6
   310          0