##TITLE=Library Entry 98503
##JCAMP-DX=Revision 4.10 
##DATA TYPE=MASS SPECTRUM
##SAMPLE DESCRIPTION=Chemical Concepts
##NAMES=HP
##CAS NAME=1,5-Diphenylbicyclo[3.2.0]heptane
##MOLFORM=C19H20
##CAS REGISTRY NO=94383-67-2
##MP= -300
##BP= -300
##MW= 248
##$RETENTION INDEX=0
##$CONDENSED SPECTRUM=NO
##NPOINTS= 182
##XYDATA=(XY..XY) 1 
    38          1
    39         66
    40          7
    41         34
    42          1
    43          3
    44          0
    50          9
    51         69
    52         17
    53         51
    54          3
    55          5
    56          0
    57          2
    58          0
    59          0
    62          3
    63         27
    64          6
    65         70
    66         11
    67          7
    68          1
    69          5
    70          2
    71          4
    73          0
    74          3
    75         10
    76         21
    77        202
    78        111
    79         34
    80          2
    81          3
    82          3
    83          6
    84          6
    85          5
    86          1
    87          3
    88          6
    89         36
    90          8
    91        431
    92         43
    93          3
    94          2
    95         10
    96         22
    97          1
    98          0
    99          1
   100          2
   101         24
   102         71
   103        204
   104         60
   105         49
   106          8
   107          4
   108          8
   109          5
   110          2
   111          1
   112          0
   113          5
   114          9
   115        390
   116        115
   117        257
   118        999
   119        104
   120          6
   121          0
   122          0
   123          0
   124         11
   125          3
   126          6
   127         51
   128        170
   129        550
   130        985
   131        277
   132         28
   133          2
   134          0
   135          0
   137          0
   138          1
   139          9
   140          3
   141         48
   142         48
   143        116
   144        240
   145         31
   146          2
   149          0
   150          2
   151          6
   152         17
   153         10
   154          9
   155         23
   156         22
   157        102
   158         13
   159          1
   162          0
   163          4
   164          3
   165         26
   166          6
   167          9
   168          3
   169          5
   170         34
   171          7
   172          3
   173          0
   175          1
   176          7
   177          4
   178         25
   179         11
   180          3
   181          1
   182          0
   183          1
   185          0
   186          0
   187          2
   188          2
   189         21
   190         10
   191         26
   192         10
   193          7
   194          3
   195          1
   197          0
   199          0
   200          2
   201          3
   202         26
   203         22
   204         17
   205         27
   206         14
   207          4
   208          0
   212          0
   213          3
   214          1
   215         14
   216          5
   217          9
   218          9
   219         50
   220        146
   221         27
   222          2
   223          0
   226          1
   227          0
   228          1
   229          1
   230          0
   231          1
   232          1
   233         14
   234          3
   235          1
   246          1
   247          3
   248        391
   249         81
   250          8
   251          0