##TITLE=Library Entry 86410
##JCAMP-DX=Revision 4.10 
##DATA TYPE=MASS SPECTRUM
##SAMPLE DESCRIPTION=ACCUSTANDARD Chemicals / NIST MS Data Center.
##NAMES=HP
##CAS NAME=Fonofos
##MOLFORM=C10H15OPS2
##CAS REGISTRY NO=944-22-9
##MP= -300
##BP= -300
##MW= 246
##$RETENTION INDEX=1773
##$CONDENSED SPECTRUM=NO
##NPOINTS= 141
##XYDATA=(XY..XY) 1 
    13          0
    14          1
    15          9
    17          1
    18          2
    24          0
    26         16
    27        103
    28         44
    29        190
    30          4
    31          1
    32          5
    33          1
    34          0
    35          1
    37          2
    38          8
    39         69
    40          3
    41          1
    42          1
    43          7
    44          0
    45         36
    46          0
    47         31
    48         10
    49         30
    50         19
    51         58
    52          5
    53          1
    54          0
    57         12
    58         13
    59         12
    60          2
    61         15
    62          0
    63        162
    64         13
    65        141
    66         32
    67          2
    68          0
    69         52
    70          4
    71          6
    73          1
    74          5
    75          9
    76         10
    77         87
    78         16
    79          6
    80         20
    81        145
    82         18
    83         15
    84         11
    85          1
    86          0
    87          0
    89          0
    90          1
    91          8
    92          7
    93          6
    94          5
    95         16
    96          3
    97          6
    98          0
   102          0
   103          2
   104          7
   105         10
   106          3
   107         13
   108          0
   109        999
   110        198
   111         56
   112         10
   113          1
   121          1
   123          8
   124          1
   125          4
   126          0
   133          0
   135          3
   137        444
   138         26
   139         31
   140          9
   141         30
   142          8
   143          2
   144          0
   152          1
   153          5
   155          5
   157         21
   158          2
   159          1
   167          0
   169         14
   170          7
   171         34
   172          6
   173         13
   174         51
   175          5
   176          5
   177          0
   185         12
   186          3
   187          1
   188          1
   189          9
   190          1
   191          1
   201         19
   202         27
   203          4
   204          2
   205          0
   217         14
   218         14
   219          3
   220          1
   230          0
   243          0
   244          0
   246        350
   247         44
   248         35
   249          3
   250          1