##TITLE=Library Entry 7683
##JCAMP-DX=Revision 4.10 
##DATA TYPE=MASS SPECTRUM
##SAMPLE DESCRIPTION=A. Brossi, LC, NIDDK, NIH, Bethesda, MD 20892
##NAMES=HP
##CAS NAME=Piperidine, 1-acetyl-4-[4,5-dihydroxyphenyl]-
##MOLFORM=C13H17NO3
##CAS REGISTRY NO=94427-41-5
##MP= -300
##BP= -300
##MW= 235
##$RETENTION INDEX=0
##$CONDENSED SPECTRUM=NO
##NPOINTS= 132
##XYDATA=(XY..XY) 1 
    42        440
    43        999
    44        106
    45         18
    46          3
    50         15
    51         57
    52         26
    53         46
    54         32
    55         85
    56        419
    57        528
    58         34
    59          4
    60         14
    61          3
    62          9
    63         34
    64         17
    65         35
    66         12
    67         13
    68         26
    69         16
    70         33
    71         26
    72         23
    73         20
    74          5
    75          7
    76          6
    77         87
    78         35
    79         33
    80         13
    81         14
    82         45
    83         62
    84         13
    85          7
    86         24
    87          4
    88          7
    89         60
    90         24
    91         55
    92          9
    93          5
    94          5
    95          4
    96          2
    97          4
    98         13
    99         53
   100          4
   101          4
   102         12
   103         44
   104         23
   105         14
   106          8
   107         18
   108          4
   109          4
   110         21
   111          3
   112         18
   113          1
   114          1
   115         25
   116          9
   117         28
   118          6
   119         14
   120          3
   121          4
   122          5
   123         58
   124         15
   125          7
   126          1
   127          4
   128          1
   129          3
   130          8
   131         33
   132         21
   133         20
   134          7
   135         30
   136        115
   137         29
   138          6
   143          5
   144          4
   145         14
   146          4
   147         14
   148          6
   149         26
   150         82
   151         13
   157          1
   158         17
   159          9
   161         19
   162          8
   163         16
   164          9
   165          3
   166          5
   174          1
   175          8
   176         22
   177          8
   178         25
   179          4
   180          4
   190          3
   191          3
   192         78
   193         20
   194          1
   207          3
   218          4
   220         25
   221          5
   234          9
   235        401
   236         76
   237          9