##TITLE=Library Entry 10236
##JCAMP-DX=Revision 4.10 
##DATA TYPE=MASS SPECTRUM
##SAMPLE DESCRIPTION=Chemical Concepts
##NAMES=HP
##CAS NAME=4,5-Dimethoxy-1-naphthyl dimethylphosphate
##MOLFORM=C14H17O6P
##CAS REGISTRY NO=94420-47-0
##MP= -300
##BP= -300
##MW= 312
##$RETENTION INDEX=0
##$CONDENSED SPECTRUM=NO
##NPOINTS= 171
##XYDATA=(XY..XY) 1 
    25         27
    26        154
    27        322
    28        458
    29        256
    30         44
    31        187
    36         31
    37         45
    38         72
    39        346
    40         98
    41        588
    42        187
    43        999
    44        410
    45        157
    46         15
    47         56
    48         13
    49         21
    50        103
    51        129
    52         53
    53         97
    54        223
    55        454
    56        214
    57        408
    58        171
    59         45
    60         38
    61         65
    62         43
    63        101
    64         26
    65        150
    66         47
    67        172
    68         81
    69        306
    70        165
    71        204
    72         30
    73         41
    74         73
    75         83
    76        103
    77        156
    78         85
    80        368
    82         65
    83        184
    84         79
    85        119
    86         57
    87         73
    88         35
    89         71
    90         25
    91        631
    92        175
    93         56
    94         39
    95         74
    96         45
    97        145
    98         90
    99         51
   100         17
   101         43
   102         85
   103         51
   104        101
   105         89
   106         39
   107         68
   108         22
   109        595
   110        248
   111         70
   112         31
   113         36
   114         60
   115        279
   116         58
   117        100
   118         38
   119         33
   120         17
   121         21
   122         10
   123         23
   124         13
   125         34
   126         18
   127         99
   128         51
   129         87
   130         63
   131         86
   132         42
   133         50
   134         19
   135         20
   136         10
   137         14
   139         18
   140         30
   141        102
   142         52
   143        105
   144         26
   145         39
   146         14
   147         36
   148         13
   151         18
   152         23
   153         25
   154         17
   155         39
   156         27
   157         47
   158         12
   159         42
   160         29
   161         41
   163         11
   165         24
   166         11
   167         24
   168         18
   169         23
   170         19
   171        338
   172         49
   173         22
   174         12
   175        117
   176        129
   177         25
   178         14
   179         11
   181         27
   182         10
   183         14
   185         24
   186         12
   187         19
   188         35
   189         15
   190         22
   193         26
   195         12
   201         11
   203         69
   204         21
   216         10
   217         11
   237         12
   262         10
   265         11
   269         17
   279         22
   282          9
   296         10
   297         31
   312        451
   313         70
   314         11