##TITLE=Library Entry 14069
##JCAMP-DX=Revision 4.10 
##DATA TYPE=MASS SPECTRUM
##SAMPLE DESCRIPTION=A. Brossi, LC, NIDDK, NIH, Bethesda, MD 20892
##NAMES=HP
##CAS NAME=1,2,3,6-Tetrahydropyridine, 1-acetyll-4-[4-acetoxy-5-methoxypheny
l]-
##MOLFORM=C16H19NO4
##CAS REGISTRY NO=94427-33-5
##MP= -300
##BP= -300
##MW= 289
##$RETENTION INDEX=0
##$CONDENSED SPECTRUM=NO
##NPOINTS= 197
##XYDATA=(XY..XY) 1 
    42        146
    43        999
    44         67
    45         11
    46          0
    48          1
    49          2
    50         17
    51         63
    52         29
    53         58
    54         32
    55         48
    56         53
    57         15
    58          2
    59          2
    60          5
    61          1
    62          8
    63         37
    64         13
    65         45
    66         10
    67         18
    68         39
    69         23
    70          7
    71          6
    72         14
    73         11
    74          5
    75         10
    76         18
    77        109
    78         57
    79         45
    80        106
    81         65
    82        115
    83         12
    84          7
    85          4
    86          6
    87          4
    88          4
    89         51
    90         17
    91         77
    92         12
    93          9
    94         10
    95          7
    96          4
    97          5
    98          2
    99          2
   100          1
   101          6
   102         25
   103         69
   104         37
   105         48
   106         21
   107         19
   108          5
   109          8
   110          7
   111          4
   112          3
   113          2
   114          5
   115        126
   116         77
   117         85
   118         33
   119         18
   120          6
   121          5
   122         11
   123         18
   124         22
   125          4
   126          2
   127         30
   128         31
   129         29
   130         36
   131         57
   132         44
   133         40
   134         13
   135          9
   136          2
   137         59
   138          6
   139          2
   140          2
   141          7
   142          8
   143         32
   144         82
   145         80
   146         44
   147         25
   148         11
   149         70
   150         16
   151         13
   152          2
   153          1
   154          3
   155          5
   156         17
   157         27
   158         21
   159         35
   160         42
   161         80
   162         53
   163         14
   164          5
   165          1
   166          1
   167          0
   168          0
   169          1
   170          5
   171          6
   172         34
   173         61
   174        203
   175        106
   176        191
   177         52
   178          8
   179          2
   183          0
   184          1
   185          1
   186         23
   187         27
   188        312
   189        150
   190        109
   191         14
   192          4
   193          0
   198          0
   199          0
   200          4
   201         10
   202         46
   203         14
   204        389
   205        173
   206         22
   207          2
   214          3
   215          5
   216        107
   217         16
   218         12
   219          4
   220          1
   221          0
   228          1
   229          1
   230         96
   231         17
   232         45
   233          7
   234          1
   235          0
   244          7
   245          5
   246        143
   247        758
   248        117
   249         14
   250          1
   258          0
   259          0
   260          0
   261          2
   262          1
   263          2
   265          0
   277          0
   279          0
   286          1
   287          5
   288          2
   289        569
   290        117
   291         17
   292          1