##TITLE=Library Entry 14327
##JCAMP-DX=Revision 4.10 
##DATA TYPE=MASS SPECTRUM
##SAMPLE DESCRIPTION=LAC, NIDDK, NIH, Bethesda, MD 20892
##NAMES=HP
##CAS NAME=Propenoic acid, 3-[4-acetoxy-3,5-di-t-butylphenyl]-
##MOLFORM=C19H26O4
##CAS REGISTRY NO=94440-71-8
##MP= -300
##BP= -300
##MW= 318
##$RETENTION INDEX=0
##$CONDENSED SPECTRUM=NO
##NPOINTS= 95
##XYDATA=(XY..XY) 1 
    41        126
    42         17
    43        999
    44         23
    45         19
    51          7
    53         18
    55         49
    57        158
    58          3
    63          2
    65         14
    67         11
    69          7
    77         33
    78          7
    79         16
    81          2
    89          3
    91         45
    92          2
    93          2
   102          2
   103         12
   105         23
   107          2
   115         59
   116         16
   117         15
   119          7
   127         19
   128         52
   129         39
   130          8
   131         18
   133          6
   139          6
   141         38
   142         20
   143         18
   144          8
   145         16
   147          7
   152         14
   153         21
   154          5
   155         16
   156          8
   157         16
   158          8
   159         21
   160          5
   161          8
   165         21
   166          6
   167          7
   168          2
   169          8
   171         10
   172          2
   173          9
   175         10
   177          7
   181          2
   183          7
   184          2
   185          7
   187         25
   188          2
   199          5
   201         28
   202          3
   203          2
   205          5
   215         18
   217         25
   219          6
   231          7
   233         25
   234          2
   243         10
   245         30
   246          2
   259         16
   260          9
   261        502
   262         91
   263         10
   276        765
   277        153
   278         17
   301          2
   303          5
   318         73
   319         14