##TITLE=Library Entry 64844
##JCAMP-DX=Revision 4.10 
##DATA TYPE=MASS SPECTRUM
##SAMPLE DESCRIPTION=Japan AIST/NIMC Database- Spectrum MS-IW-6299
##NAMES=HP
##CAS NAME=p-(Benzyloxy)benzaldehyde 2,4-dinitrophenylhydrazone
##MOLFORM=C20H16N4O5
##CAS REGISTRY NO=94464-68-3
##MP= -300
##BP= -300
##MW= 392
##$RETENTION INDEX=0
##$CONDENSED SPECTRUM=NO
##NPOINTS= 71
##XYDATA=(XY..XY) 1 
    27          1
    28         13
    30          4
    38          1
    39          7
    41          2
    44          1
    50          3
    51         10
    52          3
    62          2
    63          9
    64          8
    65         38
    66          2
    74          1
    75          3
    76          4
    77         15
    78          6
    79          4
    89          6
    90          5
    91        999
    92         84
    93          4
    94          1
   102          1
   103          1
   105          6
   106          4
   107          1
   119          4
   120          1
   121          2
   122          2
   126          1
   127          2
   128          1
   150          1
   151          2
   152          4
   153          3
   154          2
   155          1
   164          2
   165          2
   166          1
   167          1
   179          1
   180          1
   181          3
   182          3
   183          2
   208          2
   209          5
   210          1
   211          3
   212          4
   213          1
   255          2
   271          1
   301          9
   302          2
   330          3
   332          1
   346          1
   362          1
   392        216
   393         50
   394          8