##TITLE=Library Entry 54387
##JCAMP-DX=Revision 4.10 
##DATA TYPE=MASS SPECTRUM
##SAMPLE DESCRIPTION=J. Daly, M. Garraffo, T. Spande, LBC, NIDDK, NIH, Bethe
sda, MD 20892
##NAMES=HP
##CAS NAME=(1S,9aS,Z)-1-Methyl-3-((R)-2-methylpentylidene)octahydro-1H-quino
lizin-1-ol
##MOLFORM=C16H29NO
##CAS REGISTRY NO=944795-60-2
##MP= -300
##BP= -300
##MW= 251
##$RETENTION INDEX=0
##$CONDENSED SPECTRUM=NO
##NPOINTS= 116
##XYDATA=(XY..XY) 1 
    51          3
    52          1
    53         29
    54         18
    55        103
    56         53
    57         13
    58          7
    65         17
    66          9
    67         51
    68         31
    69         48
    70         19
    71          7
    77         22
    78          7
    79         38
    80         24
    81         42
    82         57
    83         74
    84        999
    85        278
    86        173
    87         10
    90          3
    91         22
    92          7
    93         25
    94         20
    95         54
    96         58
    97         24
    98        225
    99         19
   105          8
   106         13
   107         22
   108         38
   109         78
   110         67
   111         15
   112          5
   115          2
   117          3
   118          4
   119          5
   120         17
   121         19
   122         53
   123        112
   124         29
   125         19
   126         96
   127         11
   128          5
   130          1
   132          6
   133          8
   134         24
   136         46
   137         14
   138         16
   139          4
   140          6
   146          6
   147          6
   148         23
   149         16
   150         27
   151         34
   152         11
   153          3
   160          5
   161          1
   162         82
   163         13
   164         27
   165          4
   166         28
   167         13
   168          4
   174         10
   175          1
   176          4
   178          9
   180        401
   181         51
   182          4
   188          7
   189          1
   190         31
   191          5
   192          9
   193          3
   194          9
   204          7
   206         71
   207         11
   208        179
   209         49
   210          6
   218         17
   220          7
   222         16
   232          5
   233         10
   234         18
   235          1
   236         26
   237          4
   249          1
   250         43
   251        100
   252         18