##TITLE=Library Entry 100275
##JCAMP-DX=Revision 4.10 
##DATA TYPE=MASS SPECTRUM
##SAMPLE DESCRIPTION=NIST Mass Spectrometry Data Center
##NAMES=HP
##CAS NAME=(1R,3aR,4aR,8aR)-1,4,4,6-Tetramethyl-1,2,3,3a,4,4a,7,8-octahydroc
yclopenta[1,4]cyclobuta[1,2]benzene
##MOLFORM=C15H24
##CAS REGISTRY NO=94482-89-0
##MP= -300
##BP= -300
##MW= 204
##$RETENTION INDEX=1395
##$CONDENSED SPECTRUM=NO
##NPOINTS= 108
##XYDATA=(XY..XY) 1 
    27         23
    28          3
    29         34
    30          1
    38          2
    39         66
    40         11
    41        205
    42         13
    43         39
    50          4
    51         25
    52         11
    53         63
    54          7
    55        147
    56         56
    57         21
    58          3
    59          1
    62          1
    63          9
    64          5
    65         55
    66         11
    67         83
    69         96
    70         22
    71          3
    72          1
    74          1
    75          2
    76          2
    77        149
    78         32
    79        152
    80         21
    81         49
    82         75
    83         41
    84          8
    89          4
    90          1
    91        205
    92         87
    93        295
    94         52
    95         26
    96          3
    97          6
    98          1
   102          4
   103         23
   104          9
   105        277
   106         57
   107        120
   108         26
   109         68
   110          8
   111          1
   112          2
   115         29
   116         11
   117         32
   118         18
   119        999
   120        131
   121        521
   122         98
   123          8
   127          3
   128         12
   129         11
   130          5
   131         16
   132          5
   133        107
   134        161
   135         42
   136          5
   140          1
   141          3
   142          2
   143          2
   144          1
   145          8
   146          3
   147         55
   148         46
   149          8
   150          1
   152          1
   157          1
   159          2
   160          3
   161        115
   162         21
   163          2
   173          1
   175          3
   176          2
   189         28
   190          4
   203          1
   204        211
   205         35
   206          3