##TITLE=Library Entry 18208
##JCAMP-DX=Revision 4.10 
##DATA TYPE=MASS SPECTRUM
##SAMPLE DESCRIPTION=MASS SPECTROMETRY CENTER, UNIV. OF UTAH; ALDRICH P03540
-5
##NAMES=HP
##CAS NAME=Diphenyl sulfoxide
##MOLFORM=C12H10OS
##CAS REGISTRY NO=945-51-7
##MP= -300
##BP= -300
##MW= 202
##$RETENTION INDEX=0
##$CONDENSED SPECTRUM=NO
##NPOINTS= 93
##XYDATA=(XY..XY) 1 
    15         11
    16          2
    26         18
    27        129
    29          1
    37         14
    38         49
    39        298
    40         13
    41          1
    45        113
    48          4
    49         15
    50        354
    51        999
    52         77
    53         71
    57          1
    58         23
    59          5
    61          4
    62         26
    63         76
    64         23
    65        551
    66         47
    69        135
    70         20
    71         19
    73         15
    74         95
    75         74
    76         58
    77        792
    78        162
    79         16
    81         33
    82         31
    83         18
    84         10
    87          1
    89         12
    91          2
    92         86
    93        133
    94         11
    95          4
    96         55
    97        476
    98         36
    99         23
   102         17
   108         48
   109        916
   110         99
   111         51
   115         52
   121         18
   122         44
   125        163
   126         24
   127         24
   128         32
   129         24
   134         12
   137          4
   139         30
   140          1
   141        130
   142         20
   147         61
   148          1
   151         24
   152        117
   153        182
   154        757
   155         99
   169         20
   171         22
   172          2
   173        195
   174        119
   175         21
   183         14
   184        166
   185        183
   186        136
   187         31
   188          2
   201         26
   202        828
   203        129
   204         49