##TITLE=Library Entry 17988
##JCAMP-DX=Revision 4.10 
##DATA TYPE=MASS SPECTRUM
##SAMPLE DESCRIPTION=NIST Mass Spectrometry Data Center, 1994
##NAMES=HP
##CAS NAME=N-(2-Phenylethyl)aminoacetaldehyde diethyl acetal
##MOLFORM=C14H23NO2
##CAS REGISTRY NO=94508-09-5
##MP= -300
##BP= -300
##MW= 237
##$RETENTION INDEX=0
##$CONDENSED SPECTRUM=NO
##NPOINTS= 120
##XYDATA=(XY..XY) 1 
     5          0
     6          1
     7          1
     9          1
    12          2
    13          0
    14          0
    15         44
    16          0
    17          1
    18         28
    19         53
    23          0
    24          1
    25          2
    26         17
    27        204
    28        131
    29        479
    30        138
    31         51
    33          1
    36          0
    38          5
    39         67
    40          9
    41         39
    42        202
    43        356
    44        616
    45         60
    46          0
    47        999
    48         13
    49          5
    50         18
    51         74
    52         21
    53         11
    54         10
    55         10
    56         41
    57          7
    58         13
    60         12
    61          8
    62          6
    63         27
    64          8
    65         99
    66          7
    67          3
    68          1
    69          3
    70         19
    71          1
    72        360
    73         19
    74          1
    75        830
    76         37
    77        182
    78         58
    79        159
    80         10
    81          1
    82          2
    85          0
    86          1
    87          3
    88          4
    89         23
    90          0
    91        171
    92         19
    93          2
    94          1
    96          1
    98          2
   100        558
   101         39
   103        779
   104         97
   105        805
   106         74
   107          3
   114          1
   115          5
   116          8
   117         26
   118         10
   119         10
   120          4
   121          8
   122          1
   127          1
   128          4
   129         16
   130         10
   131          6
   132         14
   133          1
   134        379
   135         39
   136          1
   144         15
   146        657
   147         55
   148         22
   149          2
   160          2
   161          1
   162          4
   164          1
   190          3
   192        178
   193         31
   194          3
   206          0
   236          1