##TITLE=Library Entry 53105
##JCAMP-DX=Revision 4.10 
##DATA TYPE=MASS SPECTRUM
##SAMPLE DESCRIPTION=L. KONOPSKI, INST. ORG. IND., ANNOPOL, WARSAW, POLAND
##NAMES=HP
##CAS NAME=N,N'-Bis(2,6-dimethyl-6-nitrosohept-1-en-4-one)
##MOLFORM=C18H30N2O4
##CAS REGISTRY NO=94514-28-0
##MP= -300
##BP= -300
##MW= 338
##$RETENTION INDEX=0
##$CONDENSED SPECTRUM=NO
##NPOINTS= 50
##XYDATA=(XY..XY) 1 
    18         30
    27         40
    28         30
    29         69
    30         28
    39         55
    40         10
    41         94
    42         58
    43         49
    53         28
    54         15
    55        205
    56        281
    57         44
    58         60
    59          3
    67         17
    69         19
    70        103
    71         17
    72         29
    73         12
    77         10
    78          6
    81         12
    82         23
    83        999
    84         71
    85         10
    86         75
    95         17
    96         13
    97         17
    98         45
   100         11
   108         10
   114        431
   115         35
   123        141
   124         21
   137         10
   138         18
   139         26
   140         41
   154        134
   155         21
   156          9
   170        276
   171         30