##TITLE=Library Entry 100272
##JCAMP-DX=Revision 4.10 
##DATA TYPE=MASS SPECTRUM
##SAMPLE DESCRIPTION=NIST Mass Spectrometry Data Center
##NAMES=HP
##CAS NAME=(1R,3aS,4aS,8aS)-1,4,4,6-Tetramethyl-1,2,3,3a,4,4a,7,8-octahydroc
yclopenta[1,4]cyclobuta[1,2]benzene
##MOLFORM=C15H24
##CAS REGISTRY NO=94535-52-1
##MP= -300
##BP= -300
##MW= 204
##$RETENTION INDEX=1403
##$CONDENSED SPECTRUM=NO
##NPOINTS= 109
##XYDATA=(XY..XY) 1 
    27         21
    28          3
    29         30
    30          1
    38          2
    39         65
    40         11
    41        199
    42         13
    43         48
    44          1
    50          4
    51         24
    52         11
    53         63
    54          7
    55        146
    56         53
    58          3
    59          1
    62          1
    63          9
    64          5
    65         55
    66         11
    67         92
    68         11
    69        121
    70         24
    74          1
    75          2
    76          2
    77        144
    78         32
    79        152
    80         23
    81         50
    82         75
    83         45
    84          9
    85          1
    87          1
    89          4
    90          1
    91        201
    92         86
    93        307
    94         57
    95         34
    96          3
    97          6
    98          1
   101          1
   102          3
   103         23
   104          9
   105        282
   106         57
   107        126
   108         28
   109         76
   110          9
   111          1
   112          1
   115         27
   116         10
   117         30
   118         17
   119        999
   120        136
   121        537
   122        101
   123          9
   127          4
   128         11
   129         10
   130          4
   131         14
   132          4
   133        109
   134        160
   135         43
   136          7
   137          1
   139          1
   141          3
   143          2
   144          1
   145          7
   146          3
   147         55
   148         47
   149          8
   150          1
   157          1
   159          2
   160          3
   161        115
   162         21
   163          2
   173          1
   175          3
   176          2
   189         32
   190          5
   203          1
   204        209
   205         35
   206          3