##TITLE=Library Entry 79658
##JCAMP-DX=Revision 4.10 
##DATA TYPE=MASS SPECTRUM
##SAMPLE DESCRIPTION=Asinex Ltd, Moscow, Russia
##NAMES=HP
##CAS NAME=1-Phenyl-2-(4-phenylazo-phenoxy)-ethanone
##MOLFORM=C20H16N2O2
##CAS REGISTRY NO=94542-86-6
##MP= -300
##BP= -300
##MW= 316
##$RETENTION INDEX=0
##$CONDENSED SPECTRUM=NO
##NPOINTS= 128
##XYDATA=(XY..XY) 1 
    37          0
    38          4
    39          9
    40          1
    41          2
    42          2
    43          1
    50         35
    51        109
    52          7
    53          1
    54          0
    55          2
    56          0
    57          0
    62          2
    63         35
    64         26
    65         38
    66          2
    67          0
    69          1
    70          0
    73          0
    74         12
    75         18
    76        115
    77        672
    78         65
    79          8
    80          3
    81          0
    84          0
    86          0
    87          0
    89         16
    91        171
    92         32
    93          6
    94          3
    95          2
    96          0
    97          0
    98          0
   100          0
   101          1
   102          5
   103         16
   105        999
   106         94
   107          6
   108          1
   109          2
   111          0
   112          0
   113          1
   115         41
   116          3
   117          0
   118          1
   119          8
   120          7
   121          2
   122          1
   124          4
   125          1
   126          5
   127          6
   128          5
   129          5
   130          1
   131          0
   133          3
   134          2
   135          1
   138          0
   139          7
   140          3
   141         22
   142          2
   143          0
   144          0
   145          0
   149          1
   150          3
   151         12
   152         44
   153         41
   154          9
   155         29
   156          3
   157          0
   165        173
   166         25
   167          3
   168          6
   169          5
   170          0
   171          3
   178          0
   179          2
   181         34
   182         10
   183          3
   184          0
   185          0
   186          0
   193         11
   194          6
   195          1
   196          4
   197         10
   198          2
   209          2
   211        387
   212         43
   213          3
   238          0
   239         56
   240          9
   241          0
   257          0
   262          0
   314          1
   316        338
   317         65
   318          7
   319          0