##TITLE=Library Entry 85281
##JCAMP-DX=Revision 4.10 
##DATA TYPE=MASS SPECTRUM
##SAMPLE DESCRIPTION=Japan AIST/NIMC Database- Spectrum MS-IW-4922
##NAMES=HP
##CAS NAME=(-)-10,2-Camphorsultam
##MOLFORM=C10H17NO2S
##CAS REGISTRY NO=94594-90-8
##MP= -300
##BP= -300
##MW= 215
##$RETENTION INDEX=0
##$CONDENSED SPECTRUM=NO
##NPOINTS= 119
##XYDATA=(XY..XY) 1 
    15         13
    26          5
    27        125
    28        178
    29         84
    30        139
    31          5
    32          3
    33          1
    34          3
    37          1
    38          7
    39        204
    40         48
    41        427
    42         96
    43        476
    44        193
    45         19
    46          1
    47          1
    48         12
    49          1
    50         10
    51         44
    52         32
    53        160
    54         85
    55        204
    56        126
    57         50
    58         34
    59          9
    60          9
    61          2
    62          3
    63         12
    64         30
    65         70
    66         52
    67        314
    68        238
    69        262
    70        114
    71         20
    72          4
    74          1
    75          2
    76          5
    77        146
    78         37
    79        190
    80        114
    81        175
    82        506
    83        636
    84         61
    85         57
    86         15
    87          1
    89          3
    91        243
    92         71
    93        706
    94        345
    95        293
    96        199
    97         28
    98          2
    99          1
   102          1
   103          8
   104          6
   105         78
   106         83
   107        153
   108        999
   109        241
   110        167
   111         15
   112          1
   115          3
   116          2
   117         14
   118          7
   119        718
   120         91
   121         36
   122        204
   123         80
   124         10
   125          1
   130          2
   131          3
   132        137
   133         26
   134        687
   135        107
   136        795
   137         82
   138          4
   145          3
   146          1
   147          1
   148          9
   149         20
   150        147
   151        785
   152         90
   153          5
   160          2
   172          2
   186          1
   200          3
   213          1
   214          2
   215         19
   216          8
   217          2