##TITLE=Library Entry 97306
##JCAMP-DX=Revision 4.10 
##DATA TYPE=MASS SPECTRUM
##SAMPLE DESCRIPTION=NIST Mass Spectrometry Data Center
##NAMES=HP
##CAS NAME=trans-1-Carbethoxy-2-phenylcyclopropane
##MOLFORM=C12H14O2
##CAS REGISTRY NO=946-39-4
##MP= -300
##BP= -300
##MW= 190
##$RETENTION INDEX=0
##$CONDENSED SPECTRUM=NO
##NPOINTS= 93
##XYDATA=(XY..XY) 1 
    14          6
    15         39
    16          1
    18          1
    19          3
    25          2
    26         30
    27        178
    28         30
    29        392
    30         17
    31          6
    37          4
    38         23
    39        178
    40         17
    41         17
    42          8
    43         18
    44          5
    45         11
    50         51
    51        132
    52         29
    53         11
    55         48
    56          5
    58         74
    60          3
    61          6
    62         32
    63        114
    64         26
    65        115
    66          9
    67          2
    68          2
    69          1
    71          3
    73          9
    74         15
    75         19
    76         24
    77         90
    78         55
    79         58
    80          3
    83          1
    84          3
    85          2
    86          5
    87         11
    89        102
    91        301
    92         24
    93          1
   101          4
   102         35
   103         37
   104         40
   105         50
   107         87
   108          6
   110          1
   113          7
   115        811
   116        345
   117        999
   118        112
   119          8
   120          7
   121          1
   127         91
   128         12
   129          3
   130          1
   131          8
   133        125
   134         17
   135        139
   136         13
   144        201
   145        196
   146         21
   147          5
   148          9
   149          1
   161         27
   162         52
   163          7
   190        230
   191         31
   192          3