##TITLE=Library Entry 80986
##JCAMP-DX=Revision 4.10 
##DATA TYPE=MASS SPECTRUM
##SAMPLE DESCRIPTION=Japan AIST/NIMC Database- Spectrum MS-IW-2208
##NAMES=HP
##CAS NAME=4-Chlorobutyl benzoate
##MOLFORM=C11H13ClO2
##CAS REGISTRY NO=946-02-1
##MP= -300
##BP= -300
##MW= 212
##$RETENTION INDEX=0
##$CONDENSED SPECTRUM=NO
##NPOINTS= 69
##XYDATA=(XY..XY) 1 
    26          2
    27         23
    28          4
    29         19
    36          1
    38          2
    39         19
    40          2
    41         19
    42          3
    43          5
    44          1
    49          7
    50         25
    51        100
    52          7
    53          8
    54         58
    55        110
    56          5
    61          1
    62          4
    63          6
    64          1
    65          4
    66          1
    71          5
    73          1
    74          7
    75          9
    76         18
    77        364
    78         30
    79         19
    80          1
    89          1
    90         10
    91         10
    92          4
    93          3
    94          3
   103          1
   104          5
   105        999
   106         88
   107         15
   108          1
   109          2
   121          1
   122        503
   123        342
   124         26
   125          2
   131          2
   135         19
   136          2
   147          1
   149          2
   150          1
   167          1
   176          7
   177         94
   178         10
   179          1
   211          1
   212         25
   213          3
   214          8
   215          1