##TITLE=Library Entry 114351
##JCAMP-DX=Revision 4.10 
##DATA TYPE=MASS SPECTRUM
##SAMPLE DESCRIPTION=Exported from NIST MS Search
##NAMES=HP
##CAS NAME=Phosphorochloridothioic acid, O-(2,4-dichlorophenyl) O-methyl est
er
##MOLFORM=C7H6Cl3O2PS
##CAS REGISTRY NO=946-04-3
##MP= -300
##BP= -300
##MW= 290
##$RETENTION INDEX=0
##$CONDENSED SPECTRUM=NO
##NPOINTS= 189
##XYDATA=(XY..XY) 1 
    14         10
    15         78
    17          3
    18         18
    26          3
    27          7
    28        136
    29         16
    31         30
    32         41
    33          4
    34          3
    35         21
    36        160
    37         32
    38         73
    39         15
    40          3
    41          8
    43         20
    44         13
    45        102
    46         33
    47        752
    48         56
    49         70
    50        293
    51         25
    52         86
    53         17
    55         11
    56          4
    57          9
    60         11
    61         47
    62        103
    63        333
    64         36
    65         11
    66         10
    67          7
    68          6
    69         16
    70          3
    71         12
    72         44
    73        168
    74         96
    75        109
    76         12
    77         20
    78          5
    79         48
    80          8
    81         17
    82         12
    83         63
    84         27
    85         50
    86         11
    87         13
    89          7
    90          7
    91         30
    92         17
    93         17
    94         22
    95         21
    96         18
    97        193
    98         83
    99         87
   100         29
   101         15
   103          6
   105          4
   106          6
   107         41
   108         15
   109        109
   110         27
   111         36
   112          9
   113        110
   114          7
   115         38
   116          5
   117          6
   119          6
   120          5
   121          6
   123         44
   125         42
   126         16
   127          5
   128         19
   129        999
   130         55
   131        365
   132         25
   139          6
   141         26
   142         38
   143         11
   144         13
   145         94
   146         13
   147         47
   148          6
   149          7
   157         10
   158          4
   159         15
   160         29
   161        200
   162        415
   163        150
   164        270
   165         43
   166         50
   167          9
   173         84
   174         10
   175         32
   176         16
   177         28
   178         14
   179         24
   180         71
   181         15
   182         64
   183          8
   184         21
   189         13
   190          8
   191          8
   192         39
   193         11
   194         25
   195          8
   196          7
   205         11
   207          6
   208         27
   209          5
   210         17
   211          3
   212          3
   214         27
   216         35
   218         15
   220          8
   221          8
   223         11
   224         11
   225          6
   226          7
   227         10
   229          7
   235          8
   239        102
   240         31
   241         46
   242         19
   243         17
   244         10
   245         11
   246          7
   247          3
   248          3
   251         45
   252          6
   253         17
   255        923
   256         83
   257        630
   258         56
   259        132
   260         11
   261         16
   275         50
   276         25
   277         35
   278         13
   279          8
   290        203
   292        203
   294         72
   296         11