##TITLE=Library Entry 63293
##JCAMP-DX=Revision 4.10 
##DATA TYPE=MASS SPECTRUM
##SAMPLE DESCRIPTION=NIST Mass Spectrometry Data Center, 1994
##NAMES=HP
##CAS NAME=2-Benzylcyclohexanone
##MOLFORM=C13H16O
##CAS REGISTRY NO=946-33-8
##MP= -300
##BP= -300
##MW= 188
##$RETENTION INDEX=0
##$CONDENSED SPECTRUM=NO
##NPOINTS= 99
##XYDATA=(XY..XY) 1 
    15         16
    17          4
    18         12
    26         21
    27        162
    28         24
    29         80
    38         19
    39        265
    40         38
    41        220
    42        125
    43         43
    44          4
    50         49
    51        133
    52         38
    53         46
    54         18
    55        108
    56         10
    57          9
    62         17
    63         66
    64         21
    65        210
    66         27
    67         47
    68         14
    69         40
    70         10
    71          5
    74          7
    75         14
    76         20
    77        123
    78        115
    79         43
    80          7
    81         29
    82         52
    83         27
    84         35
    85          4
    86          3
    87          3
    88          4
    89         46
    90          3
    91        999
    92        154
    93         10
    95          7
    97        408
    98         28
    99          3
   101          3
   102         26
   103         77
   104        120
   105         45
   106          5
   107          6
   110         59
   111         10
   115        159
   116         57
   117        242
   118         49
   119          7
   120         13
   127         22
   128         40
   129        104
   130         26
   131        177
   132         23
   133          9
   141         46
   142         44
   143         16
   144         31
   145        125
   146         58
   147         14
   155         13
   156          2
   157          5
   158          2
   159        128
   160         20
   169         10
   170         12
   171          3
   173          4
   186          2
   188        450
   189         70
   190          5