##TITLE=Library Entry 41654
##JCAMP-DX=Revision 4.10 
##DATA TYPE=MASS SPECTRUM
##SAMPLE DESCRIPTION=Japan AIST/NIMC Database- Spectrum MS-IW-4706
##NAMES=HP
##CAS NAME=Cyclododecanone, oxime
##MOLFORM=C12H23NO
##CAS REGISTRY NO=946-89-4
##MP= -300
##BP= -300
##MW= 197
##$RETENTION INDEX=0
##$CONDENSED SPECTRUM=NO
##NPOINTS= 125
##XYDATA=(XY..XY) 1 
    15          3
    17          2
    18          7
    26          2
    27         52
    28         35
    29         85
    30         16
    31          8
    33          3
    34          2
    39         59
    40         13
    41        265
    42         62
    43         70
    44         17
    45          6
    46          9
    51          4
    52          4
    53         45
    54         57
    55        212
    56         40
    57         84
    58         12
    59         10
    60         26
    65          9
    66          8
    67        113
    68         38
    69         91
    70         73
    71         12
    72         22
    73        999
    74         50
    75          3
    77          9
    78          2
    79         26
    80         26
    81        136
    82         86
    83        258
    84         42
    85         42
    86        388
    87         70
    88          7
    91          7
    92          1
    93         17
    94         39
    95        175
    96         76
    97         71
    98         96
    99         48
   100         41
   101         12
   102          3
   105          2
   106          2
   107         14
   108         40
   109        202
   110         48
   111         10
   112         74
   113        192
   114         37
   115         12
   116          1
   119          1
   120          2
   121         32
   122         26
   123         48
   124         20
   125          4
   126         88
   127         57
   128         26
   129          7
   134          1
   135         30
   136         21
   137          9
   138         13
   139          2
   140         72
   141         25
   142         22
   143          2
   149         16
   150          7
   151          1
   152          8
   153          1
   154         54
   155          9
   156         38
   157          4
   163          9
   164         67
   165        154
   166         21
   167          2
   168         23
   169         24
   170          3
   178          6
   179          1
   180        134
   181         23
   182         43
   183          5
   195          2
   196         10
   197        176
   198         37
   199          3