##TITLE=Library Entry 19006
##JCAMP-DX=Revision 4.10 
##DATA TYPE=MASS SPECTRUM
##SAMPLE DESCRIPTION=A.A.Kutin, Moscow, Russia
##NAMES=HP
##CAS NAME=1-Aza-4-oxabicyco[4.1.0]heptan-5-one, 2,2-dimethyl-
##MOLFORM=C7H11NO2
##CAS REGISTRY NO=94637-30-6
##MP= -300
##BP= -300
##MW= 141
##$RETENTION INDEX=0
##$CONDENSED SPECTRUM=NO
##NPOINTS= 69
##XYDATA=(XY..XY) 1 
    33         25
    34         46
    36          8
    37         12
    38         49
    39        257
    40        520
    41        866
    42        450
    43        118
    44        123
    45         15
    50         19
    51         35
    52         21
    53         32
    55        999
    56        152
    57         75
    58         55
    59         11
    60          1
    63          8
    64          6
    65         12
    66          8
    68        508
    69        115
    70        186
    71         17
    72         14
    73          7
    74          2
    75          3
    76          5
    77         30
    78         10
    79         15
    80         14
    82         73
    83        116
    84         23
    85          8
    86         21
    89          2
    91          9
    92          1
    93          7
    96         35
    97         10
    98          8
    99          3
   100          1
   104          3
   105         40
   106          7
   107          4
   108          2
   110          6
   111         22
   112          5
   121          1
   124          1
   125          2
   134         15
   135          2
   136          1
   141        143
   142          6