##TITLE=Library Entry 98635
##JCAMP-DX=Revision 4.10 
##DATA TYPE=MASS SPECTRUM
##SAMPLE DESCRIPTION=R.Escale ET AL.Org.Mass.Spectrom.,21,379(1986)
##NAMES=HP
##CAS NAME=3,5-Methano-2,3,4,5(1H)-tetrahydrobenzo(c)azepine-1-one
##MOLFORM=C11H11NO
##CAS REGISTRY NO=94641-48-2
##MP= -300
##BP= -300
##MW= 173
##$RETENTION INDEX=0
##$CONDENSED SPECTRUM=NO
##NPOINTS= 11
##XYDATA=(XY..XY) 1 
    55        206
    77         97
    91        181
   103        111
   117        236
   118        999
   119        450
   130        254
   144        206
   173        705
   174        153