##TITLE=Library Entry 98602
##JCAMP-DX=Revision 4.10 
##DATA TYPE=MASS SPECTRUM
##SAMPLE DESCRIPTION=R.Escale ET AL.Org.Mass.Spectrom.,21,379(1986)
##NAMES=HP
##CAS NAME=3,5-Methano-2,3,4,5(1H)-tetrahydrobenzo(c)azepine
##MOLFORM=C11H13N
##CAS REGISTRY NO=94641-45-9
##MP= -300
##BP= -300
##MW= 159
##$RETENTION INDEX=0
##$CONDENSED SPECTRUM=NO
##NPOINTS= 10
##XYDATA=(XY..XY) 1 
    77         74
    91        148
   117        159
   118        999
   119         92
   130        191
   143         46
   145         81
   159        350
   160         56