##TITLE=Library Entry 76438
##JCAMP-DX=Revision 4.10 
##DATA TYPE=MASS SPECTRUM
##SAMPLE DESCRIPTION=A.MOSANDL,INST. PHARM. LEBENSMITTELCHEM.,UNIV. WURZBURG
,W.GER.
##NAMES=HP
##CAS NAME=4-Propyl-1,3-oxathiane
##MOLFORM=C7H14OS
##CAS REGISTRY NO=94669-64-4
##MP= -300
##BP= -300
##MW= 146
##$RETENTION INDEX=0
##$CONDENSED SPECTRUM=NO
##NPOINTS= 21
##XYDATA=(XY..XY) 1 
    41        320
    43        100
    45        280
    46        120
    47        130
    53        100
    54        100
    55        430
    59        100
    60        120
    67        100
    69        120
    70        130
    73        880
    74        110
    87        160
   103        999
   114        280
   146        630
   147         60
   148         30