##TITLE=Library Entry 18141
##JCAMP-DX=Revision 4.10 
##DATA TYPE=MASS SPECTRUM
##SAMPLE DESCRIPTION=Chemical Concepts
##NAMES=HP
##CAS NAME=3,6-Dianilinopyridazine
##MOLFORM=C16H14N4
##CAS REGISTRY NO=94671-58-6
##MP= -300
##BP= -300
##MW= 262
##$RETENTION INDEX=0
##$CONDENSED SPECTRUM=NO
##NPOINTS= 96
##XYDATA=(XY..XY) 1 
    33         12
    34         35
    35         14
    36        109
    37         99
    39        515
    40        108
    41         40
    42          6
    43         34
    44         33
    45          3
    46         37
    48         31
    49          9
    50         95
    51        999
    52        218
    54        318
    56         18
    57         20
    61         10
    62         35
    63        103
    64        111
    65        318
    66        232
    67         13
    68         16
    69          9
    70          9
    71         15
    73         58
    74         49
    75         61
    76        110
    77        960
    78        186
    79         64
    80         19
    83          2
    84         97
    85         16
    86          9
    87          9
    89        231
    90        315
    91         94
    92        111
    93         71
    94          3
    96          3
   101          7
   102         76
   103        138
   104         94
   105          9
   112          5
   114         10
   115         43
   116         66
   117        202
   118         65
   119          6
   127         33
   128         81
   129         65
   130        439
   131        125
   132          6
   140          4
   141          6
   142         12
   143         26
   144         12
   155         40
   156         10
   157         22
   158          7
   159          3
   168          6
   170         47
   171         10
   185         11
   204        101
   205         44
   206         28
   207          6
   231          4
   232          7
   233          4
   258          5
   259         10
   261        487
   262        338
   263         61