##TITLE=Library Entry 4278
##JCAMP-DX=Revision 4.10 
##DATA TYPE=MASS SPECTRUM
##SAMPLE DESCRIPTION=Chemical Concepts
##NAMES=HP
##CAS NAME=1-Cyclopropyl-6,7,8-trifluoro-4-oxo-1,4-dihydroquinoline-3-carbox
ylic acid
##MOLFORM=C13H8F3NO3
##CAS REGISTRY NO=94695-52-0
##MP= -300
##BP= -300
##MW= 283
##$RETENTION INDEX=0
##$CONDENSED SPECTRUM=NO
##NPOINTS= 216
##XYDATA=(XY..XY) 1 
    36         10
    37         11
    38         26
    39        400
    40         28
    41        999
    42         48
    43         54
    44         29
    45         34
    46          2
    48          2
    49          2
    50         11
    51         23
    52         18
    53        143
    54         25
    55         42
    56         15
    57         30
    58          2
    59         11
    60         12
    61         19
    62         11
    63         11
    64          5
    65         12
    66          4
    67         11
    68         24
    69         48
    70          8
    71         14
    72          6
    73         10
    74         18
    75         45
    76          8
    77          6
    78         49
    79         14
    80         51
    81         59
    82          9
    83         12
    84          5
    85         11
    86         15
    87         21
    88          9
    89          3
    91          5
    92         20
    93         28
    94         13
    95         11
    96          5
    97          9
    98          9
    99         54
   100         16
   101          6
   103          3
   104          8
   105         53
   106         41
   107          9
   108          6
   109          5
   110          6
   111         18
   112         17
   113          6
   114          3
   115          3
   116          3
   117          9
   118         31
   119         44
   120          8
   121          4
   122          3
   123         21
   124         11
   125         15
   126          6
   127          4
   128          3
   129          8
   130         77
   131         36
   132         10
   133         16
   134          4
   135          4
   136          5
   137         11
   138         12
   139          7
   140          3
   141          4
   142         12
   143         86
   144         50
   145         19
   146         20
   147         12
   148          3
   149          7
   150         19
   151         12
   152          5
   153          4
   154          4
   155         13
   156         43
   157         21
   158         32
   159         16
   160          3
   161          5
   162         16
   163         10
   164         15
   165          9
   166          8
   167          5
   168         18
   169         63
   170         57
   171         47
   172         15
   173          6
   174         44
   175         63
   176         11
   177          5
   178          2
   179          2
   180          6
   181          9
   182         39
   183         31
   184         52
   185         22
   186         31
   187          6
   188          7
   189          7
   190         42
   191          9
   192         18
   193          8
   194          9
   195          8
   196         17
   197         11
   198         23
   199         16
   200         13
   201         24
   202          6
   203          5
   204          2
   205          3
   206          6
   207          6
   208         30
   209         16
   210         98
   211         24
   212         14
   213          8
   214          5
   215          3
   216         14
   217          3
   218         30
   219         17
   220         46
   221         43
   222         25
   223          6
   224        124
   225         35
   226         12
   227          5
   228         10
   229          4
   230          2
   234          2
   235          2
   236         44
   237         38
   238        267
   239        740
   240        104
   241         14
   242          3
   243          2
   246         14
   247          2
   253          3
   254          4
   255          4
   263          2
   264         38
   265         21
   266         12
   267          4
   282          2
   283         88
   284         16
   285          2