##TITLE=Library Entry 52208
##JCAMP-DX=Revision 4.10 
##DATA TYPE=MASS SPECTRUM
##SAMPLE DESCRIPTION=NIST Mass Spectrometry Data Center, 2008
##NAMES=HP
##CAS NAME=Cyclohexanamine, N-cyclohexyl-N-nitroso-
##MOLFORM=C12H22N2O
##CAS REGISTRY NO=947-92-2
##MP= -300
##BP= -300
##MW= 210
##$RETENTION INDEX=1675
##$CONDENSED SPECTRUM=NO
##NPOINTS= 97
##XYDATA=(XY..XY) 1 
    15          2
    19          1
    26          4
    27         50
    28         44
    29         64
    30         46
    31          1
    37          1
    38          2
    39         93
    40         16
    41        351
    42         53
    43         50
    44         85
    45          3
    47         45
    48          1
    50          3
    51          8
    52          6
    53         56
    54        111
    55        846
    56        110
    57         13
    58          2
    63          1
    65         12
    66          9
    67        165
    68         42
    69         32
    70         20
    71          6
    72          1
    77         15
    78          4
    79         46
    80         30
    81        111
    82        123
    83        999
    84         73
    85          2
    86          1
    91          2
    92          1
    93          3
    94         20
    95          7
    96         21
    97          8
    98        160
    99         15
   100          3
   105          1
   106          2
   107          1
   108         11
   109          4
   110         24
   111         58
   112          8
   113          2
   114          1
   120          1
   121          1
   122          8
   123          4
   124          6
   125         10
   126          1
   127          3
   128         95
   129        225
   130         17
   131          1
   134          1
   135          1
   136         17
   137          3
   138         21
   139          3
   148          1
   150          4
   152          1
   164          3
   165          1
   166          1
   180          5
   193         29
   194          4
   210        146
   211         21
   212          2