##TITLE=Library Entry 23
##JCAMP-DX=Revision 4.10 
##DATA TYPE=MASS SPECTRUM
##SAMPLE DESCRIPTION=NIST Mass Spectrometry Data Center, 1994
##NAMES=HP
##CAS NAME=Dimethyl bicyclo[2.2.1]-2,5-heptadiene-2,3-dicarboxylate
##MOLFORM=C11H12O4
##CAS REGISTRY NO=947-57-9
##MP= -300
##BP= -300
##MW= 208
##$RETENTION INDEX=0
##$CONDENSED SPECTRUM=NO
##NPOINTS= 144
##XYDATA=(XY..XY) 1 
    12          6
    13          8
    15        999
    16         17
    17          3
    18          9
    24          1
    25          4
    26         36
    27        121
    28         56
    29        196
    30         50
    31         58
    32          7
    33          3
    36          2
    37         48
    38        123
    39        463
    40         90
    41         54
    42          5
    43         24
    44         11
    45         50
    46          7
    47          2
    48          2
    49         16
    50        118
    51        206
    52         91
    53        106
    54         13
    55         22
    56          0
    57          2
    58          0
    59        550
    60         16
    61         49
    62        178
    63        457
    64        168
    65        258
    66        884
    67         59
    69         18
    70          1
    71          2
    73          8
    74         29
    75         35
    76          1
    77        383
    78        165
    79        199
    80         30
    81          9
    83          7
    84          3
    85         10
    86         23
    87         27
    88          2
    89        472
    90        513
    91        483
    92        133
    93        109
    94         15
    95         68
    96         13
    97          3
   101          3
   103         53
   104         46
   105        251
   106        104
   107         26
   108          4
   109          6
   110          5
   111         43
   112          3
   113          1
   115          5
   117         95
   118        362
   119        327
   120         40
   121        158
   122         21
   123          8
   124         17
   125          2
   126          1
   129          0
   131         10
   133        113
   134         40
   135         25
   136          4
   137         18
   138          6
   139          4
   143          5
   144          9
   145         29
   146         13
   147         26
   148        113
   149        612
   150        100
   151         30
   152          3
   154          6
   155          1
   159          1
   161        226
   162         24
   163         47
   164          6
   165          8
   166          0
   172          0
   173          1
   174          1
   176        411
   177        374
   178         51
   179          7
   180          3
   182         29
   183          2
   193        157
   194         17
   195          2
   205          1
   207         58
   208        189
   209         22
   210          2