##TITLE=Library Entry 72252
##JCAMP-DX=Revision 4.10 
##DATA TYPE=MASS SPECTRUM
##SAMPLE DESCRIPTION=NIST Mass Spectrometry Data Center
##NAMES=HP
##CAS NAME=Methanone, (1-hydroxycyclohexyl)phenyl-
##MOLFORM=C13H16O2
##CAS REGISTRY NO=947-19-3
##MP= -300
##BP= -300
##MW= 204
##$RETENTION INDEX=1687
##$CONDENSED SPECTRUM=NO
##NPOINTS= 83
##XYDATA=(XY..XY) 1 
    26          1
    27         21
    29         25
    31          9
    38          2
    39         37
    40          5
    41         65
    42         24
    43         82
    44          3
    45          4
    50         29
    51        110
    52         14
    53         38
    54          5
    55        145
    56         10
    57         57
    58          2
    62          2
    63          5
    64          1
    65         10
    66          4
    67          9
    68          1
    69         27
    70         25
    71          6
    74          7
    75          7
    76         15
    77        289
    78         52
    79         83
    80         10
    81        649
    82         43
    83         16
    84          1
    89          3
    91          8
    92          1
    95          1
    97         13
    98        151
    99        999
   100         69
   101          4
   102          2
   103          4
   104          2
   105        163
   106         43
   107          5
   115          8
   116          1
   117          1
   120          5
   121          1
   127          1
   128          3
   129          3
   130          1
   131          1
   133         18
   134          2
   141          1
   143          1
   144          1
   145          1
   147          1
   149          1
   157          2
   158          1
   176          3
   185          2
   186          2
   187          1
   188          1
   204          1