##TITLE=Library Entry 65498
##JCAMP-DX=Revision 4.10 
##DATA TYPE=MASS SPECTRUM
##SAMPLE DESCRIPTION=MASS SPECTROMETRY CENTER, UNIV. OF UTAH EPA-PTSEL 1610
##NAMES=HP
##CAS NAME=Phosfolan
##MOLFORM=C7H14NO3PS2
##CAS REGISTRY NO=947-02-4
##MP= -300
##BP= -300
##MW= 255
##$RETENTION INDEX=2047
##$CONDENSED SPECTRUM=NO
##NPOINTS= 78
##XYDATA=(XY..XY) 1 
    15         13
    26         13
    27        162
    28         82
    29        287
    30          2
    31          2
    35          3
    43         28
    45        174
    46         64
    47         72
    57          1
    58         45
    59        232
    60        494
    61         84
    62         29
    63          3
    64        121
    65         52
    66          3
    72          9
    79          4
    81        293
    82          0
    86         31
    87          3
    88          1
    90         31
    91        100
    92        999
    93         69
    94         98
    96          0
    97          8
    99          3
   108         53
   109        186
   110          1
   118          1
   119         15
   122         62
   123         44
   125          3
   127          1
   136          4
   137         16
   138         38
   139         27
   140        610
   141         11
   142         40
   155          2
   162          4
   166          2
   167         12
   168        344
   169         11
   170         13
   182         65
   183         46
   184          7
   195         58
   196        505
   197         45
   198         28
   199         37
   200          1
   210         56
   211         21
   222          3
   227        227
   228         18
   229         25
   255        278
   256         29
   257         28