##TITLE=Library Entry 1408
##JCAMP-DX=Revision 4.10 
##DATA TYPE=MASS SPECTRUM
##SAMPLE DESCRIPTION=Japan AIST/NIMC Database- Spectrum MS-NW-3507
##NAMES=HP
##CAS NAME=Azacyclotridecan-2-one
##MOLFORM=C12H23NO
##CAS REGISTRY NO=947-04-6
##MP= -300
##BP= -300
##MW= 197
##$RETENTION INDEX=0
##$CONDENSED SPECTRUM=NO
##NPOINTS= 133
##XYDATA=(XY..XY) 1 
    15         14
    18          5
    26         10
    27        171
    28         24
    29        225
    30        999
    31         23
    37          1
    38          5
    39        158
    40         36
    41        619
    42        177
    43        303
    44        270
    45        109
    46         10
    47          1
    48          2
    49          1
    50          3
    51          9
    52          6
    53         60
    54         88
    55        501
    56        249
    57        120
    58        102
    59        108
    60        165
    61          5
    63          2
    65          9
    66          9
    67        109
    68         84
    69        198
    70        128
    71         63
    72        251
    73        352
    74         33
    75          2
    77          8
    78          3
    79         26
    80         19
    81         88
    82         76
    83        102
    84        184
    85        131
    86        307
    87        227
    88         18
    91          5
    92          2
    93         17
    94         17
    95         61
    96         76
    97         91
    98        412
    99        177
   100        448
   101        138
   102         16
   103          1
   105          2
   106          1
   107          9
   108         15
   109         29
   110         39
   111         89
   112        271
   113        130
   114        202
   115         58
   116          6
   119          3
   120          2
   121          9
   122          8
   123         10
   124         11
   125         48
   126        185
   127         47
   128         91
   129         32
   130          4
   133          3
   134          2
   135          4
   136          8
   137         10
   138         47
   139         11
   140        171
   141         42
   142         52
   143         15
   144          2
   149          2
   150          3
   151          5
   152          7
   153          4
   154        220
   155         51
   156        167
   157         17
   162          6
   164          1
   166          1
   167          2
   168        168
   169         39
   170          5
   178          2
   179          3
   180         11
   181          2
   182         49
   183          7
   195          3
   196         43
   197        872
   198        125
   199         10