##TITLE=Library Entry 10939
##JCAMP-DX=Revision 4.10 
##DATA TYPE=MASS SPECTRUM
##SAMPLE DESCRIPTION=D.HENNEBERG, MAX-PLANCK INSTITUTE, MULHEIM, WEST GERMAN
Y
##NAMES=HP
##CAS NAME=Benzeneacetic acid, .alpha.-(acetyloxy)-, methyl ester
##MOLFORM=C11H12O4
##CAS REGISTRY NO=947-94-4
##MP= -300
##BP= -300
##MW= 208
##$RETENTION INDEX=0
##$CONDENSED SPECTRUM=NO
##NPOINTS= 144
##XYDATA=(XY..XY) 1 
    22          3
    25          1
    26          9
    27         14
    28        190
    29         75
    30         35
    31         87
    32         38
    33          3
    34          1
    35          1
    36          6
    37          7
    38         16
    39         50
    40          9
    41         13
    42         29
    43        999
    44        339
    45         17
    46          4
    47          1
    49          6
    50         42
    51         72
    52         20
    53         12
    54          2
    55          8
    56          1
    57         13
    58          1
    59         22
    60          5
    61          6
    62         15
    63         54
    64         16
    65         30
    66          4
    69          1
    70          2
    71          7
    72          2
    73          4
    74         11
    75         17
    76         22
    77        146
    78         44
    79        126
    80          6
    83          3
    84          0
    85          6
    86          6
    87          5
    88          9
    89         93
    90        109
    91        200
    92         38
    93          2
    94          1
    95          1
    97          1
    98          1
    99          4
   100          0
   101          0
   102         46
   103         52
   104         12
   105        145
   106         47
   107        760
   108         58
   109          4
   110          0
   111          1
   113          1
   114          1
   115          3
   116          1
   117          2
   118        106
   119          8
   120         32
   121         20
   122          7
   126          1
   127          1
   128          3
   129          0
   130          2
   131         13
   132          6
   134          8
   136          2
   141          1
   142          1
   144          1
   146         19
   147          3
   148          1
   149        233
   150         25
   151          6
   152          1
   154          0
   155          4
   156          1
   157          2
   158          1
   161          0
   162         10
   163          1
   165         11
   166        169
   167         14
   168          2
   169          1
   170          0
   172          1
   174          0
   176         89
   177         11
   179          0
   180          1
   181          1
   182          0
   183          0
   187          0
   189          1
   191          0
   194          1
   199          2
   201          1
   205          1
   206          2
   207          1
   208          6