##TITLE=Library Entry 84308
##JCAMP-DX=Revision 4.10 
##DATA TYPE=MASS SPECTRUM
##SAMPLE DESCRIPTION=NIST Mass Spectrometry Data Center
##NAMES=HP
##CAS NAME=(E)-4-(3-Hydroxyprop-1-en-1-yl)phenyl acetate
##MOLFORM=C11H12O3
##CAS REGISTRY NO=94723-93-0
##MP= -300
##BP= -300
##MW= 192
##$RETENTION INDEX=1714
##$CONDENSED SPECTRUM=NO
##NPOINTS= 63
##XYDATA=(XY..XY) 1 
    29         11
    31          6
    38          5
    39         48
    40          9
    41         25
    42         11
    43        197
    44         12
    50         19
    51         46
    52         17
    53         23
    55         86
    56          7
    57         31
    62         17
    63         57
    64         21
    65         85
    66         24
    67         18
    68         20
    74          9
    75         11
    76         11
    77        162
    78         49
    79         34
    80          8
    81         16
    82         27
    89         32
    90         11
    91        114
    92         18
    93         45
    94        416
    95         54
    96         16
    97          8
   102         18
   103         93
   104         24
   105         32
   107        999
   108        142
   109         17
   115         27
   118         13
   119         49
   120         27
   121         80
   123         11
   131        100
   132         34
   133         55
   148         15
   149         37
   150        518
   151         53
   192         87
   193         13