##TITLE=Library Entry 61954
##JCAMP-DX=Revision 4.10 
##DATA TYPE=MASS SPECTRUM
##SAMPLE DESCRIPTION=Japan AIST/NIMC Database- Spectrum MS-NW-7719
##NAMES=HP
##CAS NAME=1-Methyl-2-phenylcyclohexanol
##MOLFORM=C13H18O
##CAS REGISTRY NO=94734-14-2
##MP= -300
##BP= -300
##MW= 190
##$RETENTION INDEX=0
##$CONDENSED SPECTRUM=NO
##NPOINTS= 137
##XYDATA=(XY..XY) 1 
    14          1
    15         14
    17          2
    18          1
    26          4
    27         58
    28          7
    29         31
    30          2
    31         10
    38          6
    39         79
    40          9
    41         87
    42          8
    43        582
    44         16
    45         26
    46          1
    50         16
    51         61
    52         18
    53         29
    54          9
    55         35
    56          3
    57         19
    58        226
    59         48
    60          3
    62          7
    63         32
    64         12
    65         65
    66          9
    67         16
    68         11
    69         14
    70          8
    71        750
    72         51
    73          4
    74          5
    75          9
    76         12
    77        104
    78         90
    79         59
    80         20
    81         85
    82          7
    83          8
    84          8
    85         32
    86          3
    87          3
    88          2
    89         25
    90         11
    91        999
    92        173
    93         15
    94         22
    95          7
    96          1
    97         11
    98          5
    99         59
   100          4
   101          3
   102         18
   103         80
   104        326
   105        131
   106         12
   107         17
   108          2
   112          4
   113          2
   114          2
   115        118
   116         36
   117        211
   118         41
   119         25
   120          9
   121          5
   126          2
   127         13
   128         47
   129        190
   130        796
   131        122
   132        253
   133         35
   134         10
   135          1
   139          2
   141          9
   142          6
   143         88
   144         43
   145         10
   146          7
   147         63
   148         10
   149          1
   151          1
   152          3
   153          4
   154          4
   155          3
   156          2
   157         78
   158         11
   159          2
   160          1
   161          6
   162          2
   163          1
   165          2
   166          1
   167          2
   168          2
   169          1
   170          2
   171          6
   172        682
   173        104
   174         46
   175         34
   176          6
   177          1
   188          1
   190        104
   191         14
   192          2