##TITLE=Library Entry 55975
##JCAMP-DX=Revision 4.10 
##DATA TYPE=MASS SPECTRUM
##SAMPLE DESCRIPTION=Philip Morris R&D
##NAMES=HP
##CAS NAME=4S,6S-Dimethyl-7R-hydroxynonan-3-one
##MOLFORM=C11H22O2
##CAS REGISTRY NO=94731-15-4
##MP= -300
##BP= -300
##MW= 186
##$RETENTION INDEX=0
##$CONDENSED SPECTRUM=NO
##NPOINTS= 83
##XYDATA=(XY..XY) 1 
    38         23
    39        110
    40        271
    41        422
    42        260
    43        471
    44         68
    45        103
    47          9
    49         10
    51         18
    53         66
    54         43
    55        795
    56        277
    57        876
    58        123
    59         93
    60         67
    61          8
    65         13
    66          6
    67         68
    68         51
    69         77
    70        251
    71         29
    72          3
    73         54
    74         15
    79         20
    80          8
    81         56
    82         43
    83        308
    84         93
    85         81
    86        999
    87        128
    88         10
    91         11
    93         13
    94          8
    95         47
    96         23
    97         88
    98         36
    99        255
   100         29
   101         19
   105         10
   107         12
   108         15
   109         26
   110         19
   111        180
   112        178
   113         28
   114          7
   115          6
   117          7
   120          7
   121         14
   123         13
   124          5
   125         22
   126         10
   127         26
   128          9
   135          6
   139        146
   140         14
   141          6
   144        306
   145         27
   151          7
   153         16
   157        155
   158         15
   164          6
   166          9
   168         86
   169         32