##TITLE=Library Entry 59083
##JCAMP-DX=Revision 4.10 
##DATA TYPE=MASS SPECTRUM
##SAMPLE DESCRIPTION=V.Zaikin,Topchiev Inst.Petrochem.Synth.,Moscow
##NAMES=HP
##CAS NAME=Benzeneacetic acid, dodecyl ester
##MOLFORM=C20H32O2
##CAS REGISTRY NO=94760-90-4
##MP= -300
##BP= -300
##MW= 304
##$RETENTION INDEX=0
##$CONDENSED SPECTRUM=NO
##NPOINTS= 94
##XYDATA=(XY..XY) 1 
    27         44
    28         30
    29         95
    30          2
    31          3
    37          5
    38          4
    39         85
    40         22
    41        301
    42         96
    43        490
    44         13
    45          5
    46          2
    50          6
    51         32
    52         12
    53         29
    54         29
    55        229
    56         86
    57        488
    58         21
    61          3
    62          5
    63         31
    64          7
    65        115
    66          9
    67         35
    68         32
    69        117
    70         49
    71        226
    72          5
    74          4
    75          2
    76          3
    77          9
    78          4
    79          8
    80          3
    81         10
    82         17
    83         62
    84         31
    85        128
    86          5
    88          3
    89         57
    90         33
    91        999
    92        199
    93         10
    95          7
    96          7
    97         37
    98         18
    99          5
   100          4
   101          2
   105          8
   107          4
   109          6
   110          8
   111         19
   112          9
   113          8
   115          2
   117          5
   118         13
   119         35
   120          4
   123          3
   124          3
   125          3
   126          6
   129          5
   135          5
   136        459
   137        222
   138         24
   139          5
   140          9
   149          2
   154          3
   168         36
   169          5
   213        150
   214         31
   215          4
   304         18
   305          6