##TITLE=Library Entry 87700
##JCAMP-DX=Revision 4.10 
##DATA TYPE=MASS SPECTRUM
##SAMPLE DESCRIPTION=Chemical Concepts
##NAMES=HP
##CAS NAME=Sulfide, phenyl tetradecyl
##MOLFORM=C20H34S
##CAS REGISTRY NO=94763-48-1
##MP= -300
##BP= -300
##MW= 306
##$RETENTION INDEX=0
##$CONDENSED SPECTRUM=NO
##NPOINTS= 97
##XYDATA=(XY..XY) 1 
    26          0
    27         19
    28          0
    29         66
    30          0
    39         15
    40          4
    41        136
    42         14
    43        161
    44          4
    45         55
    46          0
    47          1
    50          0
    51          8
    52          0
    53          4
    54          4
    55        136
    56         15
    57        106
    58          3
    59          2
    60          0
    61          0
    63          0
    65         16
    66         12
    67         13
    68          4
    69         66
    70          8
    71         46
    72          1
    73          0
    74          0
    75          0
    76          0
    77         16
    78          4
    79          7
    80          0
    81          6
    82          4
    83         28
    84          3
    85         22
    86          0
    87          1
    91          8
    92          0
    95          1
    96          1
    97         12
    98          0
    99          1
   101          0
   103          0
   104          0
   105          0
   108          1
   109         47
   110        999
   111         78
   112         43
   113          1
   115          0
   116          0
   117          2
   118          0
   121          0
   123        130
   124         17
   125          5
   126          1
   128          0
   129          0
   132          0
   134          0
   135          5
   136          0
   137         10
   138          0
   149          0
   151          0
   161          0
   165          8
   166          0
   179          0
   229          0
   278          0
   305          3
   306        272
   307         62
   308         18
   309          1