##TITLE=Library Entry 85873
##JCAMP-DX=Revision 4.10 
##DATA TYPE=MASS SPECTRUM
##SAMPLE DESCRIPTION=Philip Morris R&D
##NAMES=HP
##CAS NAME=1-(2-Pyrazinyl)-1-ethanol
##MOLFORM=C6H8N2O
##CAS REGISTRY NO=94777-52-3
##MP= -300
##BP= -300
##MW= 124
##$RETENTION INDEX=0
##$CONDENSED SPECTRUM=NO
##NPOINTS= 61
##XYDATA=(XY..XY) 1 
    36          1
    37          8
    38         16
    39         28
    40         19
    41         20
    42         19
    43         82
    44         11
    45        223
    46          4
    47          0
    48          0
    49          1
    50         10
    51         40
    52        153
    53        372
    54         72
    55         29
    56          6
    57          1
    62          0
    63          1
    64          3
    65          1
    67          4
    68          5
    69          5
    70          3
    71          0
    73          0
    74          0
    75          1
    76          1
    77          2
    78          9
    79        203
    80        450
    81        504
    82         56
    83          3
    87          0
    93          2
    94         19
    95         14
    96          4
    97          1
   105         44
   106         71
   107        147
   108         13
   109        999
   110         60
   111          3
   112          0
   122          2
   123         40
   124        154
   125         12
   126          1