##TITLE=Library Entry 16213
##JCAMP-DX=Revision 4.10 
##DATA TYPE=MASS SPECTRUM
##SAMPLE DESCRIPTION=Darrick Lee, Cayman Chemical, Ann Arbor, MI
##NAMES=HP
##CAS NAME=4-MTA
##MOLFORM=C10H15NS
##CAS REGISTRY NO=94784-92-6
##MP= -300
##BP= -300
##MW= 181
##$RETENTION INDEX=0
##$CONDENSED SPECTRUM=NO
##NPOINTS= 107
##XYDATA=(XY..XY) 1 
    40          6
    41         13
    42         51
    44        999
    45         51
    46          8
    47         12
    48          1
    49          1
    50         10
    51         17
    52          6
    53          4
    54          2
    55          1
    56          3
    57          3
    58          3
    59          1
    60          1
    61          3
    62          8
    63         27
    64          8
    65         17
    66          3
    67          2
    69         17
    70          7
    71          5
    72          1
    74          5
    75          6
    76          5
    77         29
    78         45
    79         11
    80          3
    81          2
    82          6
    83          6
    84          2
    85          1
    86          2
    87          2
    89         31
    90         12
    91         55
    92          8
    93          5
    94          2
    95          5
    96          3
    97          3
    98          1
   101          1
   102          3
   103          6
   104          5
   105          3
   106          2
   107          1
   108          6
   109          4
   110          1
   111          1
   115         10
   116          6
   117         11
   118         10
   119         16
   121         69
   122         81
   123         31
   124          7
   125          2
   128          1
   130          3
   131          1
   132          3
   133          4
   134          4
   135          4
   137         76
   138        193
   139         21
   140          9
   141          1
   145          1
   146          1
   147          2
   148          2
   149          2
   150          6
   151          1
   152          1
   162          1
   164          2
   165          3
   166          3
   167          1
   178          1
   179          1
   180          2
   181          5
   182          1
   183          1