##TITLE=Library Entry 107907
##JCAMP-DX=Revision 4.10 
##DATA TYPE=MASS SPECTRUM
##SAMPLE DESCRIPTION=Chemical Concepts
##NAMES=HP
##CAS NAME=Cobalt, (.eta.5-2,4-cyclopentadien-1-yl)methyl(.eta.3-2-propenyl)
-
##MOLFORM=C9H13Co
##CAS REGISTRY NO=94791-96-5
##MP= -300
##BP= -300
##MW= 180
##$RETENTION INDEX=0
##$CONDENSED SPECTRUM=NO
##NPOINTS= 105
##XYDATA=(XY..XY) 1 
    27         22
    28          4
    29          6
    35          1
    36          8
    37          6
    38         15
    39        113
    40         13
    41         32
    42          4
    49          0
    50          4
    51          8
    52          3
    53          6
    54          1
    55          6
    56          7
    59        548
    60         26
    61          1
    62          3
    63          9
    64          2
    65         16
    66          9
    67          2
    71          2
    72          6
    73         18
    74         36
    75          0
    76          0
    77         14
    78          5
    79         23
    80          3
    83          0
    84         37
    85         46
    86         20
    87          3
    89         11
    91          3
    93          1
    95          1
    96         14
    97         45
    98        152
    99         67
   100         11
   101          2
   102          1
   103          1
   104          0
   105          1
   106          1
   108          2
   109          5
   110          7
   111          7
   112          5
   113         13
   114          3
   115          1
   120          2
   121          3
   122          3
   123          6
   124        999
   125        254
   126         12
   127          0
   128          0
   134          0
   135          4
   136         11
   137        221
   138        221
   139         47
   140          2
   148          1
   149          1
   150          5
   151          4
   152          8
   153          0
   159          0
   161         13
   162          2
   163        135
   164         14
   165        229
   166         21
   167          0
   174          0
   175          2
   176         10
   177          4
   178        117
   179         16
   180        287
   181         29
   182          1