##TITLE=Library Entry 68968
##JCAMP-DX=Revision 4.10 
##DATA TYPE=MASS SPECTRUM
##SAMPLE DESCRIPTION=YA. V. RASHKES, ACAD. SCI. UZBEK, SSR, TASHKENT, USSR
##NAMES=HP
##CAS NAME=5.alpha.-Cholestane-3.beta.,6.alpha.,8.beta.,15.alpha.,16.beta.,2
6-hexaol
##MOLFORM=C27H48O6
##CAS REGISTRY NO=94799-81-2
##MP= -300
##BP= -300
##MW= 468
##$RETENTION INDEX=0
##$CONDENSED SPECTRUM=NO
##NPOINTS= 25
##XYDATA=(XY..XY) 1 
    95        999
   207        340
   225        630
   249        120
   251        140
   267        120
   278         70
   279         70
   285        200
   303        270
   304        120
   313         60
   321        160
   331        130
   352         40
   368         30
   386         30
   396         50
   399         80
   414        120
   417        100
   432        120
   435         40
   450        140
   468          4