##TITLE=Library Entry 107022
##JCAMP-DX=Revision 4.10 
##DATA TYPE=MASS SPECTRUM
##SAMPLE DESCRIPTION=A.A.Kutin, Moscow, Russia
##NAMES=HP
##CAS NAME=Guanidine, 1-(4,6-dimethylpyrimidine-2-yl)-3-ethoxy-
##MOLFORM=C9H15N5O
##CAS REGISTRY NO=94828-46-3
##MP= -300
##BP= -300
##MW= 209
##$RETENTION INDEX=0
##$CONDENSED SPECTRUM=NO
##NPOINTS= 119
##XYDATA=(XY..XY) 1 
    33         26
    34          8
    35          3
    36         24
    37         43
    38         90
    39        267
    40        190
    41        116
    42        352
    43        278
    44        114
    45         20
    46          7
    48         11
    50        177
    51        166
    52         79
    53         89
    54         83
    55         40
    56          9
    57          8
    58          3
    59          4
    60          3
    61         11
    62         16
    63         24
    64         33
    65         44
    66        139
    67        244
    68         46
    69         19
    70         11
    71          2
    72          4
    73         14
    74         42
    75         56
    76        174
    77        127
    78         24
    79         21
    80         41
    81         69
    82         78
    83         70
    84          7
    85          8
    86          3
    87          3
    88          3
    89          2
    90          7
    91         20
    92         13
    93         26
    95        138
    96        314
    97         15
    99          6
   100          1
   101          2
   104        459
   105         93
   106         39
   107        134
   108        137
   109         16
   110          2
   111          1
   112          1
   116          0
   117          2
   118          6
   120          8
   123        999
   124        109
   125          7
   126          4
   127          1
   128          0
   129          0
   132        113
   133         23
   134         44
   135          5
   136          0
   137          0
   139          1
   144          0
   145          0
   149        311
   150        182
   151        103
   152          8
   155          2
   159          1
   162        464
   163         81
   164         52
   166         58
   167          4
   178          1
   180         38
   181         55
   182          4
   189          0
   190          0
   191          0
   192          1
   194          0
   195          2
   209        334
   210         33
   211          2
   217          0