##TITLE=Library Entry 91007
##JCAMP-DX=Revision 4.10 
##DATA TYPE=MASS SPECTRUM
##SAMPLE DESCRIPTION=A.A.Kutin, Moscow, Russia
##NAMES=HP
##CAS NAME=1,5-Dithiaspiro[5,5]undec-2-ene, 2-amino-3-cyano-4-(3-fluoropheny
l)-
##MOLFORM=C16H17FN2S2
##CAS REGISTRY NO=94833-77-9
##MP= -300
##BP= -300
##MW= 320
##$RETENTION INDEX=0
##$CONDENSED SPECTRUM=NO
##NPOINTS= 151
##XYDATA=(XY..XY) 1 
    33          7
    34          9
    36          2
    37          3
    38         10
    39         84
    40        153
    41         97
    42         14
    43         20
    44         41
    45         81
    46          8
    47         14
    49          2
    50         21
    51         29
    52         25
    53         59
    54         35
    55         53
    56         15
    57         34
    58         89
    59         40
    60        221
    61         29
    62         16
    63         13
    64          5
    65         19
    66          6
    67         34
    68         14
    69         33
    70         21
    71        211
    72         33
    73         49
    74         17
    75         42
    76         15
    77         27
    78          7
    79        109
    80        157
    81        548
    82         50
    83         12
    84         13
    85         46
    86         45
    87         13
    88          1
    89          5
    92          2
    93         12
    94         18
    95         35
    96         14
    97         15
    98          7
    99         56
   100         12
   101         14
   102          3
   103          8
   105          3
   106          3
   107         13
   108          4
   109         10
   110          2
   111          5
   112          7
   113         29
   114        999
   115         86
   116         51
   117          5
   118          6
   119         12
   120         56
   121         17
   122          5
   123          2
   124         14
   126         44
   127          7
   128          2
   132          1
   133          1
   134         12
   135          3
   138          0
   139         39
   140          6
   141          4
   142          0
   143          1
   144          1
   145         30
   146         56
   147         13
   148          7
   149          1
   150          3
   151          7
   152         10
   153         11
   154          2
   155          0
   158          5
   159          3
   160          1
   162          0
   163          7
   164          2
   165          3
   170          3
   171         14
   172         24
   173         55
   174          6
   175          0
   177          4
   178         21
   179         21
   180         19
   181          1
   186          2
   187         32
   188          4
   190         18
   191          2
   203          1
   205        532
   206        440
   207        155
   208         36
   209          5
   221          0
   222          2
   223          0
   237          1
   244          0
   251          2
   320         65
   321         12
   322          6
   323          0