##TITLE=Library Entry 84018
##JCAMP-DX=Revision 4.10 
##DATA TYPE=MASS SPECTRUM
##SAMPLE DESCRIPTION=V.A.KOPTYUG, ATLAS OF MASS SPECTRA OF ORGANIC COMPOUNDS
##NAMES=HP
##CAS NAME=Phenol, 2-octyl-
##MOLFORM=C14H22O
##CAS REGISTRY NO=949-13-3
##MP= -300
##BP= -300
##MW= 206
##$RETENTION INDEX=2282
##$CONDENSED SPECTRUM=NO
##NPOINTS= 55
##XYDATA=(XY..XY) 1 
    39         52
    40          9
    41         93
    42         17
    43         53
    50          6
    51         23
    52         12
    53         21
    54          6
    55         40
    56         18
    57         75
    63          9
    65         21
    66          7
    67          9
    69         15
    70          9
    71          8
    77        138
    78         34
    79         76
    80         16
    81          7
    90          8
    91         46
    92         11
    93          7
    94         57
    95         16
    96         11
   103         16
   104          5
   105         14
   106          6
   107        999
   108        256
   109         34
   110          4
   115         13
   119          9
   120         29
   121         41
   122         26
   123          4
   131         21
   132          6
   133         17
   134          6
   135         13
   149          7
   206        203
   207         45
   208          5