##TITLE=Library Entry 53191
##JCAMP-DX=Revision 4.10 
##DATA TYPE=MASS SPECTRUM
##SAMPLE DESCRIPTION=NIST Mass Spectrometry Data Center, 2010
##NAMES=HP
##CAS NAME=(S)-3-Methyl-6-((S)-6-methyl-4-oxohept-5-en-2-yl)cyclohex-2-enone
##MOLFORM=C15H22O2
##CAS REGISTRY NO=949081-10-1
##MP= -300
##BP= -300
##MW= 234
##$RETENTION INDEX=0
##$CONDENSED SPECTRUM=NO
##NPOINTS= 75
##XYDATA=(XY..XY) 1 
    39         27
    40          6
    41         65
    42          8
    43         22
    50          4
    51         12
    52          9
    53         74
    54         42
    55        228
    56         11
    57          6
    59          4
    63          5
    65         22
    66          9
    67         50
    68          7
    69         93
    77         41
    78          8
    79         46
    80          9
    81         50
    82        215
    83        999
    84         53
    85          7
    91         48
    92          6
    93         23
    94         11
    95        210
    96         20
    98         13
   105          9
   107         21
   108         20
   109        222
   110        680
   111         67
   115          6
   121        116
   122         17
   123         38
   125        118
   126         79
   127          9
   133          5
   134          5
   135        153
   136         65
   137        792
   138         80
   139          6
   150          7
   151         45
   152          7
   159         16
   160          3
   163          8
   164         21
   173          7
   177         16
   178         10
   179         14
   192          3
   201         15
   202          4
   215          2
   216          8
   219         15
   234         36
   235          6