##TITLE=Library Entry 48304
##JCAMP-DX=Revision 4.10 
##DATA TYPE=MASS SPECTRUM
##SAMPLE DESCRIPTION=F. TURECEK,HEYROVSKY INST PHYS CHEM & ELECTROCHEM,PRAGU
E,CZECH
##NAMES=HP
##CAS NAME=1-(Phenylsulfinyl)-2-methylenecyclopropane
##MOLFORM=C10H10OS
##CAS REGISTRY NO=94923-10-1
##MP= -300
##BP= -300
##MW= 178
##$RETENTION INDEX=0
##$CONDENSED SPECTRUM=NO
##NPOINTS= 81
##XYDATA=(XY..XY) 1 
    26         55
    27        505
    29         90
    35         11
    36         50
    37         20
    38         44
    39        214
    40         33
    41        133
    42         11
    43         38
    44         33
    45        181
    47         27
    49         22
    50        168
    51        450
    52        110
    53        680
    54         38
    55         60
    56         22
    57         66
    58         33
    59         16
    62         16
    63         44
    64         11
    65        141
    66         99
    67         22
    68         16
    71         22
    74         38
    75         24
    76         24
    77        302
    78        999
    79         88
    81         38
    82         14
    83         16
    84         93
    85         44
    86         49
    91         93
    92         11
    97         82
   101         16
   102         16
   103         22
   104         27
   105         22
   108         27
   109        148
   110        214
   111         22
   115         93
   116         22
   117         38
   121         33
   123         99
   124         11
   125         55
   126        880
   127         99
   128        214
   129        264
   130        125
   134         22
   135         49
   136         33
   147         97
   148         22
   149         20
   161        247
   162         71
   163         16
   178         71
   179         11