##TITLE=Library Entry 9679
##JCAMP-DX=Revision 4.10 
##DATA TYPE=MASS SPECTRUM
##SAMPLE DESCRIPTION=J. Klune, Insect Chem. Ecol. Lab., USDA, Beltsville, MD
 20705
##NAMES=HP
##CAS NAME=3,5-Dinitrobenzoyl ester of tetradecen-1-ol
##MOLFORM=C21H32N2O6
##CAS REGISTRY NO=94999-94-7
##MP= -300
##BP= -300
##MW= 408
##$RETENTION INDEX=0
##$CONDENSED SPECTRUM=NO
##NPOINTS= 214
##XYDATA=(XY..XY) 1 
    41        697
    42        191
    43        999
    44         34
    45         14
    46          4
    50          5
    51          4
    52          3
    53         43
    54         96
    55        876
    56        283
    57        790
    58         35
    59          8
    62          7
    63         26
    64          4
    65          9
    66          9
    67        162
    68        135
    69        928
    70        222
    71        354
    72         21
    73         21
    74         40
    75        184
    76         21
    77          6
    79         18
    80          7
    81        144
    82        177
    83        986
    84        159
    85        195
    86         15
    87         26
    89          3
    91         17
    92          5
    93          8
    94          5
    95        118
    96         75
    97        958
    98        128
    99         89
   100          8
   101         30
   102          2
   103         67
   104         16
   105         11
   106          1
   107         14
   108          7
   109         91
   110         43
   111        631
   112         96
   113         82
   114          7
   115         28
   116          1
   119         17
   120         16
   121         17
   122          9
   123         71
   124         27
   125        375
   126         63
   127         46
   128          5
   129         10
   131          4
   133         14
   134          6
   135         35
   136         14
   137         51
   138         18
   139        167
   140         39
   141         37
   142          4
   143          1
   145          4
   147         10
   149        205
   150         49
   151         42
   152         14
   153         52
   154         18
   155         29
   156          1
   159          4
   161          5
   163         13
   164          5
   165         23
   166         29
   167         29
   168         56
   169         24
   170          1
   177          4
   179         68
   180         33
   181         17
   182         18
   183         16
   184         11
   185          4
   187         11
   188          4
   189         14
   190          3
   191         10
   192          5
   193         23
   195        562
   196        266
   197        147
   198         37
   199          5
   203          1
   205          7
   207          4
   209          3
   211         43
   212          5
   213         60
   214         25
   215          3
   221          4
   223          1
   225          3
   229          5
   233          1
   235          1
   237          4
   239          3
   251          8
   253          4
   259          1
   265          4
   277          1
   279          1
   287          1
   291          6
   294          9
   301          2
   303          2
   305          6
   307          6
   308         15
   309          7
   313          2
   317          4
   319          8
   320          3
   321          7
   322         16
   323         15
   324          3
   327          2
   329          4
   331          3
   333         10
   334          6
   335          6
   336         13
   337         32
   338         17
   339          6
   345          6
   347         21
   348          7
   350          3
   351         42
   352         12
   355         28
   356         20
   357          7
   361         28
   362          7
   365         49
   366         13
   368          1
   372          4
   373         89
   374         23
   375         14
   376          1
   378         16
   379         62
   380         15
   381          5
   390         29
   391         38
   392         10
   393         11
   394          1
   406         60
   407         45
   408        188
   409         49
   410         10