##TITLE=Library Entry 2545
##JCAMP-DX=Revision 4.10 
##DATA TYPE=MASS SPECTRUM
##SAMPLE DESCRIPTION=MI-0120
##NAMES=HP
##CAS NAME=2-Butenamide, N-(aminocarbonyl)-2-ethyl-, (Z)-
##MOLFORM=C7H12N2O2
##CAS REGISTRY NO=95-04-5
##MP= -300
##BP= -300
##MW= 156
##$RETENTION INDEX=1396
##$CONDENSED SPECTRUM=NO
##NPOINTS= 62
##XYDATA=(XY..XY) 1 
    36         28
    37         30
    38         65
    39        394
    40         95
    41        999
    42        129
    43        520
    44        491
    45         17
    49         19
    50         37
    51         75
    52         64
    53        325
    54         84
    55        334
    56         48
    57         26
    58          2
    59         14
    61         49
    62         16
    63         29
    64         21
    65         43
    66         55
    67        339
    68        297
    69        366
    70         93
    71         20
    72          9
    79          9
    80         92
    81         89
    82         19
    83         17
    84         25
    85         53
    86         12
    87          9
    93          9
    94         20
    95        104
    96        494
    97        141
    98        472
    99         37
   100          9
   111          3
   112         30
   113        499
   114         41
   115          9
   128         36
   139         17
   140          2
   141         29
   156        246
   157         29
   158         12