##TITLE=Library Entry 31992
##JCAMP-DX=Revision 4.10 
##DATA TYPE=MASS SPECTRUM
##SAMPLE DESCRIPTION=NIST Mass Spectrometry Data Center, 1994
##NAMES=HP
##CAS NAME=Bicyclo[2.2.1]hept-5-ene-2-carbonitrile
##MOLFORM=C8H9N
##CAS REGISTRY NO=95-11-4
##MP= -300
##BP= -300
##MW= 119
##$RETENTION INDEX=0
##$CONDENSED SPECTRUM=NO
##NPOINTS= 58
##XYDATA=(XY..XY) 1 
    12          1
    13          1
    14          4
    15          8
    18          0
    25          0
    26         40
    27         84
    28         14
    37         25
    38         52
    39        203
    40         69
    41         21
    42          1
    43          0
    45          0
    49          5
    50         38
    51         60
    52         35
    53         22
    54          6
    59          1
    60          1
    61          8
    62         17
    63         38
    64         24
    65        101
    66        999
    67         56
    68          1
    73          1
    74          5
    75          5
    76          8
    77         35
    78         15
    79         29
    80          3
    85          1
    86          1
    87          2
    88          1
    89          8
    90          4
    91         38
    92          8
    93          2
   102          2
   104         20
   105          1
   116          3
   117          5
   118         11
   119         12
   120          1