##TITLE=Library Entry 39904
##JCAMP-DX=Revision 4.10 
##DATA TYPE=MASS SPECTRUM
##SAMPLE DESCRIPTION=ALPHA Chemicals / NIST MS Data Center.
##NAMES=HP
##CAS NAME=Bicyclo(2.2.1)-5-heptene-2-carboxamide
##MOLFORM=C8H11NO
##CAS REGISTRY NO=95-17-0
##MP= -300
##BP= -300
##MW= 137
##$RETENTION INDEX=0
##$CONDENSED SPECTRUM=NO
##NPOINTS= 51
##XYDATA=(XY..XY) 1 
    29         15
    30         10
    37         10
    38         51
    39        240
    40         80
    41         69
    42         14
    43         24
    44        156
    45          6
    50         36
    51         69
    52         31
    53         54
    54         21
    55        171
    56          6
    59         31
    61          5
    62         22
    63         37
    64          5
    65        196
    66        827
    67         74
    68         10
    70          8
    72        999
    73         34
    74          7
    77        146
    78         52
    79         67
    82          6
    83         14
    89          9
    91        201
    92         37
    93        119
    94         27
    95          6
    96         18
   109          6
   118         10
   119          9
   120         35
   121         14
   122          5
   137        133
   138         13