##TITLE=Library Entry 32076
##JCAMP-DX=Revision 4.10 
##DATA TYPE=MASS SPECTRUM
##SAMPLE DESCRIPTION=Japan AIST/NIMC Database- Spectrum MS-NW-8370
##NAMES=HP
##CAS NAME=5-Norbornene-2-methanol
##MOLFORM=C8H12O
##CAS REGISTRY NO=95-12-5
##MP= -300
##BP= -300
##MW= 124
##$RETENTION INDEX=1050
##$CONDENSED SPECTRUM=NO
##NPOINTS= 53
##XYDATA=(XY..XY) 1 
    15          2
    18          3
    26          2
    27         29
    28          8
    29         14
    30          1
    31         17
    37          2
    38          6
    39         66
    40         28
    41         36
    42          3
    43          4
    50          7
    51         17
    52          8
    53         14
    54          3
    55          7
    57         15
    58          1
    61          1
    62          3
    63          8
    64          2
    65         52
    66        999
    67         86
    68          6
    69          2
    70          3
    77         48
    78         23
    79         35
    80         40
    81          5
    82          1
    83          3
    89          1
    91         49
    92          6
    93         12
    94          1
    95          4
    96          1
   103          1
   105          5
   106         14
   107          2
   124         11
   125          1