##TITLE=Library Entry 5153
##JCAMP-DX=Revision 4.10 
##DATA TYPE=MASS SPECTRUM
##SAMPLE DESCRIPTION=Japan AIST/NIMC Database- Spectrum MS-NW- 366
##NAMES=HP
##CAS NAME=2,3-Butanedione, dioxime
##MOLFORM=C4H8N2O2
##CAS REGISTRY NO=95-45-4
##MP= -300
##BP= -300
##MW= 116
##$RETENTION INDEX=0
##$CONDENSED SPECTRUM=NO
##NPOINTS= 62
##XYDATA=(XY..XY) 1 
    15        262
    16          3
    17          4
    18         15
    25          3
    26         29
    27        140
    28        168
    29         21
    30         48
    31        176
    32          3
    33          2
    34          1
    37          9
    38         25
    39         66
    40        167
    41        270
    42        999
    43         61
    44         17
    45          4
    46          9
    49          3
    50         12
    51         24
    52         36
    53         32
    54        101
    55         57
    56         16
    57        121
    58        411
    59         11
    60          2
    63          1
    64          4
    65          2
    66         24
    67         66
    68        253
    69         97
    70          4
    71          1
    72          8
    80          1
    81         35
    82         29
    83          4
    84         71
    85          7
    86          2
    97          1
    98         63
    99        379
   100         19
   101         14
   115          1
   116        782
   117         41
   118          4