##TITLE=Library Entry 61906
##JCAMP-DX=Revision 4.10 
##DATA TYPE=MASS SPECTRUM
##SAMPLE DESCRIPTION=Exported from NIST MS Search
##NAMES=HP
##CAS NAME=Benzene, 1-chloro-2-methyl-
##MOLFORM=C7H7Cl
##CAS REGISTRY NO=95-49-8
##MP= -300
##BP= -300
##MW= 126
##$RETENTION INDEX=955
##$CONDENSED SPECTRUM=NO
##NPOINTS= 82
##XYDATA=(XY..XY) 1 
     2          3
    12          5
    13          5
    14          7
    15         11
    24          1
    25          5
    26         36
    27         42
    28          4
    29          1
    35          7
    36          8
    37         43
    38         57
    39        154
    40         12
    41         13
    42          2
    43         28
    44         20
    45         62
    46          1
    48          4
    49         24
    50         74
    51         73
    52         12
    53          3
    54          1
    55          1
    56          1
    57          1
    59          1
    60          9
    61         39
    62         72
    63        169
    64         36
    65         98
    71          1
    72          6
    73         34
    74         20
    75         31
    76          5
    77          3
    78          1
    83          1
    84          7
    85         14
    86         17
    87         13
    88         12
    89        146
    90        114
    91        999
    92         75
    93          2
    95          1
    96          1
    97          5
    98          1
    99         25
   100          2
   101          8
   102          1
   104          1
   108          1
   109          1
   110          1
   111          1
   112          1
   113          1
   123          2
   124          2
   125        104
   126        360
   127         64
   128        118
   129         10
   130          1