##TITLE=Library Entry 62934
##JCAMP-DX=Revision 4.10 
##DATA TYPE=MASS SPECTRUM
##SAMPLE DESCRIPTION=NIST Mass Spectrometry Data Center, 1998.
##NAMES=HP
##CAS NAME=Benzene, 1-bromo-2-methyl-
##MOLFORM=C7H7Br
##CAS REGISTRY NO=95-46-5
##MP= -300
##BP= -300
##MW= 170
##$RETENTION INDEX=1032
##$CONDENSED SPECTRUM=NO
##NPOINTS= 68
##XYDATA=(XY..XY) 1 
    15          1
    25          1
    26          5
    27          9
    36          1
    37         14
    38         29
    39         98
    40          8
    41         11
    43         12
    44          9
    45         20
    48          1
    49         11
    50         67
    51         61
    52         14
    53          3
    60          4
    61         33
    62         76
    63        182
    64         43
    65        197
    66         11
    73          6
    74         23
    75         17
    76          7
    77          1
    79          6
    80          3
    81          9
    82          4
    83          2
    84          5
    85         21
    86         27
    87         14
    88          5
    89        229
    90        170
    91        999
    92         77
    93          4
    95          1
   104          1
   105          1
   106          1
   107          1
   116          1
   117          6
   118          2
   119          6
   128          1
   129          1
   130          1
   131          1
   141          2
   143          5
   145          4
   169         28
   170        342
   171         53
   172        331
   173         26
   174          1