##TITLE=Library Entry 61100
##JCAMP-DX=Revision 4.10 
##DATA TYPE=MASS SPECTRUM
##SAMPLE DESCRIPTION=NIST Mass Spectrometry Data Center, 1998.
##NAMES=HP
##CAS NAME=o-Xylene
##MOLFORM=C8H10
##CAS REGISTRY NO=95-47-6
##MP= -300
##BP= -300
##MW= 106
##$RETENTION INDEX=887
##$CONDENSED SPECTRUM=NO
##NPOINTS= 54
##XYDATA=(XY..XY) 1 
    15          3
    26          4
    27         22
    29          1
    37          5
    38         14
    39         78
    40          8
    41         11
    43          1
    45          1
    49          5
    50         51
    51        110
    52         45
    53         26
    54          2
    55          1
    60          1
    61          9
    62         24
    63         63
    64         11
    65         78
    66          9
    67          1
    73          3
    74         19
    75         12
    76         12
    77        133
    78         73
    79         75
    80          5
    85          2
    86          4
    87          4
    88          1
    89         26
    90          1
    91        999
    92         81
    93          3
    97          1
    98          3
    99          1
   101          2
   102         15
   103         68
   104         25
   105        206
   106        501
   107         44
   108          2