##TITLE=Library Entry 274
##JCAMP-DX=Revision 4.10 
##DATA TYPE=MASS SPECTRUM
##SAMPLE DESCRIPTION=Japan AIST/NIMC Database- Spectrum MS-NW-2721
##NAMES=HP
##CAS NAME=1,4-Dioxane, 2,3-dichloro-
##MOLFORM=C4H6Cl2O2
##CAS REGISTRY NO=95-59-0
##MP= -300
##BP= -300
##MW= 156
##$RETENTION INDEX=0
##$CONDENSED SPECTRUM=NO
##NPOINTS= 89
##XYDATA=(XY..XY) 1 
    12          1
    13          5
    14         16
    15         36
    16          1
    24          1
    25          4
    26         77
    27        163
    28        999
    29        242
    30        115
    31        159
    32          2
    35         10
    36         36
    37          5
    38         10
    39          1
    40          1
    41          6
    42         21
    43         71
    44          6
    45         34
    47          6
    48         13
    49        302
    50          8
    51         95
    52          1
    54          1
    55          4
    56          6
    57         66
    58         68
    59          5
    60          7
    61         45
    62         29
    63        320
    64        204
    65        113
    66         62
    67          7
    71          9
    73          5
    76          3
    77         50
    78          4
    79         15
    80          1
    82          1
    83          9
    84          1
    85          6
    86         84
    87          3
    91         20
    92         59
    93         18
    94         17
    95          4
    96         32
    97          4
    98         21
    99          2
   100          3
   102          1
   107          2
   109          2
   119          3
   120         76
   121        516
   122         49
   123        168
   124          7
   125          1
   126          1
   127          2
   128          1
   129          1
   154          6
   155          6
   156         49
   157          6
   158         29
   159          2
   160          5