##TITLE=Library Entry 82846
##JCAMP-DX=Revision 4.10 
##DATA TYPE=MASS SPECTRUM
##SAMPLE DESCRIPTION=NIST Mass Spectrometry Data Center, 1998.
##NAMES=HP
##CAS NAME=o-Toluidine
##MOLFORM=C7H9N
##CAS REGISTRY NO=95-53-4
##MP= -300
##BP= -300
##MW= 107
##$RETENTION INDEX=1070
##$CONDENSED SPECTRUM=NO
##NPOINTS= 57
##XYDATA=(XY..XY) 1 
    15          1
    26          5
    27         18
    28         16
    29          3
    30          9
    37          6
    38         16
    39         55
    40         11
    41         16
    42         13
    43          1
    45          1
    48          1
    49          5
    50         40
    51         73
    52         67
    53         64
    55          2
    56          1
    60          1
    61          6
    62         14
    63         36
    64         15
    65         30
    66         14
    67          6
    68          2
    73          3
    74         12
    75          9
    76         11
    77        161
    78         59
    79        118
    80         51
    81          8
    85          1
    86          2
    87          2
    88          1
    89         66
    90         41
    91         32
    92          6
    93          1
   102          2
   103          1
   104         29
   105          1
   106        999
   107        775
   108         60
   109          2