##TITLE=Library Entry 84859
##JCAMP-DX=Revision 4.10 
##DATA TYPE=MASS SPECTRUM
##SAMPLE DESCRIPTION=Japan AIST/NIMC Database- Spectrum MS-NW-1719
##NAMES=HP
##CAS NAME=1,2-Benzenediamine
##MOLFORM=C6H8N2
##CAS REGISTRY NO=95-54-5
##MP= -300
##BP= -300
##MW= 108
##$RETENTION INDEX=0
##$CONDENSED SPECTRUM=NO
##NPOINTS= 53
##XYDATA=(XY..XY) 1 
    15          3
    25          1
    26          9
    27         34
    28         67
    29          9
    30          9
    37         11
    38         27
    39         54
    40         16
    41         40
    42         16
    43         11
    44          4
    45          1
    49          6
    50         28
    51         53
    52         95
    53        125
    54         93
    55         10
    56          7
    61          6
    62          9
    63         40
    64         39
    65         31
    66         14
    67         23
    68          4
    69          3
    74          2
    75          6
    76         10
    77          6
    78         21
    79         18
    80        479
    81        169
    82         14
    89          1
    90         13
    91         40
    92          6
    93          1
   105         10
   106          5
   107        205
   108        999
   109         72
   110          2