##TITLE=Library Entry 86183
##JCAMP-DX=Revision 4.10 
##DATA TYPE=MASS SPECTRUM
##SAMPLE DESCRIPTION=Japan AIST/NIMC Database- Spectrum MS-NW-6411
##NAMES=HP
##CAS NAME=Benzene, 1-fluoro-2-methyl-
##MOLFORM=C7H7F
##CAS REGISTRY NO=95-52-3
##MP= -300
##BP= -300
##MW= 110
##$RETENTION INDEX=780
##$CONDENSED SPECTRUM=NO
##NPOINTS= 71
##XYDATA=(XY..XY) 1 
    15          1
    26          5
    27         12
    28          3
    31         15
    32          1
    33          5
    36          1
    37         10
    38         16
    39         55
    40          4
    41          2
    43          7
    44         11
    45         13
    48          1
    49          5
    50         27
    51         34
    52          5
    53          2
    54         11
    55         14
    56          7
    57         62
    58          4
    59         13
    60          2
    61         13
    62         22
    63         54
    64          9
    65         10
    66          1
    68          5
    69          8
    70          7
    71          2
    73          3
    74          8
    75         12
    76          3
    77          3
    78          1
    79          1
    80          4
    81         23
    82          7
    83        123
    84         12
    85          4
    86          6
    87          4
    88          2
    89         30
    90         14
    91         42
    92          4
    93          1
    94          3
    95          2
    96          1
   105          3
   106          1
   107         35
   108         19
   109        999
   110        636
   111         49
   112          2