##TITLE=Library Entry 84125
##JCAMP-DX=Revision 4.10 
##DATA TYPE=MASS SPECTRUM
##SAMPLE DESCRIPTION=Japan AIST/NIMC Database- Spectrum MS-NW-1687
##NAMES=HP
##CAS NAME=Phenol, 3,4-dimethyl-
##MOLFORM=C8H10O
##CAS REGISTRY NO=95-65-8
##MP= -300
##BP= -300
##MW= 122
##$RETENTION INDEX=1193
##$CONDENSED SPECTRUM=NO
##NPOINTS= 75
##XYDATA=(XY..XY) 1 
    15          4
    18          1
    26          8
    27         62
    28          8
    29          2
    31          2
    37          6
    38         19
    39        103
    40         13
    41         38
    42          4
    43         21
    44          2
    45          9
    46          8
    47          2
    49          4
    50         36
    51         83
    52         33
    53         53
    54          5
    55         24
    56          1
    59          9
    60         25
    61         16
    62         12
    63         31
    64          8
    65         51
    66         13
    67         10
    68          3
    69          4
    73          2
    74          8
    75          7
    76          4
    77        202
    78         45
    79         80
    80          8
    81         10
    82          3
    85          1
    86          2
    87          2
    89          7
    90          4
    91        113
    92         13
    93         27
    94         15
    95          6
    96          2
    98          1
   101          2
   102          4
   103         25
   104         14
   105         19
   106          3
   107        999
   108         78
   109          5
   118          1
   119          9
   120         18
   121        463
   122        997
   123         86
   124          9