##TITLE=Library Entry 81175
##JCAMP-DX=Revision 4.10 
##DATA TYPE=MASS SPECTRUM
##SAMPLE DESCRIPTION=Exported from NIST MS Search
##NAMES=HP
##CAS NAME=Benzene, 1-chloro-2,4-dimethyl-
##MOLFORM=C8H9Cl
##CAS REGISTRY NO=95-66-9
##MP= -300
##BP= -300
##MW= 140
##$RETENTION INDEX=1050
##$CONDENSED SPECTRUM=NO
##NPOINTS= 89
##XYDATA=(XY..XY) 1 
    15          2
    26          3
    27         33
    28          7
    29          2
    37          6
    38         16
    39         55
    40          5
    41          6
    42          1
    43          3
    44          3
    47          1
    49          8
    50         40
    51        165
    52         27
    53         17
    54          3
    55          3
    56          1
    57          1
    60          2
    61         11
    62         22
    63         50
    64          9
    65         15
    66          2
    67          6
    68          6
    69         29
    70         16
    71          3
    72          2
    73         17
    74         16
    75         25
    76         13
    77        152
    78         59
    79         77
    80          5
    81          1
    82          5
    84          2
    85          5
    86          6
    87          7
    88          2
    89         24
    90          5
    91          4
    97          4
    98          4
    99         12
   100          2
   101         11
   102         23
   103        130
   104         48
   105        999
   106         90
   107          4
   111          2
   112          3
   113          2
   114          1
   115          2
   117          3
   118          4
   119          1
   120          1
   123         14
   124          2
   125        102
   126          8
   127         34
   128          3
   136          1
   137          2
   138          4
   139         88
   140        503
   141         73
   142        163
   143         15
   144          1