##TITLE=Library Entry 80869
##JCAMP-DX=Revision 4.10 
##DATA TYPE=MASS SPECTRUM
##SAMPLE DESCRIPTION=NIST Mass Spectrometry Data Center, 1990.
##NAMES=HP
##CAS NAME=Benzene, 1,2,4-trimethyl-
##MOLFORM=C9H12
##CAS REGISTRY NO=95-63-6
##MP= -300
##BP= -300
##MW= 120
##$RETENTION INDEX=990
##$CONDENSED SPECTRUM=NO
##NPOINTS= 70
##XYDATA=(XY..XY) 1 
    14         26
    15         19
    16         11
    17          0
    18          1
    26          8
    27         53
    28        148
    29          5
    32          0
    37          3
    38         15
    39        108
    40         18
    41         39
    42          1
    43          0
    44          3
    45          1
    50         43
    51         96
    52         27
    53         32
    54          2
    55          1
    58         16
    59         15
    61          6
    62         20
    63         51
    64         10
    65         64
    66          7
    67          2
    73          2
    74         15
    75         13
    76         14
    77        147
    78         61
    79        118
    80          8
    81          0
    84          0
    85          2
    86          4
    87          5
    89         19
    91        122
    92         17
    93          8
    94          0
    98          2
    99          0
   101          2
   102         18
   103         81
   104         71
   105        999
   106         92
   107          3
   110          0
   115         45
   116          9
   117         33
   118          0
   119        130
   120        452
   121         44
   122          2