##TITLE=Library Entry 109898
##JCAMP-DX=Revision 4.10 
##DATA TYPE=MASS SPECTRUM
##SAMPLE DESCRIPTION=Japan AIST/NIMC Database- Spectrum MS-NW- 591
##NAMES=HP
##CAS NAME=Benzene, 2,4-dichloro-1-methyl-
##MOLFORM=C7H6Cl2
##CAS REGISTRY NO=95-73-8
##MP= -300
##BP= -300
##MW= 160
##$RETENTION INDEX=1108
##$CONDENSED SPECTRUM=NO
##NPOINTS= 82
##XYDATA=(XY..XY) 1 
    15          1
    26          3
    27          6
    35          2
    36          3
    37         14
    38         17
    39         60
    40          4
    41          3
    42          1
    43         25
    44         56
    45          1
    47          4
    48          2
    49         10
    50         32
    51         27
    52          2
    53          1
    60          8
    61         29
    62         89
    63        125
    64         15
    65         10
    71          1
    72          7
    73         49
    74         17
    75         21
    76          2
    77          2
    79          1
    80          7
    81          4
    82          1
    83          2
    84          8
    85         14
    86         16
    87         19
    88          8
    89        251
    90         40
    91          6
    93          2
    96          3
    97         16
    98          3
    99         51
   100          3
   101         14
   102          1
   106          1
   107          3
   108          1
   109          5
   110          2
   111          2
   120          1
   121          2
   123         39
   124         68
   125        999
   126         95
   127        313
   128         24
   129          1
   133          9
   135          5
   136          1
   137          1
   158          1
   159        101
   160        424
   161         93
   162        268
   163         29
   164         42
   165          3