##TITLE=Library Entry 109896
##JCAMP-DX=Revision 4.10 
##DATA TYPE=MASS SPECTRUM
##SAMPLE DESCRIPTION=Japan AIST/NIMC Database- Spectrum MS-NW- 589
##NAMES=HP
##CAS NAME=Benzene, 1,2-dichloro-4-methyl-
##MOLFORM=C7H6Cl2
##CAS REGISTRY NO=95-75-0
##MP= -300
##BP= -300
##MW= 160
##$RETENTION INDEX=1125
##$CONDENSED SPECTRUM=NO
##NPOINTS= 79
##XYDATA=(XY..XY) 1 
    15          1
    26          3
    27          9
    28          1
    35          4
    36          4
    37         13
    38         15
    39         56
    40          4
    41          3
    42          1
    43         22
    44         53
    45          1
    47          2
    48          2
    49         10
    50         32
    51         22
    52          3
    53          1
    57          1
    60          6
    61         26
    62         79
    63        111
    64         14
    65         10
    71          1
    72          8
    73         46
    74         18
    75         24
    76          2
    77          2
    79          2
    80          8
    81          5
    82          1
    83          2
    84         10
    85         13
    86         13
    87         16
    88          5
    89        172
    90         34
    91          3
    96          4
    97         16
    98          3
    99         52
   100          3
   101         15
   102          1
   107          5
   108          1
   109          8
   110          2
   111          3
   120          2
   121          1
   123         37
   124         16
   125        999
   126         82
   127        322
   128         25
   129          1
   145          1
   158          1
   159         92
   160        482
   161         97
   162        306
   163         30
   164         50
   165          4