##TITLE=Library Entry 81178
##JCAMP-DX=Revision 4.10 
##DATA TYPE=MASS SPECTRUM
##SAMPLE DESCRIPTION=Chuck Anderson, Aldrich Chemical Co.
##NAMES=HP
##CAS NAME=Benzene, 2-chloro-1,4-dimethyl-
##MOLFORM=C8H9Cl
##CAS REGISTRY NO=95-72-7
##MP= -300
##BP= -300
##MW= 140
##$RETENTION INDEX=1050
##$CONDENSED SPECTRUM=NO
##NPOINTS= 79
##XYDATA=(XY..XY) 1 
    15          2
    26          5
    27         46
    28          2
    29          1
    35          0
    36          0
    37          9
    38         20
    39         77
    40          5
    41          4
    43          1
    44          1
    47          0
    49          6
    50         42
    51        118
    52         23
    53         14
    54          0
    60          1
    61          9
    62         19
    63         47
    64          7
    65         11
    66          1
    68          1
    69         10
    70          6
    71          1
    72          1
    73         15
    74         21
    75         27
    76         13
    77        184
    78         68
    79         96
    80          5
    84          2
    85          6
    86          9
    87         12
    88          2
    89         39
    90          7
    91          2
    96          0
    97          4
    98          4
    99         13
   100          1
   101         13
   102         33
   103        179
   104         59
   105        999
   106         92
   107          3
   111          1
   112          3
   113          1
   114          1
   123          1
   125        145
   126         11
   127         49
   128          3
   136          0
   137          0
   138          3
   139         89
   140        521
   141         68
   142        163
   143         13
   144          0