##TITLE=Library Entry 83007
##JCAMP-DX=Revision 4.10 
##DATA TYPE=MASS SPECTRUM
##SAMPLE DESCRIPTION=Chuck Anderson, Aldrich Chemical Co.
##NAMES=HP
##CAS NAME=2-Chloro-5-methylaniline
##MOLFORM=C7H8ClN
##CAS REGISTRY NO=95-81-8
##MP= -300
##BP= -300
##MW= 141
##$RETENTION INDEX=1201
##$CONDENSED SPECTRUM=NO
##NPOINTS= 85
##XYDATA=(XY..XY) 1 
    15          2
    18          0
    26          7
    27         29
    28         43
    29          3
    30         14
    36          0
    37         19
    38         39
    39         80
    40         15
    41         24
    42         15
    43          1
    44          3
    47          2
    48          1
    49          9
    50         47
    51        128
    52        140
    53         87
    54         16
    57         12
    58          8
    59          0
    60          3
    61         17
    62         32
    63         59
    64         20
    65         33
    66         19
    67          5
    69          2
    70         38
    72         18
    73         29
    74         23
    75         37
    76         28
    77        330
    78         99
    79        130
    80         23
    81          0
    84          2
    85          6
    86          8
    87         12
    88          6
    89         31
    90         13
    91          7
    97          4
    98          1
    99         11
   100          5
   101          5
   102         13
   103          3
   104        105
   105         23
   106        999
   107         74
   108          2
   111          2
   112          4
   113         42
   114         15
   115         14
   116          4
   123          3
   124          1
   125         10
   126          0
   127          3
   138          4
   139          0
   140        289
   141        958
   142        152
   143        322
   144         21