##TITLE=Library Entry 213
##JCAMP-DX=Revision 4.10 
##DATA TYPE=MASS SPECTRUM
##SAMPLE DESCRIPTION=Exported from NIST MS Search
##NAMES=HP
##CAS NAME=1,4-Dioxane-2,5-dione, 3,6-dimethyl-
##MOLFORM=C6H8O4
##CAS REGISTRY NO=95-96-5
##MP= -300
##BP= -300
##MW= 144
##$RETENTION INDEX=1307
##$CONDENSED SPECTRUM=NO
##NPOINTS= 15
##XYDATA=(XY..XY) 1 
    25         50
    26        260
    27        460
    28        999
    29        400
    30         30
    42         90
    43        810
    44        200
    45        920
    46         40
    55        200
    56        999
    57        100
   144         80