##TITLE=Library Entry 86051
##JCAMP-DX=Revision 4.10 
##DATA TYPE=MASS SPECTRUM
##SAMPLE DESCRIPTION=J. SHAW, BORRISTON RESEARCH, ROCKVILLE, MD, USA
##NAMES=HP
##CAS NAME=Phosphoric acid, dimethyl 4-nitrophenyl ester
##MOLFORM=C8H10NO6P
##CAS REGISTRY NO=950-35-6
##MP= -300
##BP= -300
##MW= 247
##$RETENTION INDEX=1804
##$CONDENSED SPECTRUM=NO
##NPOINTS= 136
##XYDATA=(XY..XY) 1 
    25          1
    26         26
    27         24
    28         87
    29         75
    30        326
    31         70
    32          7
    33          7
    36          1
    37         16
    38         99
    39         68
    40          5
    41          8
    42          4
    43          7
    44          3
    45         15
    46         15
    47        112
    48         10
    49         15
    50        113
    51         52
    52         42
    53         34
    54         21
    55          8
    56          1
    57          4
    58          1
    59          1
    60          6
    61         14
    62         64
    63        257
    64        158
    65         93
    66         45
    67          6
    68          9
    69          3
    71          1
    73          5
    74         47
    75        132
    76         71
    77         55
    78         34
    79        354
    80         23
    81         30
    82         14
    83          7
    84          1
    85          1
    87          1
    88         11
    89        133
    90         15
    91         18
    92         51
    93        136
    94         13
    96        764
    97         16
    98          5
    99         14
   100          1
   102          1
   103          9
   104          9
   105         64
   106         31
   107         62
   109        999
   110         35
   111         17
   112          2
   113         14
   115          2
   118          1
   119          6
   120          5
   121          9
   122         27
   123         55
   124          5
   125          2
   127         25
   128          1
   130          2
   135        165
   136         86
   137         32
   139        122
   140         15
   141          7
   142          1
   143          7
   149         32
   150          4
   152         41
   153         20
   154          3
   155          8
   156         19
   157          2
   161          3
   162          2
   166          1
   169         10
   170         19
   171          3
   172          2
   173          5
   179          1
   186         87
   187          6
   188          1
   198          1
   200        133
   201         46
   202          4
   215          1
   216          5
   217          7
   218          1
   230        197
   231         32
   232          7
   246         28
   247        158
   248         22
   249          3