##TITLE=Library Entry 7101
##JCAMP-DX=Revision 4.10 
##DATA TYPE=MASS SPECTRUM
##SAMPLE DESCRIPTION=Chemical Concepts
##NAMES=HP
##CAS NAME=Octadecanoic acid, 9,10-epoxy-, isopropyl ester
##MOLFORM=C21H40O3
##CAS REGISTRY NO=95007-80-0
##MP= -300
##BP= -300
##MW= 340
##$RETENTION INDEX=0
##$CONDENSED SPECTRUM=NO
##NPOINTS= 232
##XYDATA=(XY..XY) 1 
    25          1
    26         16
    27        219
    28         15
    29        321
    30          6
    31         25
    36          5
    37          4
    38          4
    39        133
    40         29
    41        819
    42        227
    43        999
    44         46
    45         47
    47          0
    48          0
    49          1
    50          2
    51          5
    52          3
    53         61
    54        121
    55        950
    56        237
    57        549
    58         46
    59         84
    60        190
    61         62
    62          2
    63          4
    64          5
    65         12
    66         26
    67        382
    68        209
    69        638
    70        167
    71        259
    72         22
    73        110
    74         21
    75          4
    76          1
    77         17
    78          6
    79         75
    80         43
    81        302
    82        200
    83        432
    84        128
    85        130
    86         14
    87         66
    88         19
    89          5
    91         28
    92          9
    93         82
    94        135
    95        283
    96        175
    97        431
    98        104
    99         54
   100         43
   101         59
   102        153
   103         21
   104          4
   105          9
   106          4
   107         57
   108         28
   109        234
   110         88
   111        115
   112         31
   113        111
   114         48
   115         44
   116         10
   117          2
   118          3
   119         46
   120        108
   121        107
   122         22
   123         84
   124         78
   125        137
   126         51
   127         85
   128         21
   129         34
   130          9
   131          4
   132          2
   133         12
   134          5
   135         42
   136         68
   137        109
   138         99
   139        192
   140         55
   141        100
   142         28
   143         23
   144         43
   145          5
   146          2
   147         13
   148          5
   149         25
   150         12
   151         26
   152         13
   153        304
   154        108
   155        707
   156        184
   157        258
   158         73
   159         11
   160          2
   161          9
   162          2
   163         11
   164          6
   165         21
   166          7
   167         73
   168         20
   169         16
   170          7
   171        170
   172         22
   173         48
   174          6
   175         15
   176          1
   177          4
   178          2
   179         17
   180          5
   181         15
   182         11
   183         16
   184          3
   185         71
   186         18
   187          3
   189          5
   191          3
   192          2
   193          9
   194          3
   195         11
   196          6
   197          7
   198          8
   199         15
   200          6
   201          1
   203          1
   205          1
   206          0
   207          7
   208          2
   209          5
   210          2
   211          2
   213         18
   214          3
   215         11
   216          1
   217          7
   219          2
   220          3
   221          5
   222          1
   223          6
   224          2
   225          4
   227         31
   228          5
   233          0
   234          0
   235          1
   236          1
   237          6
   238          2
   239          3
   240          1
   241          1
   242          3
   243          1
   245         12
   246          3
   247          1
   250          1
   251          3
   252          4
   253          2
   254          2
   255          5
   261          2
   262          1
   263         19
   264          7
   265          3
   267          0
   270          2
   278          7
   279         39
   280         15
   281         31
   282          6
   296          2
   297         13
   298          3
   322          2
   323          0
   324          1
   338          3
   339          1
   340          2