##TITLE=Library Entry 11666
##JCAMP-DX=Revision 4.10 
##DATA TYPE=MASS SPECTRUM
##SAMPLE DESCRIPTION=LAC, NIDDK, NIH, Bethesda, MD 20892
##NAMES=HP
##CAS NAME=16-Allopregnene-3.beta.,9.alpha.-diol-20-one
##MOLFORM=C21H32O3
##CAS REGISTRY NO=95001-99-3
##MP= -300
##BP= -300
##MW= 332
##$RETENTION INDEX=0
##$CONDENSED SPECTRUM=NO
##NPOINTS= 111
##XYDATA=(XY..XY) 1 
    41        176
    43        999
    44         32
    45         15
    49         12
    51         12
    53         71
    55        181
    57         61
    65         28
    67        118
    68         27
    69         59
    70         12
    71         28
    77         99
    79        193
    80         11
    81        135
    82          5
    83         38
    84         19
    91        130
    93        163
    94         54
    95         99
    96         20
    97         26
   103         20
   105        139
   106         15
   107        192
   108         42
   109         55
   110        120
   111         13
   115         36
   117         39
   119         58
   120         86
   121         29
   122        512
   123        120
   124         29
   125          6
   129         30
   131         79
   133         87
   134         13
   135        151
   136         11
   137         67
   138         19
   141          6
   143         47
   145         64
   146          5
   147         58
   148          7
   149        126
   151        101
   152          7
   153          7
   157         30
   159         64
   160         23
   161         76
   162         10
   163         28
   164         10
   165          7
   167          5
   169          6
   171         30
   173         35
   174         24
   175         31
   177         97
   178         19
   182          6
   183          5
   185         22
   187         30
   188         35
   189         38
   191        105
   192        164
   193         42
   197         15
   199         22
   203          6
   204          6
   205        156
   206         28
   211         16
   219         15
   225         18
   239          6
   253         42
   271         54
   273          7
   281         49
   285         27
   296         86
   297          7
   299         45
   303         28
   314        242
   315         50
   332        276
   333         49