##TITLE=Library Entry 19621
##JCAMP-DX=Revision 4.10 
##DATA TYPE=MASS SPECTRUM
##SAMPLE DESCRIPTION=NIST Mass Spectrometry Data Center, 1990.
##NAMES=HP
##CAS NAME=10-Heneicosene (c,t)
##MOLFORM=C21H42
##CAS REGISTRY NO=95008-11-0
##MP= -300
##BP= -300
##MW= 294
##$RETENTION INDEX=2060
##$CONDENSED SPECTRUM=NO
##NPOINTS= 52
##XYDATA=(XY..XY) 1 
    14         25
    27        151
    28         68
    29        388
    32          6
    39        112
    41        957
    42        173
    43        975
    44         35
    53         78
    54        295
    55        999
    56        462
    57        781
    58         36
    65         26
    66         28
    67        286
    68        162
    69        728
    70        396
    71        377
    77         20
    79         49
    80         24
    81        156
    82        219
    83        752
    84        256
    85        204
    95         73
    96        169
    97        660
    98        139
    99         54
   109         27
   110         73
   111        344
   112         98
   113         33
   124         47
   125        161
   126         60
   138         30
   139         64
   140         36
   153         36
   154         25
   167         18
   168         17
   294         47