##TITLE=Library Entry 11550
##JCAMP-DX=Revision 4.10 
##DATA TYPE=MASS SPECTRUM
##SAMPLE DESCRIPTION=LAC, NIDDK, NIH, Bethesda, MD 20892
##NAMES=HP
##CAS NAME=5-Pregnen-3.beta.,9.alpha.-diol-20-one
##MOLFORM=C21H32O3
##CAS REGISTRY NO=95001-96-0
##MP= -300
##BP= -300
##MW= 332
##$RETENTION INDEX=0
##$CONDENSED SPECTRUM=NO
##NPOINTS= 205
##XYDATA=(XY..XY) 1 
    41        158
    43        999
    45         39
    47         12
    49         31
    51         19
    53         84
    55        218
    57         62
    58          4
    59          2
    61          0
    63          1
    64          1
    65         40
    67        107
    68         14
    69         23
    71         51
    73          1
    77         91
    79        131
    81         82
    82          9
    83         25
    84         26
    85         20
    86         13
    88          1
    89          1
    91        134
    92         40
    93        155
    95        103
    96         13
    97          9
    98          2
    99          0
   100          0
   102          1
   103         14
   105        243
   106         37
   107         60
   108         73
   109         34
   110          8
   111          5
   112          0
   113          0
   115         25
   116          9
   117         31
   118        113
   119          9
   120        398
   121         84
   122         19
   123         23
   124        122
   125         13
   126          2
   127          5
   128         15
   129         16
   130          5
   131         21
   132          1
   133         54
   134         18
   135         34
   136         21
   137         12
   138         39
   139          0
   141         10
   142          8
   143         30
   144         13
   145         29
   146          8
   147         17
   148          7
   149          5
   151         23
   152          5
   153          4
   154          4
   155         12
   156          8
   157         21
   158         10
   159         13
   161         11
   162          2
   163          6
   164          3
   165          6
   166          3
   167          5
   168          2
   169          6
   170          2
   171          7
   172          2
   173          9
   174          2
   175          6
   176         10
   177          8
   178          6
   179          4
   180          0
   181          3
   182          2
   183          8
   184          2
   185          6
   186          1
   187          4
   188          1
   189          2
   190          0
   191          6
   192          2
   193          9
   194         31
   195          9
   196          3
   197          7
   198          2
   199          4
   200          0
   201          1
   202          0
   203          0
   205          2
   206          1
   207         18
   208          2
   209          3
   211         10
   212          3
   213          2
   214          1
   215          2
   216          0
   217          0
   218          1
   219          0
   220          0
   221          5
   222          1
   223          3
   224          0
   225          3
   226          3
   227          2
   228          0
   229          2
   231          1
   235          0
   236          0
   237          2
   238          2
   239          1
   241          0
   243          1
   244          1
   245          0
   249          1
   251          0
   252          0
   253          9
   254          1
   255          5
   256          2
   257          6
   258          1
   263          3
   264          0
   267          0
   268          0
   269          0
   271          4
   272          1
   277          0
   278          8
   279          3
   281         21
   282          5
   283          0
   285          0
   295          1
   296         31
   297         18
   298          4
   299          3
   313          2
   314         77
   315         22
   316          5
   317          0
   332          2
   333          0