##TITLE=Library Entry 15225
##JCAMP-DX=Revision 4.10 
##DATA TYPE=MASS SPECTRUM
##SAMPLE DESCRIPTION=LAC, NIDDK, NIH, Bethesda, MD 20892
##NAMES=HP
##CAS NAME=4-Methylimidazole-2,5-diethanol
##MOLFORM=C6H10N2O2
##CAS REGISTRY NO=95010-84-7
##MP= -300
##BP= -300
##MW= 142
##$RETENTION INDEX=0
##$CONDENSED SPECTRUM=NO
##NPOINTS= 75
##XYDATA=(XY..XY) 1 
    41        312
    42        524
    43        472
    44        999
    45        423
    46        282
    47         59
    48          7
    49         29
    50         20
    51         49
    52        120
    53        158
    54        206
    55        156
    56        139
    57         96
    58        118
    59        211
    60         91
    61         23
    63         16
    65         17
    66        225
    67        118
    68         96
    69        100
    70         76
    71         34
    72         20
    73         66
    74         20
    75         48
    76         30
    77         20
    78          8
    79         20
    80         24
    81         76
    82        106
    83        149
    84         87
    85         36
    86        143
    87         19
    88         14
    89          7
    91          6
    93         34
    94         85
    95        422
    96        166
    97         80
    98         25
    99         25
   108         53
   109        140
   110         29
   111        147
   112        153
   113         94
   114         23
   115          7
   119          5
   123         28
   124        167
   125        309
   126         80
   127         54
   137         10
   139         39
   140         66
   141        356
   142        436
   143         47