##TITLE=Library Entry 89290
##JCAMP-DX=Revision 4.10 
##DATA TYPE=MASS SPECTRUM
##SAMPLE DESCRIPTION=Chemical Concepts
##NAMES=HP
##CAS NAME=2-Propanone, 1-(2-methoxycyclohexyl)-
##MOLFORM=C10H18O2
##CAS REGISTRY NO=95047-97-5
##MP= -300
##BP= -300
##MW= 170
##$RETENTION INDEX=0
##$CONDENSED SPECTRUM=NO
##NPOINTS= 86
##XYDATA=(XY..XY) 1 
    26          2
    27         45
    29         27
    30          4
    31          9
    33          2
    38          2
    39         69
    40         12
    41        173
    42         20
    43        505
    44          9
    45         97
    46          1
    50          1
    51          5
    52          3
    53         40
    54         29
    55         86
    56         12
    57         11
    58         76
    59         42
    63          0
    65          8
    66          6
    67        112
    68         25
    69         23
    70          5
    71        407
    72         24
    73          1
    74          1
    75         10
    77         16
    78          4
    79         51
    80        173
    81        221
    82         23
    83         16
    84        134
    85         95
    86          4
    88          1
    89          0
    91         11
    92          0
    93         18
    94         27
    95        187
    96         31
    97        183
    98         15
    99          5
   100          0
   105          3
   107          0
   108          1
   109         14
   110         33
   111        113
   112        999
   113         83
   114          4
   119          0
   120          4
   121          1
   123         19
   124          1
   125          3
   127         12
   128          1
   137         14
   138        112
   139         13
   140          1
   152          4
   153          0
   155          2
   156          0
   170          1
   171          0