##TITLE=Library Entry 44663
##JCAMP-DX=Revision 4.10 
##DATA TYPE=MASS SPECTRUM
##SAMPLE DESCRIPTION=V.A.KOPTYUG, ATLAS OF MASS SPECTRA OF ORGANIC COMPOUNDS
##NAMES=HP
##CAS NAME=1-Hydroxy-4-hydrazinocarbonyl-2,2,5,5-tetramethyl-3-imidazoline-3
-oxide
##MOLFORM=C8H16N4O3
##CAS REGISTRY NO=95057-50-4
##MP= -300
##BP= -300
##MW= 216
##$RETENTION INDEX=0
##$CONDENSED SPECTRUM=NO
##NPOINTS= 52
##XYDATA=(XY..XY) 1 
    30         32
    31         81
    32         60
    38         13
    39        109
    40         53
    41        271
    42        149
    43        102
    44         32
    50         33
    52         28
    53         25
    54         45
    55         39
    56        131
    57         18
    58        208
    59         70
    66         13
    67         79
    68        427
    69         64
    70         28
    71         37
    72         15
    73        110
    74        999
    75         32
    81         44
    82         17
    83         57
    84         93
    85         28
    86         19
    95         21
    98         53
    99         13
   112         15
   113        124
   125         12
   126         97
   127         19
   128         15
   142         19
   143        261
   144         15
   150         12
   168         13
   185        310
   186         28
   216         25