##TITLE=Library Entry 11062
##JCAMP-DX=Revision 4.10 
##DATA TYPE=MASS SPECTRUM
##SAMPLE DESCRIPTION=Asinex Ltd, Moscow, Russia
##NAMES=HP
##CAS NAME=3-Imino-1,7-dimethyl-2,6-dioxa-bicyclo[2.2.2]octane-4,8,8-tricarb
onitrile
##MOLFORM=C11H10N4O2
##CAS REGISTRY NO=95059-12-4
##MP= -300
##BP= -300
##MW= 230
##$RETENTION INDEX=0
##$CONDENSED SPECTRUM=NO
##NPOINTS= 124
##XYDATA=(XY..XY) 1 
    33          0
    37         11
    38         24
    39         76
    40         31
    41         32
    43        999
    44         30
    45          8
    49          1
    50          8
    51         23
    52         36
    53         15
    54          8
    55         11
    56          3
    57         15
    58          0
    60         14
    61          8
    62          4
    63         13
    64         24
    65         15
    66         46
    67         44
    68          5
    69          4
    70          3
    71          6
    72         34
    73          2
    74          3
    75          5
    76         15
    77         20
    78         14
    79         46
    80          4
    81          4
    82          3
    83          1
    84          0
    85          0
    86          0
    87          1
    88          7
    89          4
    90          9
    91          6
    93        149
    94         39
    95          7
    96          4
    97          0
    98          0
   100          0
   101          1
   102          7
   103          9
   104          3
   105          2
   106          0
   107          2
   109        192
   110         20
   111          3
   112          0
   113          0
   114          1
   115         12
   116          3
   117          8
   118          2
   119          1
   120          0
   121          0
   122          1
   123          8
   124          0
   127          0
   128          0
   129          6
   130          7
   131          7
   132          2
   133          3
   134          1
   135         11
   136          3
   137          2
   138         29
   139          2
   140          0
   141          1
   142         13
   143          1
   144          1
   145          5
   146          1
   147          0
   148          0
   152          2
   154          0
   156          0
   157          1
   158          0
   159          1
   160          1
   161          2
   162          0
   171          5
   172         40
   173          5
   174          0
   185          3
   187         36
   188          4
   189          0
   192          0
   200          8
   201          0
   215          0