##TITLE=Library Entry 10949
##JCAMP-DX=Revision 4.10 
##DATA TYPE=MASS SPECTRUM
##SAMPLE DESCRIPTION=Asinex Ltd, Moscow, Russia
##NAMES=HP
##CAS NAME=3-Imino-1,7-dimethyl-5-phenyl-2,6-dioxa-bicyclo[2.2.2]octane-4,8,
8-tricarbonitrile
##MOLFORM=C17H14N4O2
##CAS REGISTRY NO=95059-18-0
##MP= -300
##BP= -300
##MW= 306
##$RETENTION INDEX=0
##$CONDENSED SPECTRUM=NO
##NPOINTS= 179
##XYDATA=(XY..XY) 1 
    33          0
    34          0
    37          7
    38         19
    39         81
    40         21
    41         26
    43        999
    44         28
    45          6
    48          0
    50         40
    51         97
    52         40
    53         16
    54         18
    55          9
    56          3
    57         26
    58          0
    59          0
    61          3
    62          8
    63         25
    64         20
    65         13
    66         34
    67          8
    68          2
    69          3
    70          5
    71         41
    72        163
    73          9
    74          8
    75         14
    76         32
    77        174
    78         40
    79        170
    80         11
    81          1
    82          1
    83          0
    84          0
    85          0
    86          1
    87          4
    88          9
    89         33
    90         21
    91         10
    92          4
    93         43
    94          5
    95          0
    96          0
    97          2
    98          1
    99          2
   100          6
   101          7
   102         13
   103         34
   104         14
   105        102
   107        928
   108         63
   109          5
   110          2
   111          1
   112          1
   113          2
   114          3
   115          9
   116          6
   117          3
   118          2
   119          0
   120          0
   121          0
   122          0
   124          1
   125          1
   126          5
   127         25
   128          9
   129         12
   130          9
   131         11
   132          4
   133          1
   135          3
   136          3
   137          8
   138          2
   139          4
   140          6
   141          2
   142          1
   143          1
   144          1
   145          2
   146          3
   147          1
   148          1
   149          0
   151          1
   152          6
   153         11
   154        110
   155         17
   156          3
   157          2
   158          2
   159          0
   160          0
   162          0
   164          3
   165         17
   166          7
   167          2
   168          0
   169          0
   171         16
   172         10
   173          3
   174          0
   175          0
   176          0
   177          0
   178          2
   179          6
   180          1
   181          0
   182          0
   183          1
   185         10
   186          1
   190          0
   192         36
   193         13
   194          4
   195          3
   196          0
   198          1
   200         50
   201          6
   202          0
   203          0
   204          0
   205          0
   206          1
   207          0
   208          0
   209          0
   210          0
   211          0
   218          0
   220          5
   221          3
   222          0
   233          0
   234          0
   235          0
   236          2
   237          0
   238          0
   246          0
   247          0
   248          2
   249          0
   262          6
   263          3
   264          2
   265          0
   306         13
   307          2
   308          0