##TITLE=Library Entry 16277
##JCAMP-DX=Revision 4.10 
##DATA TYPE=MASS SPECTRUM
##SAMPLE DESCRIPTION=Chemical Concepts
##NAMES=HP
##CAS NAME=4,4'-Bis(dimethylsulfamoyl)biphenyl
##MOLFORM=C16H20N2O4S2
##CAS REGISTRY NO=95087-64-2
##MP= -300
##BP= -300
##MW= 368
##$RETENTION INDEX=0
##$CONDENSED SPECTRUM=NO
##NPOINTS= 164
##XYDATA=(XY..XY) 1 
    34         16
    36          9
    37          7
    38         18
    39         42
    40        224
    42        419
    43        241
    44        999
    46          4
    48         21
    50         39
    51         40
    52         17
    53          7
    54          6
    55         17
    56          9
    57         15
    58          3
    60          9
    62          9
    63         33
    64         23
    65          9
    66          3
    67          4
    68          7
    69         13
    71          9
    72          1
    73          2
    74         21
    75         32
    76         43
    77         30
    78         59
    80          6
    81          4
    82          4
    83          5
    84          5
    85          5
    86          5
    87         10
    88          4
    89          8
    90          5
    92         53
    94          4
    95          3
    96          1
    97          6
    98          8
    99          9
   100          8
   101         10
   102         21
   103          4
   104          2
   105          3
   106          4
   107          4
   108          9
   109          2
   110          2
   111          3
   112          4
   113          9
   114          4
   115          8
   116          1
   117          1
   118          2
   119          2
   120          3
   121          2
   122          2
   123          3
   124          3
   125         14
   126         43
   127         12
   128          4
   129          4
   130          9
   131          2
   133          2
   134          2
   135          1
   137          3
   139         40
   140          9
   141          6
   142          1
   145          2
   146          1
   147          3
   150        114
   151        315
   152        600
   153        114
   154         26
   155          4
   157          1
   161          2
   164          1
   165          3
   166          5
   167         26
   168         11
   169         12
   170          6
   171          9
   172          2
   178          1
   180          5
   181          9
   182          4
   183          9
   184          8
   185          2
   186          1
   187          3
   188          1
   195          8
   196         13
   197          7
   198          2
   199          9
   200         15
   201          5
   203          3
   212          7
   216          7
   217         34
   218          7
   232          6
   233          5
   244          2
   246         12
   247          3
   258          1
   259          6
   260        120
   261         29
   262          9
   276         11
   277          2
   281          6
   282          1
   290          1
   304         21
   305          3
   306          2
   308          2
   324         22
   325         13
   326          4
   365          1
   366          2
   368        134
   369         12
   370         10