##TITLE=Library Entry 88447
##JCAMP-DX=Revision 4.10 
##DATA TYPE=MASS SPECTRUM
##SAMPLE DESCRIPTION=Japan AIST/NIMC Database- Spectrum MS-IW-1353
##NAMES=HP
##CAS NAME=Deoxycytidine
##MOLFORM=C9H13N3O4
##CAS REGISTRY NO=951-77-9
##MP= -300
##BP= -300
##MW= 227
##$RETENTION INDEX=0
##$CONDENSED SPECTRUM=NO
##NPOINTS= 173
##XYDATA=(XY..XY) 1 
    12          1
    13          3
    14          9
    15         24
    16          4
    17         23
    18         81
    19         10
    25          3
    26         18
    27         60
    28        116
    29         75
    30          9
    31         45
    32          4
    33          1
    34          2
    39         83
    40         98
    41        190
    42        160
    43        121
    44         91
    45         52
    46          1
    47         15
    48          1
    49          1
    50          9
    51         18
    52         30
    53         56
    54         18
    55         54
    56         29
    57         58
    58          6
    59          2
    60          8
    61          6
    63          1
    64          1
    65          7
    66         30
    67        112
    68        132
    69        215
    70         60
    71         38
    72          8
    73         68
    74          4
    75          2
    77          2
    78          3
    79          6
    80          5
    81        130
    82         36
    83        143
    84         17
    85         14
    86          5
    87          4
    88          1
    89          1
    91          4
    92          2
    93          6
    94         13
    95         68
    96         14
    97         90
    98        113
    99         47
   100          9
   101          2
   103          3
   104          1
   105          2
   106          1
   107          5
   108          3
   109          5
   110         20
   111        999
   112        222
   113         16
   114          3
   115         10
   116         10
   117         75
   118          6
   119          4
   120          3
   121          9
   122          6
   123          6
   124          3
   125         29
   126          4
   127          2
   128          2
   129          3
   130          1
   131          2
   132          1
   133          4
   134          2
   135         10
   136         18
   137          7
   138         37
   139          5
   140          8
   141          2
   143          5
   144          2
   145          3
   146          1
   147          4
   148         19
   149         13
   150          5
   151          6
   152          2
   153         43
   154          6
   155          2
   157          1
   159          1
   160          4
   161          6
   162         28
   163          5
   164          1
   165          1
   166          2
   167          2
   168          1
   169          1
   170          1
   171          1
   173          5
   174          2
   175          1
   176          1
   177          1
   178          5
   179          3
   180          1
   181          1
   182          2
   183          2
   184          1
   188          1
   189          1
   190          2
   191         14
   192          4
   193          1
   195          1
   196          2
   197          6
   198          1
   199          1
   209          1
   210          2
   211          1
   226          1
   227          3
   228          2