##TITLE=Library Entry 1742
##JCAMP-DX=Revision 4.10 
##DATA TYPE=MASS SPECTRUM
##SAMPLE DESCRIPTION=Chemical Concepts
##NAMES=HP
##CAS NAME=Cyclopropane, 1,1-dimethyl-2-chloro-2-thiophen-2-yl-
##MOLFORM=C9H11ClS
##CAS REGISTRY NO=95104-10-2
##MP= -300
##BP= -300
##MW= 186
##$RETENTION INDEX=0
##$CONDENSED SPECTRUM=NO
##NPOINTS= 131
##XYDATA=(XY..XY) 1 
    26         27
    27        361
    28         93
    29         82
    32          9
    33          2
    34          2
    35          6
    36         49
    37        100
    38         20
    39        999
    40         10
    41        540
    42         31
    43         63
    45        600
    46         14
    47         34
    49         12
    50        193
    51        278
    52         53
    53        107
    54         12
    55         14
    56          7
    57         69
    58        124
    59        217
    60         23
    61         51
    62         79
    63        167
    64          4
    65        366
    66         38
    67        224
    68          6
    69        210
    70         32
    71         44
    72         11
    73         56
    74         59
    75         49
    76         20
    77        119
    78         32
    79         49
    81         25
    82         36
    83         21
    84         28
    85         31
    86         12
    87         19
    88          2
    89         32
    90          4
    91        276
    92         26
    93         25
    94          2
    95        133
    96         10
    97        415
    98         25
    99         23
   101          5
   102         18
   103         23
   104          6
   105         48
   106          5
   107         16
   108         61
   109        348
   110         40
   111         55
   112          4
   113          2
   115         45
   116         13
   117         75
   118         36
   119          3
   120          1
   121         62
   122         34
   123         42
   124          4
   125         11
   127          5
   129          4
   130         23
   131         43
   132          9
   133         22
   134        104
   135        421
   136        193
   137         48
   138         13
   139          3
   144         24
   145          4
   146          7
   147          5
   148          1
   149         36
   150         17
   151        263
   152         27
   153         10
   156          3
   157          9
   158          1
   159          2
   170          4
   171        535
   172         58
   173        197
   174         16
   175          5
   185          2
   186        258
   187         29
   188         90
   189          7
   190          1