##TITLE=Library Entry 61148
##JCAMP-DX=Revision 4.10 
##DATA TYPE=MASS SPECTRUM
##SAMPLE DESCRIPTION=LAC, NIDDK, NIH, Bethesda, MD 20892
##NAMES=HP
##CAS NAME=p-toluenesulfonyl-tyrosyl-S-methylcysteine, ethyl ester
##MOLFORM=C22H28N2O6S2
##CAS REGISTRY NO=95130-10-2
##MP= -300
##BP= -300
##MW= 480
##$RETENTION INDEX=0
##$CONDENSED SPECTRUM=NO
##NPOINTS= 123
##XYDATA=(XY..XY) 1 
    41         49
    42        175
    43        127
    44        102
    45        323
    46         92
    47        446
    48        359
    49         36
    50         49
    51         66
    52         31
    53         46
    54         12
    55         65
    56         18
    57         32
    58         12
    59         12
    61        290
    62         31
    63         84
    64         40
    65        280
    66         22
    67         19
    68         27
    69         45
    70         23
    71         32
    72         10
    73         62
    74         40
    75         26
    77        231
    78         54
    79         58
    80         22
    81         16
    82         13
    83         14
    85         22
    86         17
    87         10
    88         23
    89         83
    90        139
    91        999
    92        189
    93         14
    94          5
    95          5
    96         16
    97         45
    98         22
    99         20
   100         29
   101         41
   102         28
   103         12
   104          5
   105         17
   106         40
   107        907
   108        132
   109         15
   111         15
   114          5
   115         16
   116         39
   117         19
   118         18
   119         26
   120         22
   121          4
   125          4
   131         23
   132         10
   133         25
   134        122
   135         76
   136         50
   139         58
   141          5
   143         86
   145         55
   146         31
   147        204
   148         19
   149          6
   154         38
   155        285
   156         68
   157         23
   160          6
   161         15
   162        186
   163        299
   164         44
   165          5
   169         12
   171        108
   172          6
   173         16
   188          5
   201         10
   203         16
   205         12
   219        116
   220         13
   233         29
   253         18
   261         55
   262         12
   290        102
   291         18
   299         11
   309         94
   310         14
   325         15
   326         14
   359         29
   407          5