##TITLE=Library Entry 65025
##JCAMP-DX=Revision 4.10 
##DATA TYPE=MASS SPECTRUM
##SAMPLE DESCRIPTION=Chemical Concepts
##NAMES=HP
##CAS NAME=1H-Pyrrole-2-carbonitrile
##MOLFORM=C5H4N2
##CAS REGISTRY NO=9513-94-4
##MP= -300
##BP= -300
##MW= 92
##$RETENTION INDEX=0
##$CONDENSED SPECTRUM=NO
##NPOINTS= 59
##XYDATA=(XY..XY) 1 
    25          4
    26         10
    27         10
    28        103
    29          2
    31          1
    36         12
    37         87
    38        128
    39        102
    40         58
    41        191
    42          5
    43          2
    44          2
    45          2
    46         38
    47          1
    48          4
    49          7
    50          7
    51         14
    52         64
    53         53
    54          2
    55          2
    56          1
    57          3
    58          0
    61          0
    62         16
    63         38
    64        107
    65        201
    66         56
    67          3
    68          0
    69          1
    70          0
    71          1
    74          0
    75          2
    76          1
    77          2
    78          3
    79          0
    80          0
    81          0
    83          0
    84          0
    85          0
    88          1
    89          1
    90          1
    91         16
    92        999
    93         61
    94          1
    95          0