##TITLE=Library Entry 59621
##JCAMP-DX=Revision 4.10 
##DATA TYPE=MASS SPECTRUM
##SAMPLE DESCRIPTION=Chemical Concepts
##NAMES=HP
##CAS NAME=N-[4-(Benzyloxy)anilinomethyl]phthalimide
##MOLFORM=C22H18N2O3
##CAS REGISTRY NO=95163-86-3
##MP= -300
##BP= -300
##MW= 358
##$RETENTION INDEX=0
##$CONDENSED SPECTRUM=NO
##NPOINTS= 145
##XYDATA=(XY..XY) 1 
    33         29
    34         10
    37         51
    38         92
    39        185
    40        174
    41         62
    42         50
    43         75
    44         98
    45         65
    47          5
    49         16
    50        166
    51        197
    52         38
    53         30
    55         26
    57         20
    58         22
    59          7
    60         19
    62         36
    63        111
    65        337
    66         40
    67          9
    69         13
    70         12
    71         12
    73         49
    74         96
    76        333
    77        101
    78         24
    79          7
    80         12
    81          4
    82          5
    83          5
    84          6
    85          5
    86          3
    87         13
    89         32
    91        999
    93          9
    94          4
    95          4
    97          5
    98          4
    99          2
   100          1
   101          2
   102          6
   103         54
   104        184
   105        135
   106         14
   108         50
   109          7
   110          8
   111          2
   112          3
   113          2
   115          5
   116          2
   117          3
   120        261
   122         10
   123          1
   124          1
   125          1
   126          1
   127          3
   128          3
   129          3
   130          6
   131          1
   133          8
   134          2
   135          1
   136          1
   137          1
   139          3
   140          2
   141          4
   142          3
   143          1
   144          1
   145          2
   147        183
   149          5
   151          2
   152          5
   153          2
   154          2
   155          2
   157          1
   158          2
   160         90
   161          6
   162          2
   165          1
   167          1
   168          1
   170          1
   171          5
   172          1
   173          1
   177          3
   178          1
   180          1
   181          3
   182          3
   183          2
   184          5
   185          3
   186          1
   187          2
   188          1
   199          9
   200          1
   205          1
   207          1
   208          2
   209          4
   211        169
   212         23
   213          3
   214          1
   216          2
   217          2
   218          2
   219          1
   248          1
   249          2
   250          5
   251          1
   252          1
   265          1
   267         19
   268          3
   358         10
   359          2