##TITLE=Library Entry 30911
##JCAMP-DX=Revision 4.10 
##DATA TYPE=MASS SPECTRUM
##SAMPLE DESCRIPTION=V.A.Korolev, Moscow, Russia
##NAMES=HP
##CAS NAME=5-(5-Bromopyridin-3-yl)-4-methyl-1,2,4-triazole-3-thiol
##MOLFORM=C8H7BrN4S
##CAS REGISTRY NO=951970-16-4
##MP= -300
##BP= -300
##MW= 270
##$RETENTION INDEX=0
##$CONDENSED SPECTRUM=NO
##NPOINTS= 89
##XYDATA=(XY..XY) 1 
    33         35
    34         17
    37        152
    38        207
    39        107
    40         72
    41         19
    42        127
    44        158
    45        213
    46         98
    47         77
    48         24
    49        148
    50        439
    51        215
    52        122
    53         46
    55        781
    56         87
    58         71
    59        442
    60        999
    61        197
    62        287
    63        188
    64        198
    65          8
    66         53
    67          9
    70         66
    72         99
    73         66
    74        140
    75        320
    76        558
    77        107
    78         33
    79         50
    81         52
    82         10
    84          5
    88         10
    90         71
    91        166
    92          5
    93         18
    95         35
    98          3
   103        247
   104         83
   105         71
   106         65
   118         47
   120         20
   129         14
   131         20
   132         23
   133         20
   135          4
   156         73
   157          6
   158         71
   159          6
   164         85
   165          7
   175         16
   176          5
   182        130
   183         52
   184        128
   185         49
   191        135
   192         12
   193          6
   197         49
   198          5
   199         47
   200          4
   211         14
   213         14
   255         14
   257         14
   269        213
   270        349
   271        257
   272        352
   273         40
   274          4