##TITLE=Library Entry 81756
##JCAMP-DX=Revision 4.10 
##DATA TYPE=MASS SPECTRUM
##SAMPLE DESCRIPTION=D.HENNEBERG, MAX-PLANCK INSTITUTE, MULHEIM, WEST GERMAN
Y
##NAMES=HP
##CAS NAME=Benzene, 1,1'-(1,2-ethanediyl)bis[2-methyl-
##MOLFORM=C16H18
##CAS REGISTRY NO=952-80-7
##MP= -300
##BP= -300
##MW= 210
##$RETENTION INDEX=0
##$CONDENSED SPECTRUM=NO
##NPOINTS= 86
##XYDATA=(XY..XY) 1 
    26          8
    27         11
    29          1
    30          0
    32          1
    37          0
    39          4
    40          9
    41          3
    42          1
    43          0
    44          1
    50          1
    51          3
    52          2
    53          5
    54          0
    56          8
    57          0
    60          0
    63          1
    64          0
    65          6
    66          0
    67          1
    73          3
    76          0
    77         71
    78         20
    79         80
    80          3
    81          0
    91         24
    92          2
    93          0
    95          0
   100          0
   101          2
   102          5
   103         46
   104         38
   105        999
   106         91
   107          4
   113          0
   114          0
   117          6
   118          6
   119          6
   120          0
   121          0
   123          0
   127          0
   129          0
   131          0
   139          0
   143          0
   148          0
   149          6
   151          2
   153          0
   155          0
   160          0
   165          5
   166          2
   168          0
   175          0
   178          1
   179          3
   180          4
   181          1
   185          3
   188          0
   194          0
   195          0
   196          0
   197          0
   198          1
   199          0
   202          0
   205          1
   206          1
   207          1
   210        231
   211         43
   212          2