##TITLE=Library Entry 84488
##JCAMP-DX=Revision 4.10 
##DATA TYPE=MASS SPECTRUM
##SAMPLE DESCRIPTION=Japan AIST/NIMC Database- Spectrum MS-NW-5777
##NAMES=HP
##CAS NAME=2-Hydroxy-5-methylazobenzene
##MOLFORM=C13H12N2O
##CAS REGISTRY NO=952-47-6
##MP= -300
##BP= -300
##MW= 212
##$RETENTION INDEX=0
##$CONDENSED SPECTRUM=NO
##NPOINTS= 100
##XYDATA=(XY..XY) 1 
    15          2
    17          1
    18          3
    26          7
    27         50
    28         11
    29          5
    31          2
    37          6
    38         24
    39        131
    40         14
    41         17
    43         32
    49          1
    50         31
    51        160
    52         42
    53         38
    54          4
    55         23
    58          1
    61          3
    62          9
    63         32
    64         32
    65        112
    66         29
    67          9
    68          2
    74          7
    75          7
    76         12
    77        885
    78        112
    79         79
    80          7
    81          7
    85          2
    86          1
    87          1
    89          8
    90          5
    91         19
    92         35
    93         15
    94         10
   102          2
   103          3
   104          2
   105        163
   106         30
   107        999
   108         94
   109          5
   115         18
   116          3
   118          2
   120          6
   121          2
   123          3
   127          7
   128          9
   129          8
   130          2
   131          1
   134          2
   135        412
   136         38
   137          3
   139          4
   140          3
   141         15
   142          4
   149          3
   151          2
   152          9
   153         11
   154          5
   155         11
   156          6
   157          2
   158          1
   164          1
   165         17
   166          4
   167          5
   168         12
   169          8
   170          2
   181          7
   182          4
   183         36
   184         18
   185          3
   210          2
   211         10
   212        924
   213        140
   214         12