##TITLE=Library Entry 40251
##JCAMP-DX=Revision 4.10 
##DATA TYPE=MASS SPECTRUM
##SAMPLE DESCRIPTION=Chemical Concepts
##NAMES=HP
##CAS NAME=2-Nonenoic acid, 9-(dimethylamino)-2,4,6-trimethyl-7,9-dioxo-, [R
-[R*,S*-(E)]]-
##MOLFORM=C14H23NO4
##CAS REGISTRY NO=95209-54-4
##MP= -300
##BP= -300
##MW= 269
##$RETENTION INDEX=0
##$CONDENSED SPECTRUM=NO
##NPOINTS= 122
##XYDATA=(XY..XY) 1 
    27         62
    28         55
    29         57
    30         33
    31          7
    39         79
    40         24
    41        230
    42        102
    43        231
    44        375
    45        399
    46        392
    47         10
    51         12
    52          7
    53         65
    54         12
    55         77
    56         32
    57         38
    58         24
    59          9
    65         23
    66         12
    67        114
    68         25
    69        158
    70         20
    71         23
    72        999
    73         40
    74          5
    77         22
    79         26
    80          7
    81         48
    82         16
    83         17
    84          7
    85         19
    86         38
    87        774
    88         47
    91         17
    93         13
    95         53
    96         57
    97         25
    98         78
    99         33
   100          7
   101          6
   105          4
   107         10
   108          7
   109         83
   110         14
   111         33
   112         16
   113        102
   114        527
   115         32
   116          5
   121          8
   122          5
   123         11
   124         10
   125         24
   126         18
   127          9
   129          7
   130         11
   133          6
   135          9
   136         11
   137         32
   138         16
   139          6
   140          7
   141          9
   142         10
   143        697
   144         60
   145          5
   149          6
   151          8
   152          6
   153          6
   154          9
   155          7
   156        815
   157         76
   158          7
   163          5
   164         12
   165         17
   166          5
   168          5
   169          4
   171          4
   178          9
   179         14
   180         10
   181          5
   182          8
   183         11
   191          3
   192          3
   196         16
   206         19
   207          7
   208          4
   223          9
   224         10
   227          2
   233          5
   236          2
   251          7
   252          4
   269         22
   270          8