##TITLE=Library Entry 9690
##JCAMP-DX=Revision 4.10 
##DATA TYPE=MASS SPECTRUM
##SAMPLE DESCRIPTION=Chemical Concepts
##NAMES=HP
##CAS NAME=2-Octenoic acid, 7-(acetyloxy)-2,4,6-trimethyl-8-(5-oxazolyl)-, [
4s-(2E,4R*,6S*,7S*)]-
##MOLFORM=C16H23NO5
##CAS REGISTRY NO=95209-58-8
##MP= -300
##BP= -300
##MW= 309
##$RETENTION INDEX=0
##$CONDENSED SPECTRUM=NO
##NPOINTS= 159
##XYDATA=(XY..XY) 1 
    26          4
    27         53
    28         47
    29         62
    30          6
    31          9
    38          2
    39         63
    40         40
    41        196
    42         26
    43        999
    44         29
    45         41
    46          2
    50          1
    51          8
    52          7
    53         58
    54         42
    55        127
    56         20
    57         43
    58         14
    59         10
    60          8
    61          5
    63          2
    64          1
    65         25
    66         19
    67        135
    68         41
    69        354
    70         33
    71         36
    72          6
    73          4
    74          4
    77         24
    78          7
    79         37
    80         23
    81        137
    82        165
    83        851
    84         59
    85         22
    86          3
    87         29
    88          2
    91         23
    92         22
    93         40
    94         22
    95        136
    96        185
    97         45
    98         13
    99          9
   100          2
   101          2
   103          2
   104          2
   105         14
   106          8
   107         29
   108         38
   109        190
   110         29
   111        184
   112        107
   113         68
   114         99
   115         11
   116          3
   117          4
   118         10
   119          8
   120          9
   121         78
   122        126
   123         63
   124         33
   125         96
   126         20
   127         13
   128          2
   131          7
   132          3
   133          6
   134         12
   135         40
   136        519
   137         66
   138         29
   139         72
   140         13
   141          6
   143          2
   145         12
   146          4
   147          7
   148         19
   149         25
   150          8
   151          3
   152         11
   153          5
   154         15
   155          4
   158          5
   159         13
   160         56
   161         11
   162         26
   163         51
   164          8
   165          3
   166          5
   167        107
   168         13
   169          2
   173          2
   174          3
   175          9
   176         16
   177         10
   178          5
   179          3
   180          8
   181          2
   182          2
   186          5
   188          5
   189          3
   190          4
   196          2
   202          2
   203         37
   204         74
   205         13
   206          6
   207          3
   209          1
   210          2
   216          2
   220          4
   222          5
   231          7
   232          2
   234          4
   249         77
   250         17
   251          3
   267          0
   280          0
   291          1
   310          1