##TITLE=Library Entry 63897
##JCAMP-DX=Revision 4.10 
##DATA TYPE=MASS SPECTRUM
##SAMPLE DESCRIPTION=Chemical Concepts
##NAMES=HP
##CAS NAME=2,5-Piperazinedione, 3,3-dimethyl-6-phenylmethyl-
##MOLFORM=C13H16N2O2
##CAS REGISTRY NO=95235-24-8
##MP= -300
##BP= -300
##MW= 232
##$RETENTION INDEX=0
##$CONDENSED SPECTRUM=NO
##NPOINTS= 145
##XYDATA=(XY..XY) 1 
    26          5
    27         28
    28         93
    29         19
    30         21
    31          3
    37          1
    38          7
    39         78
    40         18
    41        107
    42        236
    43         41
    44        204
    45         19
    46          1
    49          0
    50         15
    51         52
    52         17
    53          7
    54          7
    55         17
    56         27
    57         41
    58        292
    59         20
    60          4
    61          3
    62          7
    63         33
    64         12
    65        121
    66         10
    67          3
    68          7
    69         16
    70         48
    71         10
    72          2
    73          4
    74          4
    75          6
    76          7
    77         69
    78         33
    79          6
    80          2
    81          3
    82          2
    83          6
    84         30
    85        350
    86         18
    87          2
    88          1
    89         30
    90         25
    91        999
    92        214
    93         19
    94          1
    95          5
    96          4
    97          5
    98          8
    99          3
   100          0
   101          3
   102         10
   103         64
   104         55
   105         12
   106          2
   107          1
   108          0
   109          1
   110          1
   111          4
   112          2
   113        330
   114         27
   115          4
   116          5
   117         16
   118         25
   119         20
   120        135
   121         13
   122          0
   123          1
   125          1
   126          4
   127          2
   128         21
   129          4
   130          4
   131         44
   132         21
   133          2
   134          2
   135          1
   137          0
   139          3
   140          1
   141        200
   142         15
   143          2
   144          3
   145          2
   146          9
   147          5
   148          1
   149          4
   150          0
   155          0
   156          0
   157          1
   158          1
   159          0
   160          3
   161         19
   162          2
   163          0
   167          0
   171          0
   172          0
   174          1
   175          0
   187          1
   188          1
   189         64
   190          9
   191          1
   203          0
   204          1
   215          1
   216          0
   217          6
   218          1
   230          1
   231          1
   232        751
   233         96
   234          8