##TITLE=Library Entry 80309
##JCAMP-DX=Revision 4.10 
##DATA TYPE=MASS SPECTRUM
##SAMPLE DESCRIPTION=Japan AIST/NIMC Database- Spectrum MS-IW-3555
##NAMES=HP
##CAS NAME=2-Isopropoxyethyl benzoate
##MOLFORM=C12H16O3
##CAS REGISTRY NO=95241-36-4
##MP= -300
##BP= -300
##MW= 208
##$RETENTION INDEX=0
##$CONDENSED SPECTRUM=NO
##NPOINTS= 77
##XYDATA=(XY..XY) 1 
    14          1
    15         10
    17          2
    26          4
    27         40
    28         13
    29         10
    30          1
    31          9
    37          2
    38          4
    39         22
    40          3
    41         50
    42         19
    43        342
    44        209
    45         73
    46          2
    49          1
    50         35
    51        129
    52          9
    53          2
    55          9
    56          3
    57          9
    58        215
    59         21
    60          2
    61          1
    62          1
    63          2
    65          4
    66          1
    68          3
    71          6
    72          4
    73        119
    74         11
    75         11
    76         27
    77        474
    78         37
    79         24
    80          1
    86        488
    87         28
    88          1
    89          1
    90          2
    91         54
    92         76
    93          7
    94          1
    96          2
   103         10
   104          7
   105        999
   106         94
   107          6
   118         10
   119          4
   120         10
   121          3
   122         91
   123        125
   124          9
   135         76
   136         35
   137          5
   146          1
   148          2
   149        332
   150         67
   151          6
   152          1