##TITLE=Library Entry 18179
##JCAMP-DX=Revision 4.10 
##DATA TYPE=MASS SPECTRUM
##SAMPLE DESCRIPTION=A.A.Kutin, Moscow, Russia
##NAMES=HP
##CAS NAME=Furane-2-carboxaldehyde, 5-nitro-, (2-imidazolin-2-yl)hydrazone
##MOLFORM=C8H9N5O3
##CAS REGISTRY NO=953-23-1
##MP= -300
##BP= -300
##MW= 223
##$RETENTION INDEX=0
##$CONDENSED SPECTRUM=NO
##NPOINTS= 78
##XYDATA=(XY..XY) 1 
    33          4
    39        236
    40        193
    41        436
    42        783
    43        501
    44        436
    45         28
    46         27
    48          2
    50        390
    51        999
    52        134
    53        120
    54        127
    55        441
    56         57
    57         31
    59          6
    61          4
    62          4
    63         46
    64         78
    65         73
    66         35
    67         44
    68         73
    69        101
    70        289
    71        572
    72         16
    75          4
    77         46
    79        803
    80        112
    81         44
    82         47
    83         32
    84         58
    85          8
    91         31
    92         39
    93         47
    94         34
    95         41
    96         65
    97          6
   104         13
   105         15
   106         14
   107         24
   108         37
   109         28
   111        128
   112          7
   119         24
   120         48
   121        162
   122        420
   123         39
   135         10
   136         26
   137         21
   138         58
   140          2
   148         11
   149        114
   150         47
   162          8
   177         12
   188         21
   189         25
   193          3
   194          2
   221         28
   223        781
   224         73
   225          6