##TITLE=Library Entry 72016
##JCAMP-DX=Revision 4.10 
##DATA TYPE=MASS SPECTRUM
##SAMPLE DESCRIPTION=Chemical Concepts
##NAMES=HP
##CAS NAME=6-(2-Methoxy-6-oxocyclohex-1-enyl)-1,4-dioxaspiro[4.5]decan-8-one
##MOLFORM=C15H20O5
##CAS REGISTRY NO=95338-46-8
##MP= -300
##BP= -300
##MW= 280
##$RETENTION INDEX=0
##$CONDENSED SPECTRUM=NO
##NPOINTS= 167
##XYDATA=(XY..XY) 1 
    26          7
    27         76
    28        100
    29         24
    31          4
    38          4
    39         58
    40         14
    41         59
    42         35
    43         45
    44          3
    45         30
    46          4
    50          4
    51         19
    52         20
    53         58
    54          9
    55        330
    56         81
    57         16
    59         11
    60          6
    61          3
    62          6
    63         10
    64          9
    65         36
    66         56
    67         39
    68         10
    69         14
    70          2
    71          6
    72          2
    73         25
    74          5
    75          3
    76         10
    77         43
    78         15
    79         42
    80          8
    81         39
    82         13
    83          9
    84          2
    85          3
    86         37
    87         99
    88          6
    89          5
    90         30
    91         42
    92          7
    93         15
    94          6
    95         22
    96         24
    97         19
    98         14
    99        999
   100        294
   101         27
   102          3
   103         16
   104          3
   105         13
   106          4
   107         14
   108          9
   109         26
   110          6
   111         10
   112          6
   113         21
   114          2
   115          5
   116          3
   117          6
   118          3
   119          7
   120          5
   121         12
   122          4
   123         13
   124          7
   125         14
   126          8
   127         11
   128         12
   129          5
   131          4
   132          2
   133          8
   134         17
   135         72
   136         12
   137         49
   138         86
   139         87
   140         19
   141         74
   142         10
   143          2
   145          4
   147         10
   148          6
   149         35
   150          6
   151         64
   152         21
   153         67
   154         14
   155          4
   159          2
   161          7
   162         40
   163         70
   164         15
   165         21
   166        116
   167         15
   168          2
   169          2
   175         45
   176         10
   177         16
   178          3
   179         14
   180          5
   181        105
   182         12
   188          3
   189          2
   190          5
   191          2
   192         17
   194         43
   195          7
   196          2
   204          8
   205          3
   207         11
   208          3
   209          7
   220          7
   221         11
   222         25
   223          4
   224         17
   225          4
   235         21
   236          7
   237         13
   238          2
   247          6
   248          3
   249          3
   250          3
   265         37
   266          6
   278          2
   280        307
   281         53
   282          8