##TITLE=Library Entry 31991
##JCAMP-DX=Revision 4.10 
##DATA TYPE=MASS SPECTRUM
##SAMPLE DESCRIPTION=F. TURECEK,HEYROVSKY INST PHYS CHEM & ELECTROCHEM,PRAGU
E,CZECH
##NAMES=HP
##CAS NAME=endo-4-Oxatricyclo[5.2.1.0(2,6)]dec-8-en-3-one
##MOLFORM=C9H10O2
##CAS REGISTRY NO=95340-93-5
##MP= -300
##BP= -300
##MW= 150
##$RETENTION INDEX=0
##$CONDENSED SPECTRUM=NO
##NPOINTS= 35
##XYDATA=(XY..XY) 1 
    26         39
    27         86
    28         58
    29         22
    31          8
    37         16
    38         33
    39        150
    40         78
    41         26
    45          8
    50         22
    51         39
    52         14
    53         11
    54         19
    55         86
    57          8
    61          8
    62         12
    63         26
    64          8
    65        119
    66        999
    67         58
    77         25
    78         14
    79         15
    84         25
    85         78
    91         61
    92         17
   105         10
   149          8
   150          6