##TITLE=Library Entry 72764
##JCAMP-DX=Revision 4.10 
##DATA TYPE=MASS SPECTRUM
##SAMPLE DESCRIPTION=NIST Mass Spectrometry Data Center
##NAMES=HP
##CAS NAME=Diethyl-5-hydantolylylphosphonate
##MOLFORM=C7H13N2O5P
##CAS REGISTRY NO=95378-36-2
##MP= -300
##BP= -300
##MW= 236
##$RETENTION INDEX=0
##$CONDENSED SPECTRUM=NO
##NPOINTS= 96
##XYDATA=(XY..XY) 1 
    10          2
    11          2
    12         11
    14          6
    15         64
    17         31
    18          2
    19         10
    20          1
    25          1
    26         91
    27        297
    28        763
    29        368
    30         42
    31         18
    32         20
    36          2
    40          1
    42         16
    43        169
    44        141
    45        144
    46          3
    47        132
    48         35
    49          3
    50         34
    51         12
    54         29
    55         70
    56        242
    57        193
    63         38
    64          7
    65        303
    66          8
    71         31
    75         44
    76         35
    77         56
    79          2
    81        743
    82        363
    83        108
    84         11
    90          5
    91        299
    92         29
    93        100
    94         15
    99        653
   100        999
   101         66
   102          5
   103         21
   105          7
   106         38
   107         55
   109        629
   110         91
   111        133
   120         45
   121         21
   122         39
   124        113
   125          9
   126         61
   127         47
   135          2
   136         26
   137        401
   138        311
   139         20
   148          2
   150         93
   152         75
   153         82
   154          7
   155         45
   157         29
   158         12
   164          5
   165        182
   166         23
   180        473
   181         85
   182          2
   192          5
   193         76
   208        136
   209         15
   219         12
   221         20
   236        117
   237         18