##TITLE=Library Entry 88247
##JCAMP-DX=Revision 4.10 
##DATA TYPE=MASS SPECTRUM
##SAMPLE DESCRIPTION=Chemical Concepts
##NAMES=HP
##CAS NAME=2-Butenamide, 2-ethyl-3-methyl-N-phenyl-
##MOLFORM=C13H17NO
##CAS REGISTRY NO=95383-61-2
##MP= -300
##BP= -300
##MW= 203
##$RETENTION INDEX=0
##$CONDENSED SPECTRUM=NO
##NPOINTS= 86
##XYDATA=(XY..XY) 1 
    26          2
    27         55
    28         11
    29         63
    30          2
    37          1
    38          6
    39        107
    40          1
    41        268
    42         13
    43         81
    44          3
    50          6
    51         41
    52         11
    53         40
    54         12
    55        419
    56         26
    57          3
    62          4
    63         11
    64         11
    65         62
    66         22
    67         83
    68          7
    69         18
    70          2
    71          1
    75          1
    76          2
    77         61
    78          6
    79         10
    80          5
    81         15
    82         18
    83        542
    84         25
    85          1
    86          1
    89          1
    91          8
    92         20
    93        109
    94          9
    95          4
    96          1
    97          9
   103          1
   104          3
   105          1
   106          4
   109          2
   110         24
   111        999
   112         49
   113          3
   115          1
   117          2
   118          2
   119          2
   120          7
   128          1
   130          2
   131          1
   132          2
   134          4
   143          1
   144          2
   146          3
   149          2
   158          2
   159          1
   160          1
   170          2
   172          1
   174          2
   185          2
   186          2
   188          1
   203        169
   204         30
   205          3