##TITLE=Library Entry 34462
##JCAMP-DX=Revision 4.10 
##DATA TYPE=MASS SPECTRUM
##SAMPLE DESCRIPTION=Chemical Concepts
##NAMES=HP
##CAS NAME=Butanamide, 3-methyl-2-methylene-N-phenyl-
##MOLFORM=C12H15NO
##CAS REGISTRY NO=95383-63-4
##MP= -300
##BP= -300
##MW= 189
##$RETENTION INDEX=0
##$CONDENSED SPECTRUM=NO
##NPOINTS= 80
##XYDATA=(XY..XY) 1 
    26          7
    27         91
    29         22
    37          3
    38         15
    39        135
    41        901
    42         31
    43         22
    50         16
    51         68
    52         17
    53         62
    54         18
    55         11
    56          2
    57          0
    62          4
    63         18
    64         21
    65         86
    66         47
    67         55
    68         20
    69        999
    70         52
    71          1
    73          2
    74          3
    75          2
    76          4
    77        105
    78         12
    79          4
    80          2
    81          1
    83          2
    85          5
    89          2
    90          3
    91         19
    92         38
    93        114
    94         14
    95          2
    96         19
    97        776
    98         53
    99          3
   103          3
   104          6
   105         16
   106         31
   107          3
   111          2
   117          9
   118         39
   119         10
   120         18
   128          9
   129          7
   130          7
   131          4
   132          4
   134          4
   144         19
   145         15
   146        167
   147         33
   148          5
   160         21
   161         12
   172          9
   173          2
   174         50
   175          7
   188         18
   189        304
   190         45
   191          3