##TITLE=Library Entry 61257
##JCAMP-DX=Revision 4.10 
##DATA TYPE=MASS SPECTRUM
##SAMPLE DESCRIPTION=LAC, NIDDK, NIH, Bethesda, MD 20892
##NAMES=HP
##CAS NAME=p-toluenesulfonyl-tyrosyl-methionine, ethyl ester
##MOLFORM=C23H30N2O6S2
##CAS REGISTRY NO=95434-65-4
##MP= -300
##BP= -300
##MW= 494
##$RETENTION INDEX=0
##$CONDENSED SPECTRUM=NO
##NPOINTS= 88
##XYDATA=(XY..XY) 1 
    41         53
    43         38
    44         10
    45         38
    47         42
    48          9
    49         11
    51         20
    53         10
    55         44
    56        151
    57         98
    61        420
    62         11
    63         51
    65        145
    73         12
    74         40
    75         31
    77        138
    78         37
    79         41
    81         11
    83         38
    84         22
    85         59
    87         28
    88         10
    89         46
    90         53
    91        999
    92        122
   102         78
   104        108
   106         25
   107        693
   108        112
   111         54
   116         10
   119         22
   120         47
   128         49
   129          9
   131         11
   134        192
   135        131
   136        156
   137          9
   139         85
   147        306
   148         52
   155        374
   156         47
   157         55
   158         30
   159        247
   160         26
   161         12
   162          9
   175         11
   176        252
   177         22
   185        172
   187        111
   203        108
   204         30
   215         27
   216         23
   232         26
   233        240
   234         43
   249        603
   250        102
   262         75
   276         27
   290        356
   291         54
   292         19
   313         42
   323        466
   324         95
   325         30
   339         30
   373          9
   387         35
   420         60
   421         40
   433          9