##TITLE=Library Entry 59723
##JCAMP-DX=Revision 4.10 
##DATA TYPE=MASS SPECTRUM
##SAMPLE DESCRIPTION=Chemical Concepts
##NAMES=HP
##CAS NAME=Cinnamic acid, 2',3'-bis(benzyloxy)-
##MOLFORM=C23H20O4
##CAS REGISTRY NO=95436-11-6
##MP= -300
##BP= -300
##MW= 360
##$RETENTION INDEX=0
##$CONDENSED SPECTRUM=NO
##NPOINTS= 167
##XYDATA=(XY..XY) 1 
    25          0
    26          7
    27          9
    28          4
    29          8
    31          1
    35          4
    36         36
    37          2
    38         12
    39         29
    40          3
    41         12
    42          3
    43         46
    44          4
    45          9
    46          0
    48          0
    49          2
    50         14
    51         30
    52         37
    53          5
    54          0
    55          3
    56          1
    57          5
    58          0
    59          0
    60          1
    61          6
    62          3
    63         14
    64          5
    65         83
    66         13
    67          1
    68          1
    69          1
    70          2
    71          1
    73          1
    74          1
    75          2
    76          3
    77         10
    78          7
    79         31
    80          2
    81          0
    82          0
    83          1
    84          0
    85          1
    86          0
    87          0
    88          1
    89         15
    90          8
    91        999
    92         79
    93          3
    94          3
    95          0
    97          0
   102          0
   103          0
   104          1
   105          5
   106          1
   107          1
   108          1
   111          0
   115          1
   116          0
   117          0
   118          1
   119          0
   120          0
   121          1
   122          1
   123          0
   126          0
   127          0
   128          0
   129          0
   131          0
   132          0
   133          1
   134          2
   135          0
   136          0
   139          0
   141          0
   146          0
   147          1
   148          0
   149          5
   150          1
   151          0
   152          1
   153          0
   159          0
   161          1
   162          5
   163          1
   164          0
   165          3
   166          1
   167          3
   168          0
   176          0
   177          0
   178          1
   179          1
   180          2
   181         28
   182          5
   183          0
   185          1
   191          0
   192          1
   194          0
   195          1
   196          0
   198          0
   199          0
   200          0
   205          0
   206          0
   207          0
   208          0
   210          0
   211          0
   212          1
   213          0
   222          0
   223          6
   224          6
   225          7
   226          1
   227          2
   236          1
   237          0
   238          0
   239          0
   250          3
   251         13
   252         16
   253          2
   254          0
   264          0
   265          0
   266          1
   267          0
   268          1
   269         12
   270          2
   314         14
   315          3
   316          0
   342          8
   343          2
   344          0
   360          3
   361          0