##TITLE=Library Entry 62070
##JCAMP-DX=Revision 4.10 
##DATA TYPE=MASS SPECTRUM
##SAMPLE DESCRIPTION=A.A.Kutin, Moscow, Russia
##NAMES=HP
##CAS NAME=Phenol, 2-[1,3-bis(4-tolyl)imidazolidin-2-yl)-
##MOLFORM=C23H24N2O
##CAS REGISTRY NO=95430-28-7
##MP= -300
##BP= -300
##MW= 344
##$RETENTION INDEX=0
##$CONDENSED SPECTRUM=NO
##NPOINTS= 207
##XYDATA=(XY..XY) 1 
    33         16
    34         24
    35          1
    36          8
    37         11
    38         32
    39        279
    40         31
    41        141
    42         52
    43         68
    44         96
    45         12
    46          3
    47          0
    48          1
    49          6
    50         57
    51        187
    52         75
    53         62
    54         20
    55         45
    56         19
    57         34
    58          5
    59          4
    60          6
    61          7
    62         22
    63        109
    64         54
    65        523
    66         54
    67         16
    68          8
    69         21
    70         17
    71         13
    72          3
    73          8
    74         11
    75         19
    76         45
    77        318
    78        126
    79        127
    80         21
    81         12
    82          8
    83         12
    84         15
    85          6
    86          4
    87          7
    89        123
    90        140
    91        999
    92        121
    93         24
    94         14
    95          9
    96          4
    97          8
    98          4
    99          2
   100          1
   101          7
   102         21
   103         58
   104         72
   105        367
   106        144
   107        257
   108         52
   109          8
   110          4
   111          6
   112          7
   113          6
   114          5
   115         25
   116         30
   117         97
   118        527
   119        208
   120        277
   121         90
   122         14
   123          3
   124          1
   125          3
   126          5
   127         10
   128         11
   129         10
   130         29
   131         45
   132        200
   133        895
   134        133
   135         10
   136          1
   137          2
   138          3
   139          9
   140          4
   141          7
   142          4
   143          3
   144         15
   145          4
   146          3
   147          3
   148          5
   149          6
   150          3
   151          8
   152         23
   153         11
   154         10
   155          8
   156          5
   157          2
   158          2
   159          2
   160          3
   161          6
   163         10
   164          8
   165         36
   166         16
   167         21
   168         11
   169          4
   170          4
   172         42
   173          9
   176          2
   177          4
   178         10
   179         13
   180         25
   181         50
   182         19
   183          6
   184          3
   188          0
   190          4
   191          6
   192          8
   193         16
   194         34
   195         36
   196         31
   197          7
   198          1
   199          0
   203          0
   204          2
   205          2
   206          8
   207         23
   208         81
   209         67
   210        206
   211        179
   212        486
   213         71
   214          7
   217          0
   219          4
   220          5
   221         14
   222         53
   223         52
   224        413
   225        150
   226         22
   227          1
   233          1
   234          1
   236         15
   237         12
   238         52
   239          8
   240          8
   241          1
   242          0
   245          0
   247          0
   248         10
   249         30
   250         18
   251        236
   252         50
   253         21
   254          2
   256          0
   283          0
   284          0
   315          0
   327          0
   343         34
   344        115
   345         26
   346          2