##TITLE=Library Entry 41678
##JCAMP-DX=Revision 4.10 
##DATA TYPE=MASS SPECTRUM
##SAMPLE DESCRIPTION=Chemical Concepts
##NAMES=HP
##CAS NAME=t-Butyl[1,3]dithian-2-yldimethylsilane
##MOLFORM=C10H22S2Si
##CAS REGISTRY NO=95452-06-5
##MP= -300
##BP= -300
##MW= 234
##$RETENTION INDEX=0
##$CONDENSED SPECTRUM=NO
##NPOINTS= 180
##XYDATA=(XY..XY) 1 
    25          3
    26         16
    27         50
    28        133
    29         76
    30          2
    31         27
    33          2
    34          4
    35          1
    36          2
    37          4
    38          7
    39         72
    40         15
    41        178
    42         27
    43        123
    44         31
    45         92
    46         15
    47         20
    48          2
    49          2
    50          5
    51          9
    52          4
    53         18
    54          7
    55         45
    56         25
    57         84
    58         55
    59        243
    60         23
    61         21
    62          2
    63          5
    64          1
    65          8
    66          3
    67         12
    68          5
    69         18
    70         11
    71         11
    72         15
    73        999
    74         87
    75         99
    76         21
    77         45
    78          5
    79         11
    80          3
    81          7
    82          4
    83         12
    84          4
    85         29
    86         18
    87        556
    88         38
    89         36
    90         16
    91        133
    92         13
    93         12
    94          3
    95          7
    96          3
    97         11
    98          3
    99         20
   100          4
   101          7
   102          6
   103         57
   104         19
   105         37
   106          7
   107         14
   108          6
   109         23
   110          3
   111          4
   112          2
   113          4
   114          2
   115        102
   116         12
   117         39
   118          5
   119        163
   120         11
   121         24
   122          3
   123          5
   124          3
   125          2
   126          1
   127          2
   128          4
   129          7
   130          8
   131         43
   132          6
   133         15
   134          4
   135         37
   136          5
   137         14
   138          2
   139          2
   140          0
   141          4
   142          2
   143          4
   144          2
   145         10
   146          2
   147         13
   148          3
   149        393
   150         46
   151         52
   152          5
   153          2
   154          1
   155          1
   156          0
   157          3
   158          1
   159          5
   160          2
   161          3
   162          1
   163         21
   164          4
   165          5
   166          1
   167          1
   168          0
   169          1
   172          0
   173          2
   174          0
   175          3
   176          1
   177        394
   178         67
   179         56
   180          7
   181          3
   182          0
   183          0
   184          0
   185          0
   186          0
   187          2
   188          0
   189          2
   190          1
   191         10
   192          2
   193          2
   194          0
   195          0
   202          1
   203          0
   205          6
   206          1
   219          5
   220          2
   232          0
   233          2
   234         72
   235         13
   236          9
   237          1