##TITLE=Library Entry 41361
##JCAMP-DX=Revision 4.10 
##DATA TYPE=MASS SPECTRUM
##SAMPLE DESCRIPTION=Chemical Concepts
##NAMES=HP
##CAS NAME=1-(t-Butyldimethylsilyl)-4-(2,2-dimethyl-6-methylene-cyclohexyl)-
butan-1-one
##MOLFORM=C19H36OSi
##CAS REGISTRY NO=95452-00-9
##MP= -300
##BP= -300
##MW= 308
##$RETENTION INDEX=0
##$CONDENSED SPECTRUM=NO
##NPOINTS= 140
##XYDATA=(XY..XY) 1 
    29          4
    39         25
    40          6
    41        116
    42          8
    43         31
    44          7
    45         51
    46          3
    47          4
    51          3
    52          3
    53         26
    54          5
    55         52
    56         12
    57         16
    58         31
    59        109
    60          9
    61          8
    65         10
    66          6
    67         46
    68         29
    69         76
    70          6
    71          4
    72         10
    73        999
    74         97
    75        423
    76         28
    77         32
    78          5
    79         39
    80         20
    81         52
    82          8
    83          9
    85         15
    86          3
    87          3
    89          4
    91         28
    92          5
    93         30
    94         10
    95         51
    96          5
    97          9
    99         35
   100          4
   101         17
   102          2
   103          8
   105         25
   106          6
   107         29
   108          9
   109         28
   110          3
   111          7
   113          9
   114          3
   115        369
   116         47
   117         44
   118          5
   119         22
   120         18
   121         27
   122          6
   123         10
   124          5
   127         31
   128          5
   129          6
   131          3
   133         21
   134          3
   135         14
   136         10
   137          4
   139          8
   140          2
   141         13
   142          3
   143         13
   147         12
   148          3
   149          6
   151          2
   153          9
   154          2
   155          6
   157          5
   161         25
   162          3
   163          3
   165          2
   167         13
   168          3
   169          8
   171         13
   172          3
   173          6
   175         60
   176         26
   177         15
   178          2
   181         32
   182         10
   183          4
   184          3
   185          6
   197          6
   209          4
   210          2
   211         22
   212          4
   223          8
   224          2
   225          9
   233          3
   237          5
   238         50
   239         12
   240          3
   250          2
   251         93
   252         22
   253          6
   265         21
   266          5
   280          7
   293         20
   294          5
   308         17
   309          5