##TITLE=Library Entry 85410
##JCAMP-DX=Revision 4.10 
##DATA TYPE=MASS SPECTRUM
##SAMPLE DESCRIPTION=Chemical Concepts
##NAMES=HP
##CAS NAME=1H,3H,5H-Thiazolo[3,4-c]oxazol-1-one, 3-(1,1-dimethylethyl)dihydr
o-7a-(hydroxy-3-pyridinylmethyl)-, [3R-[3.alpha.,7a.alpha.(R*)]]-
##MOLFORM=C15H20N2O3S
##CAS REGISTRY NO=95481-12-2
##MP= -300
##BP= -300
##MW= 308
##$RETENTION INDEX=0
##$CONDENSED SPECTRUM=NO
##NPOINTS= 167
##XYDATA=(XY..XY) 1 
    25          6
    27         74
    28         24
    29         93
    30         21
    31          2
    38          3
    39         49
    40         11
    41        204
    42        154
    43         58
    44         16
    45         72
    46         39
    47         41
    48          2
    49          3
    50         11
    51         49
    52         31
    53        124
    54         69
    55         67
    56         24
    57        136
    58         15
    59         44
    60         17
    61         12
    62          3
    63         14
    64          6
    65         15
    66          4
    67         14
    68         22
    69        190
    70         73
    71         32
    72         10
    73          6
    74          2
    75          3
    76          5
    77         18
    78         88
    79         30
    80        138
    81         18
    82         17
    83         15
    84         49
    85         17
    86        252
    87         37
    88         42
    89         10
    90          5
    91          9
    92         22
    93         13
    94         25
    95          9
    96         20
    97         10
    98        134
    99         26
   100         11
   101          4
   102          9
   103          5
   104         33
   105         10
   106         46
   107         21
   108        999
   109        778
   110        112
   111         14
   112        144
   113         52
   114        592
   115         46
   116         54
   117         24
   118         12
   119          5
   120          6
   121         11
   122          9
   123          3
   125          4
   126         11
   127         18
   129         27
   130         66
   131        263
   132        138
   133         20
   134         12
   135          4
   136          5
   137        155
   138         17
   139          4
   140         80
   141         13
   142          7
   143         14
   144        119
   145         78
   146         13
   147         16
   148         14
   149         32
   150         13
   152          4
   154         17
   155        476
   156        112
   157         13
   158        122
   159         29
   160         11
   161         12
   166         11
   167          4
   168         29
   169          5
   172        113
   173         13
   174          7
   175         13
   176          5
   177         35
   178          8
   179          5
   185          4
   186        106
   187         14
   188          7
   189          3
   193          3
   195        186
   196         22
   197         12
   200        683
   201        906
   202        147
   203         58
   204          7
   205          5
   206          5
   223         22
   224          3
   235          3
   247          6
   251         19
   252          3
   262          4
   265          2
   293         10
   294          2
   308         19
   309         12
   310          3