##TITLE=Library Entry 87626
##JCAMP-DX=Revision 4.10 
##DATA TYPE=MASS SPECTRUM
##SAMPLE DESCRIPTION=Chemical Concepts
##NAMES=HP
##CAS NAME=1H,3H,5H-Thiazolo[3,4-c]oxazol-1-one, 3-(1,1-dimethylethyl)dihydr
o-7a-[hydroxy(1-methyl-1H-pyrrol-2-yl)methyl]-, [3R-[3.alpha.,7a.alpha.(R*)]
]-
##MOLFORM=C15H22N2O3S
##CAS REGISTRY NO=95481-10-0
##MP= -300
##BP= -300
##MW= 310
##$RETENTION INDEX=0
##$CONDENSED SPECTRUM=NO
##NPOINTS= 155
##XYDATA=(XY..XY) 1 
    26          5
    27         67
    28         28
    29        102
    30         26
    31          3
    38          7
    39         82
    40         16
    41        253
    42        210
    43        225
    44         14
    45         34
    46         20
    47         21
    49          5
    50          5
    51         13
    52         10
    53         52
    54         43
    55        127
    56         38
    57        173
    58          8
    59         17
    60          9
    61          6
    62          2
    63          4
    64          3
    65         23
    66         11
    67        122
    68         34
    69         77
    70         57
    71         42
    72         41
    73          7
    74          2
    76          4
    77          9
    78          9
    79         10
    80         41
    81         42
    82        242
    83         39
    84         48
    85         25
    86         42
    87         19
    88         14
    89          2
    91          8
    92          6
    93         13
    94         58
    95         22
    96         26
    97         24
    98         76
    99         19
   100          8
   101          2
   104          8
   105         12
   106          9
   107         10
   108         65
   109         90
   110        999
   111         87
   112        120
   113         42
   114         35
   115          6
   116         11
   117          4
   118          9
   119          7
   120          4
   121          8
   122          7
   123          9
   124          5
   125          9
   126          5
   127         15
   128          2
   129         20
   130         46
   131          6
   132          7
   133         22
   134          6
   135          5
   136          3
   137        131
   138         15
   139          5
   140         53
   141          7
   142          3
   143          5
   144         75
   145         52
   146          7
   147          3
   149         50
   150          7
   151          3
   152          3
   153          3
   154          9
   155        357
   156         88
   157          9
   158         97
   159         19
   160          5
   161          6
   163          4
   165          2
   167          2
   168         19
   169          3
   172          4
   177          3
   179          6
   186         73
   187          9
   188          4
   191          1
   193          2
   200          7
   201        543
   202         66
   203         31
   204          3
   205          2
   223          1
   231          1
   233          3
   235          1
   247          2
   249          1
   256          0
   264          0
   293          1
   310         20
   311          4
   312          1