##TITLE=Library Entry 63841
##JCAMP-DX=Revision 4.10 
##DATA TYPE=MASS SPECTRUM
##SAMPLE DESCRIPTION=Exported from NIST MS Search
##NAMES=HP
##CAS NAME=Diazene, bis(4-methylphenyl)-, 1-oxide
##MOLFORM=C14H14N2O
##CAS REGISTRY NO=955-98-6
##MP= -300
##BP= -300
##MW= 226
##$RETENTION INDEX=0
##$CONDENSED SPECTRUM=NO
##NPOINTS= 75
##XYDATA=(XY..XY) 1 
    26         18
    27         51
    28         18
    29         11
    38         11
    39        186
    40         23
    41         69
    42         11
    43         23
    51         34
    52        104
    53         81
    54         27
    55          4
    56         16
    57         27
    58         11
    62         16
    63        116
    64         46
    65        395
    66         34
    68          4
    69          4
    70         11
    75          4
    76         16
    77        209
    78        232
    79        255
    80         18
    89         69
    90         46
    91        999
    92        139
    93         23
    94          4
    95         16
   104        209
   105        290
   106         46
   107         23
   116         18
   118         23
   119        162
   120         23
   121         27
   122         11
   128         16
   129         23
   130         16
   132         23
   134         18
   141         11
   152          4
   153         18
   154         23
   155         34
   156         11
   166         23
   167          4
   168          4
   169         46
   170         34
   171          4
   180          4
   181         23
   182         27
   197         81
   198         23
   225         18
   226        539
   227         93
   228         11