##TITLE=Library Entry 97414
##JCAMP-DX=Revision 4.10 
##DATA TYPE=MASS SPECTRUM
##SAMPLE DESCRIPTION=ASES Database, Dalian Institute, P.R. China
##NAMES=HP
##CAS NAME=2-(4-Bromo-phenylthio)indan
##MOLFORM=C15H13BrS
##CAS REGISTRY NO=95524-14-4
##MP= -300
##BP= -300
##MW= 304
##$RETENTION INDEX=0
##$CONDENSED SPECTRUM=NO
##NPOINTS= 22
##XYDATA=(XY..XY) 1 
    39         93
    43        182
    50         36
    58         42
    63         86
    65         74
    89         48
    91        197
   108        159
   109         55
   115        631
   116        777
   117        999
   118         85
   187         25
   188         15
   189         30
   190         19
   304        129
   305         30
   306        135
   307         31