##TITLE=Library Entry 50444
##JCAMP-DX=Revision 4.10 
##DATA TYPE=MASS SPECTRUM
##SAMPLE DESCRIPTION=G.V. Rusinova, Inst. Geol. Dev. Fossil Fuels, Min. Pet.
 Ind., Moscow, USSR
##NAMES=HP
##CAS NAME=cis,trans-2,9-Dimethylspiro[5.5]undecane
##MOLFORM=C13H24
##CAS REGISTRY NO=95530-74-8
##MP= -300
##BP= -300
##MW= 180
##$RETENTION INDEX=0
##$CONDENSED SPECTRUM=NO
##NPOINTS= 16
##XYDATA=(XY..XY) 1 
    55        580
    67        480
    68        200
    81        999
    82        260
    95        710
    96        110
   109        110
   110        520
   123        410
   124         46
   137        210
   151         13
   165         13
   180        220
   181         31