##TITLE=Library Entry 11551
##JCAMP-DX=Revision 4.10 
##DATA TYPE=MASS SPECTRUM
##SAMPLE DESCRIPTION=LAC, NIDDK, NIH, Bethesda, MD 20892
##NAMES=HP
##CAS NAME=Pregna-5,16-diene-3.beta.,9.alpha.-diol-20-one, 3-O-acetate
##MOLFORM=C23H32O4
##CAS REGISTRY NO=95564-13-9
##MP= -300
##BP= -300
##MW= 372
##$RETENTION INDEX=0
##$CONDENSED SPECTRUM=NO
##NPOINTS= 144
##XYDATA=(XY..XY) 1 
    41         52
    43        999
    44         10
    45         13
    47         13
    49         34
    51         16
    53         26
    55         62
    57          9
    58          0
    61         13
    63          0
    65         19
    67         29
    69          9
    71          4
    77         52
    79         53
    81         21
    82          1
    83          2
    84         14
    86          8
    88          1
    89          1
    91         79
    93         72
    95         22
    97          3
    99          0
   102          1
   103         10
   105        111
   107         34
   108         20
   109          4
   110          1
   111          0
   115         18
   117         22
   118         42
   120        136
   121         12
   122         36
   123          9
   124          9
   125          2
   127          4
   128         11
   129         14
   131         20
   133         21
   135         30
   136          4
   137         12
   139          1
   141          8
   143         23
   144         44
   145         30
   146         11
   147          9
   149         32
   150          6
   151          1
   152          3
   153          5
   155         11
   156          4
   157         14
   158          7
   159          7
   161          7
   163          3
   164          1
   165          6
   166          2
   167          4
   168          0
   169          5
   171          6
   172          1
   173          3
   174          2
   175          6
   176          2
   177          7
   178          4
   179          3
   181          5
   183          4
   184          0
   185          2
   186          0
   187          2
   188          0
   189          3
   190          0
   191          3
   192          4
   193          6
   195          5
   196          2
   197          3
   198          0
   199          1
   202          1
   203          2
   205          6
   207          4
   209          3
   211          2
   213          1
   219          3
   221          2
   223          1
   224          0
   225          1
   229          0
   235          2
   237          3
   239          1
   249          0
   251          5
   252          0
   253          2
   255          2
   256          0
   261          2
   265          0
   269          2
   277          0
   279         23
   280          4
   293          0
   294         62
   295         16
   296          2
   297          1
   311          0
   312          5
   313          1
   372          3