##TITLE=Library Entry 27030
##JCAMP-DX=Revision 4.10 
##DATA TYPE=MASS SPECTRUM
##SAMPLE DESCRIPTION=LAC, NIDDK, NIH, Bethesda, MD 20892
##NAMES=HP
##CAS NAME=5-Androstene-3,17-diol, 17-propionate
##MOLFORM=C22H34O3
##CAS REGISTRY NO=95584-96-6
##MP= -300
##BP= -300
##MW= 346
##$RETENTION INDEX=0
##$CONDENSED SPECTRUM=NO
##NPOINTS= 216
##XYDATA=(XY..XY) 1 
    41        213
    43        189
    45         20
    49          9
    51          9
    52          3
    53         61
    55        235
    57        999
    58         30
    59          4
    65         25
    66          3
    67        133
    68          4
    69         66
    71         27
    72          1
    73          1
    75          3
    77         91
    79        235
    81        230
    83         46
    84          9
    85         12
    86          4
    87          1
    91        200
    92         39
    93        161
    94         57
    95        110
    96         17
    97         31
    98          3
    99          6
   103         17
   104         11
   105        257
   106         68
   107        280
   108         44
   109         50
   110         10
   111         14
   112          1
   115         28
   116         10
   117         84
   118         33
   119        120
   120         88
   121         88
   122         19
   123         25
   124         27
   125         50
   126          3
   127          3
   128         20
   129         43
   130         22
   131        133
   132         45
   133        199
   134         52
   135         41
   136          6
   137         11
   138          7
   139          2
   141         18
   142         15
   143        118
   144         43
   145        167
   146         70
   147         89
   148         55
   149         32
   150         10
   151         13
   152          1
   153          6
   154          2
   155         15
   156          2
   157         72
   158         48
   159        129
   160        118
   161        404
   162         60
   163         23
   164          5
   165          8
   166          1
   167          6
   168          2
   169         26
   170          5
   171         50
   172         25
   173         70
   174         27
   175         18
   176          6
   177         15
   178         11
   179         80
   180         10
   181          3
   182          4
   183         35
   184         12
   185         43
   186         31
   187        107
   188         18
   189         13
   190          6
   191          6
   192          3
   193          1
   195          5
   196          2
   197         62
   198         10
   199         46
   200         14
   201         15
   202          9
   203         11
   204          1
   205         13
   207         10
   211         32
   212         20
   213         67
   214         20
   215         53
   216         11
   217          6
   220          2
   221          8
   222          6
   223          4
   224          1
   225         28
   226         13
   227         10
   228          9
   229         13
   230         15
   231         16
   232          2
   233          8
   234         41
   235         50
   236          8
   237          4
   239        291
   240         56
   241          7
   243         10
   244          4
   245          2
   246          3
   247          5
   248          5
   253         17
   254         65
   255         37
   257        170
   258         32
   259          6
   260         16
   261        167
   262         28
   263          4
   271         20
   272         86
   273         35
   274         16
   275         17
   276          4
   285          4
   286         44
   287         22
   288          9
   289         10
   290          5
   291          3
   295          5
   299          5
   300          8
   301          2
   302         11
   303         10
   304          2
   305          1
   313         50
   314         12
   315          1
   318          2
   327          2
   328        226
   329         61
   331         66
   332         13
   344          2
   345          2
   346        347
   347         86
   348         13