##TITLE=Library Entry 9693
##JCAMP-DX=Revision 4.10 
##DATA TYPE=MASS SPECTRUM
##SAMPLE DESCRIPTION=A.A.Kutin, Moscow, Russia
##NAMES=HP
##CAS NAME=.beta.-l-Galactopyranosyl azide, 6-deoxy-2,3,4-triacetate
##MOLFORM=C12H17N3O7
##CAS REGISTRY NO=95581-07-0
##MP= -300
##BP= -300
##MW= 315
##$RETENTION INDEX=0
##$CONDENSED SPECTRUM=NO
##NPOINTS= 110
##XYDATA=(XY..XY) 1 
    35          0
    36          0
    37          0
    38          0
    39          6
    40          1
    41          9
    43        999
    44         25
    45         18
    46          2
    47         15
    51          0
    52          0
    53          3
    54          3
    55         12
    56          4
    57         25
    58         16
    59          6
    60         23
    61          8
    62          0
    65          0
    66          0
    67          0
    68          1
    69          6
    70          2
    71         64
    72          8
    73         22
    74          1
    75          8
    76          0
    80          0
    81          3
    82         21
    83         87
    84         11
    85         14
    86          3
    87          7
    88         58
    89          5
    90          0
    96         18
    97          4
    98          2
    99         18
   100         68
   101         63
   102         72
   103         36
   104          2
   105          0
   109          0
   110          1
   111         37
   112          4
   113         67
   114          9
   115         57
   116          5
   117         17
   118          1
   124          0
   125          4
   126          3
   127          4
   128          1
   129         13
   130         12
   131          2
   132          0
   139          2
   140         15
   141          7
   142         38
   143         13
   144         51
   145         16
   146          1
   147          0
   149          0
   153         22
   154          2
   155          0
   157         85
   158          7
   159          2
   167          0
   170          0
   171          6
   172          5
   173          0
   184         19
   185         11
   186          1
   187          1
   188          0
   198          7
   199          3
   200          1
   201          1
   213          0
   214          0
   258          0
   273          1