##TITLE=Library Entry 87442
##JCAMP-DX=Revision 4.10 
##DATA TYPE=MASS SPECTRUM
##SAMPLE DESCRIPTION=R.A. FRANICH, FOREST RES. INST., ROTORUA, NEW ZEALAND
##NAMES=HP
##CAS NAME=3-Acetamido-5-acetylfuran
##MOLFORM=C8H9NO3
##CAS REGISTRY NO=95598-28-0
##MP= -300
##BP= -300
##MW= 167
##$RETENTION INDEX=1619
##$CONDENSED SPECTRUM=NO
##NPOINTS= 25
##XYDATA=(XY..XY) 1 
    43        680
    44        250
    45         30
    54        150
    55        100
    56         20
    66         20
    67         20
    68         50
    69         80
    80         30
    81        140
    82        800
    83        200
    84         20
    95         30
    96        140
   110        999
   111         70
   124        570
   125        880
   126         70
   166        260
   167        570
   168         60