##TITLE=Library Entry 57174
##JCAMP-DX=Revision 4.10 
##DATA TYPE=MASS SPECTRUM
##SAMPLE DESCRIPTION=Japan AIST/NIMC Database- Spectrum MS-IW-3426
##NAMES=HP
##CAS NAME=2-Methoxy-6-(1,1-ethylenedioxyethyl)tropone
##MOLFORM=C12H14O4
##CAS REGISTRY NO=95592-77-1
##MP= -300
##BP= -300
##MW= 222
##$RETENTION INDEX=0
##$CONDENSED SPECTRUM=NO
##NPOINTS= 124
##XYDATA=(XY..XY) 1 
    14          1
    15         15
    26          3
    27          9
    28         20
    29         10
    30          2
    31          5
    37          2
    38         11
    39         28
    40          2
    41          7
    42          9
    43        486
    44         14
    45          9
    46          8
    50         17
    51         26
    52          9
    53         11
    54          1
    55          5
    56          1
    57          3
    59          1
    60          5
    61          2
    62          9
    63         44
    64         39
    65         31
    66         12
    67          3
    68          1
    69          2
    71          1
    73         55
    74          8
    75          7
    76         14
    77         56
    78         15
    79         11
    80          2
    81          3
    82          1
    83          1
    85          1
    86         31
    87        999
    88         64
    89         16
    90          7
    91         32
    92         46
    93          8
    94          2
    95          2
    96          1
    97          1
    99          2
   100         16
   101          2
   102          4
   103          6
   104          9
   105         18
   106          4
   107         40
   108          6
   109          2
   110          1
   111          1
   115          1
   117          3
   118          3
   119         11
   120          9
   121         22
   122          4
   123          2
   131          2
   132          3
   133         15
   134          5
   135         92
   136         17
   137          4
   145          3
   146          1
   147          9
   148          7
   149         24
   150         31
   151          7
   152          1
   160          2
   161          4
   162          1
   163         10
   164          4
   165          2
   176          1
   177         21
   178          5
   179         80
   180          9
   181          1
   189          2
   191         60
   192         13
   193         10
   194          2
   204          3
   205          2
   207        101
   208         12
   209          2
   221          3
   222        375
   223         50
   224          6