##TITLE=Library Entry 59882
##JCAMP-DX=Revision 4.10 
##DATA TYPE=MASS SPECTRUM
##SAMPLE DESCRIPTION=Exported from NIST MS Search
##NAMES=HP
##CAS NAME=Diazene, bis(2-methylphenyl)-, 1-oxide
##MOLFORM=C14H14N2O
##CAS REGISTRY NO=956-31-0
##MP= -300
##BP= -300
##MW= 226
##$RETENTION INDEX=0
##$CONDENSED SPECTRUM=NO
##NPOINTS= 57
##XYDATA=(XY..XY) 1 
    38         46
    39        348
    40         23
    41         74
    50         81
    51        267
    52        260
    53         51
    62         46
    63        220
    64         69
    65        720
    66         69
    76         58
    77        325
    78        232
    79        372
    80         46
    89        134
    90         58
    91        999
    92        227
    93         58
   104        313
   105         69
   106         69
   107         93
   108         11
   120         81
   121         69
   122         34
   128         18
   129         27
   153         18
   154         18
   155         46
   156         18
   165         93
   166         46
   167         69
   168        104
   169         23
   180         46
   181         46
   182         46
   183         93
   184         23
   194         69
   198         34
   199         18
   209        186
   210         46
   211        511
   212         58
   225        186
   226        260
   227         23