##TITLE=Library Entry 79316
##JCAMP-DX=Revision 4.10 
##DATA TYPE=MASS SPECTRUM
##SAMPLE DESCRIPTION=Chemical Concepts
##NAMES=HP
##CAS NAME=Hexanoic acid, 6-(benzoylamino)-
##MOLFORM=C13H17NO3
##CAS REGISTRY NO=956-09-2
##MP= -300
##BP= -300
##MW= 235
##$RETENTION INDEX=0
##$CONDENSED SPECTRUM=NO
##NPOINTS= 47
##XYDATA=(XY..XY) 1 
    36         11
    38         11
    39         34
    40         17
    41         54
    42         19
    43         23
    44         44
    45         46
    50         47
    51         58
    52          9
    53          9
    54          7
    55         24
    56         26
    57          7
    59          7
    60         14
    67          6
    69          9
    70          6
    73          8
    74          6
    76         19
    77        362
    78         30
    79          9
    84          9
   105        999
   106         80
   107          6
   112          8
   121          9
   122         48
   130         16
   134        147
   135         91
   136          8
   148         58
   149         11
   162         69
   163         12
   176         60
   177          8
   235         58
   236          8