##TITLE=Library Entry 16885
##JCAMP-DX=Revision 4.10 
##DATA TYPE=MASS SPECTRUM
##SAMPLE DESCRIPTION=Chemical Concepts
##NAMES=HP
##CAS NAME=1-Butanol, 3-(1-ethoxyethoxy)-4,4,4-trifluoro-
##MOLFORM=C8H15F3O3
##CAS REGISTRY NO=95605-53-1
##MP= -300
##BP= -300
##MW= 216
##$RETENTION INDEX=0
##$CONDENSED SPECTRUM=NO
##NPOINTS= 104
##XYDATA=(XY..XY) 1 
    25          8
    26         81
    27        372
    28         54
    29        421
    30         42
    31        496
    33         10
    37          5
    38          9
    39         43
    40          7
    41         53
    42         92
    43        674
    44        564
    45        999
    46         87
    47         92
    48          4
    49         47
    50         10
    51        100
    53          5
    54          2
    55         47
    56         23
    57        327
    58         19
    59         65
    60          7
    61         25
    63          5
    64          6
    65         11
    66          4
    67         14
    69         96
    70         10
    71         22
    72        316
    73        594
    74         36
    75        220
    76         38
    77        314
    78         81
    79         77
    80         20
    83          8
    85         15
    86          6
    87         14
    89         26
    90          6
    91          7
    93         25
    94         68
    95         72
    96         80
    97         17
    98          5
    99         19
   100          4
   101         20
   103         19
   104          3
   105         14
   106        149
   107         35
   108          2
   109         58
   110          2
   114         13
   120          3
   121          2
   122         14
   123          9
   124          9
   126        103
   127         59
   128          3
   135          3
   139         11
   141          7
   143         63
   144          2
   145          9
   153          8
   155        272
   156         15
   169         48
   170         12
   171        212
   172         14
   173          2
   181          7
   182          3
   183         15
   196          3
   197          2
   198          5
   201         98
   202          7