##TITLE=Library Entry 73471
##JCAMP-DX=Revision 4.10 
##DATA TYPE=MASS SPECTRUM
##SAMPLE DESCRIPTION=NIST Mass Spectrometry Data Center
##NAMES=HP
##CAS NAME=Pentacosane-8,10-dione
##MOLFORM=C25H48O2
##CAS REGISTRY NO=95605-25-7
##MP= -300
##BP= -300
##MW= 380
##$RETENTION INDEX=2774
##$CONDENSED SPECTRUM=NO
##NPOINTS= 115
##XYDATA=(XY..XY) 1 
    27         11
    29         65
    39         29
    41        190
    42         32
    43        355
    44         19
    54         38
    55        301
    56         93
    57        812
    58         68
    59         16
    63          8
    66         36
    67        184
    69        180
    70         67
    71        370
    72         18
    73         35
    78         17
    79         57
    81         92
    82         97
    83         76
    84        106
    85        232
    87         41
    91         38
    94         85
    95        173
    96         51
    97        170
    98        119
   100        999
   101         49
   102         16
   104         10
   105         27
   106         22
   108         96
   109        197
   110         26
   111         65
   112         54
   113        239
   114         44
   118         10
   119         39
   120         12
   121         51
   123         89
   124         70
   125         57
   126         54
   127        949
   128        169
   132         11
   137         64
   138         37
   140         18
   142        106
   143         33
   150         20
   151         49
   154         14
   164         12
   166         91
   167         17
   169        336
   170         40
   177         10
   178          8
   179         12
   181          9
   182         12
   183         12
   184        226
   185         87
   186         12
   189         10
   195         16
   196         15
   197         53
   198         18
   208         19
   220         58
   221         35
   222         24
   226         18
   227         14
   235         13
   236          9
   238         11
   239         91
   240         21
   252          6
   254          9
   255          9
   256         14
   259          7
   263         30
   264          9
   278         73
   279         19
   280          8
   281        108
   296         16
   309         23
   320          6
   362         33
   363          9
   380         12
   381          7