##TITLE=Library Entry 79733
##JCAMP-DX=Revision 4.10 
##DATA TYPE=MASS SPECTRUM
##SAMPLE DESCRIPTION=Japan AIST/NIMC Database- Spectrum MS-IW-6012
##NAMES=HP
##CAS NAME=2,3-Dibenzamido-1,4-diethoxybenzene
##MOLFORM=C24H24N2O4
##CAS REGISTRY NO=95620-66-9
##MP= -300
##BP= -300
##MW= 404
##$RETENTION INDEX=0
##$CONDENSED SPECTRUM=NO
##NPOINTS= 156
##XYDATA=(XY..XY) 1 
    26          3
    27          8
    28         14
    29          9
    39          3
    41          1
    43          1
    44          2
    50          3
    51         21
    52          3
    53          2
    54          4
    55          3
    57          1
    63          1
    64          1
    65          2
    66          4
    67          2
    68          1
    69          1
    75          1
    76          9
    77        373
    78         30
    79          2
    80          1
    81          1
    82          2
    83          1
    89          1
    91          1
    93          2
    94          6
    95          1
   103          6
   104         14
   105        999
   106         81
   107          5
   108          1
   109          1
   110          4
   111          1
   115          1
   116          1
   121          2
   122          5
   123          1
   124          1
   132          1
   133          1
   137          2
   140          2
   142          1
   149          1
   150          2
   151          2
   152          1
   153          2
   154          1
   156          1
   164          1
   165          4
   166          1
   168          2
   169          3
   170          1
   171          2
   177          1
   178          2
   179          3
   180          1
   181          1
   182          1
   193          1
   194          1
   195          1
   196          1
   197          5
   198          1
   199          1
   209          3
   210          5
   211          3
   213          1
   223          4
   224          1
   225        256
   226         49
   227          7
   228          1
   236          1
   237          5
   238         17
   239         23
   240          5
   241          7
   242          3
   243          1
   249          2
   251          1
   252          1
   253         67
   254         40
   255         10
   256          2
   257         12
   258          2
   259          2
   265          2
   266          1
   267        152
   268         29
   269          4
   270          3
   271         22
   272          4
   273          1
   281         16
   282         94
   283        133
   284         26
   285          3
   298          3
   299         21
   300          5
   301          1
   312          7
   313          4
   314          1
   327          2
   329          1
   341         19
   342          5
   343          4
   344          1
   357          3
   358          2
   359        111
   360         28
   361          5
   371          9
   372          2
   375          1
   385          1
   386         56
   387         16
   388          2
   389          5
   390          1
   404        216
   405         61
   406          9
   407          1