##TITLE=Library Entry 8774
##JCAMP-DX=Revision 4.10 
##DATA TYPE=MASS SPECTRUM
##SAMPLE DESCRIPTION=NIST Mass Spectrometry Data Center
##NAMES=HP
##CAS NAME=(E)-2-Methylbut-2-en-1-yl isobutyrate
##MOLFORM=C9H16O2
##CAS REGISTRY NO=95654-17-4
##MP= -300
##BP= -300
##MW= 156
##$RETENTION INDEX=1059
##$CONDENSED SPECTRUM=NO
##NPOINTS= 55
##XYDATA=(XY..XY) 1 
    26          7
    27        104
    28         24
    29         44
    30          1
    31          5
    37          3
    38         10
    39        184
    40         56
    41        680
    42         63
    43        999
    44         36
    45         10
    49          1
    50          9
    51         16
    52         10
    53        147
    54         26
    55         34
    56          9
    57         12
    58          5
    59          2
    61          1
    62          1
    63          3
    65         14
    66         10
    67        440
    68        581
    69        655
    70         50
    71        710
    72         28
    73          5
    74          2
    83          4
    84          2
    85         57
    86        124
    87          7
    88          2
    89         91
    90          4
   100          1
   109          1
   112          1
   113         16
   114          1
   128          1
   156         61
   157          5