##TITLE=Library Entry 50578
##JCAMP-DX=Revision 4.10 
##DATA TYPE=MASS SPECTRUM
##SAMPLE DESCRIPTION=NIST Mass Spectrometry Data Center
##NAMES=HP
##CAS NAME=Furan-2-ylmethyl palmitate
##MOLFORM=C21H36O3
##CAS REGISTRY NO=95668-36-3
##MP= -300
##BP= -300
##MW= 336
##$RETENTION INDEX=2382
##$CONDENSED SPECTRUM=NO
##NPOINTS= 171
##XYDATA=(XY..XY) 1 
    27         19
    28          2
    29         26
    30          1
    31          1
    37          1
    38          3
    39         26
    40          5
    41        139
    42         31
    43        176
    44          6
    45          3
    50          6
    51         13
    52         50
    53        106
    54         19
    55        117
    56         30
    57        118
    58          7
    59          2
    61          1
    65          3
    66          2
    67         20
    68          8
    69         67
    70         21
    71         64
    72          4
    73          6
    77          1
    78          1
    79          5
    80         33
    81        999
    82        283
    83         73
    84         17
    85         36
    86          5
    87          2
    89          1
    91          3
    92          1
    93          5
    94          8
    95         40
    96         10
    97         66
    98        293
    99         27
   100         27
   101          8
   102          1
   103          1
   105          1
   106          2
   107         12
   108          4
   109         24
   110          5
   111         24
   112          6
   113          5
   114          3
   115          5
   116          3
   117          1
   119          2
   120          3
   121          9
   122          8
   123         17
   124          4
   125         16
   126          2
   127          3
   129         11
   130          2
   134          1
   135         11
   136          2
   137          8
   138          2
   139         12
   140          1
   141          5
   142          1
   143          2
   147          1
   148          1
   149          6
   150          3
   151          4
   152          3
   153          9
   155          2
   156          1
   157          4
   163          5
   164          1
   165          3
   166          2
   167         38
   168          8
   169          1
   171          3
   175          1
   177          2
   180          1
   181         18
   182          3
   185          1
   189          1
   193          1
   194          2
   195         10
   196          1
   197          1
   201          1
   205          1
   207          5
   208          1
   209          6
   210          1
   213          2
   216          1
   219         13
   220          3
   221          2
   222          2
   223          3
   227          2
   234          1
   235          7
   236          2
   237         18
   238          4
   239         25
   240          5
   246          1
   247          1
   249         15
   250          3
   251          3
   252          1
   255          3
   257          1
   261          1
   262          1
   263         27
   264          4
   265          2
   266          1
   276          1
   277          1
   278          2
   279         17
   280          5
   289          1
   293          1
   307          1
   308          1
   318          1
   336         34
   337          6
   338          1