##TITLE=Library Entry 40787
##JCAMP-DX=Revision 4.10 
##DATA TYPE=MASS SPECTRUM
##SAMPLE DESCRIPTION=Chemical Concepts
##NAMES=HP
##CAS NAME=Silane, (4-ethenyl-1-cyclohexene-1,4-diyl)bis[trimethyl-
##MOLFORM=C14H28Si2
##CAS REGISTRY NO=95675-32-4
##MP= -300
##BP= -300
##MW= 252
##$RETENTION INDEX=0
##$CONDENSED SPECTRUM=NO
##NPOINTS= 130
##XYDATA=(XY..XY) 1 
    26          0
    27          4
    28          0
    29         11
    30          1
    31         16
    33          0
    39          4
    40          0
    41          3
    42          2
    43         44
    44         16
    45        136
    46         10
    47          5
    49          0
    50          0
    51          1
    52          0
    53          6
    54          2
    55          9
    56          1
    57          8
    58         21
    59        117
    60          8
    61          4
    62          0
    63          0
    65          2
    66          1
    67          5
    68          1
    69          8
    70          2
    71          6
    72         23
    73        999
    74         70
    75         31
    76          1
    77          6
    78          5
    79          5
    81          2
    82          0
    83         11
    84          1
    85         18
    86         22
    87          3
    88          1
    89          0
    91          7
    92          1
    93          2
    94          0
    95          7
    96          1
    97          5
    98          2
    99          2
   100          0
   101          1
   102          0
   103          3
   104        107
   105         29
   106          6
   107          2
   108          0
   109          5
   110          0
   111          4
   112          0
   113          0
   115          1
   116          0
   117          1
   118          4
   119          3
   120          0
   121         18
   122          3
   123          5
   124          0
   125          0
   126          0
   127          0
   128          0
   129          0
   131          2
   132          0
   133          2
   134          0
   135         32
   136         18
   137          5
   138          0
   143          0
   145          3
   146          1
   147         11
   148          1
   149         37
   150          7
   151          4
   152          0
   159          0
   160          0
   161          2
   162          2
   163         53
   164         33
   165          6
   166          1
   177          0
   178         49
   179         44
   180          8
   181          1
   207          0
   209          0
   237          1
   238          0
   252         18
   253          4
   254          2