##TITLE=Library Entry 40277
##JCAMP-DX=Revision 4.10 
##DATA TYPE=MASS SPECTRUM
##SAMPLE DESCRIPTION=ACCUSTANDARD Chemicals / NIST MS Data Center.
##NAMES=HP
##CAS NAME=Diphenamid
##MOLFORM=C16H17NO
##CAS REGISTRY NO=957-51-7
##MP= -300
##BP= -300
##MW= 239
##$RETENTION INDEX=2014
##$CONDENSED SPECTRUM=NO
##NPOINTS= 113
##XYDATA=(XY..XY) 1 
    12          1
    15         74
    18         52
    29          2
    30          0
    37          1
    38          7
    39         45
    40          1
    41          9
    42         51
    43         11
    44         18
    45          0
    50         18
    51         37
    52          6
    53          1
    56         20
    57          2
    58          2
    61          2
    62         14
    63         41
    64          9
    65         21
    66          1
    67          0
    70          5
    72        999
    73         38
    74         11
    75         11
    76         12
    77         20
    78          8
    79          1
    82          9
    83          9
    85          1
    86          5
    87         10
    88          8
    89         33
    90         12
    91         15
    92          1
    98          2
    99          2
   100          1
   101          3
   102          8
   103          2
   104          1
   105          1
   106          0
   110          1
   111          1
   113          8
   114          7
   115         40
   116          8
   118          7
   119          1
   120          0
   122          0
   125          1
   126          7
   127          7
   128         16
   129          2
   130          1
   131          2
   132          1
   133          1
   134          2
   137          2
   138          6
   139         31
   140          4
   141          7
   142          1
   144          0
   146          3
   149          1
   151         26
   152        126
   153         17
   154          1
   160          1
   161          6
   162          6
   163         31
   164          1
   165        308
   166        154
   167        563
   168         79
   169          5
   178          1
   179          0
   180          0
   181          1
   182          0
   192          0
   193          1
   194          2
   195          0
   210          1
   236          0
   239        142
   240         26
   241          2