##TITLE=Library Entry 64898
##JCAMP-DX=Revision 4.10 
##DATA TYPE=MASS SPECTRUM
##SAMPLE DESCRIPTION=Japan AIST/NIMC Database- Spectrum MS-IW-3788
##NAMES=HP
##CAS NAME=N,N'-(4-Methyl-m-phenylene)bis(p-toluenesulfonamide)
##MOLFORM=C21H22N2O4S2
##CAS REGISTRY NO=95701-93-2
##MP= -300
##BP= -300
##MW= 430
##$RETENTION INDEX=0
##$CONDENSED SPECTRUM=NO
##NPOINTS= 178
##XYDATA=(XY..XY) 1 
    15          1
    16          1
    26          1
    27         11
    28          6
    29          4
    30          3
    31         21
    32          1
    38          3
    39         59
    40         12
    41         30
    42         12
    43          6
    44          4
    45         16
    46          7
    48          7
    50          8
    51         29
    52         20
    53         21
    54          9
    55          3
    56          1
    57          2
    61          1
    62          6
    63         33
    64         21
    65        238
    66         80
    67         33
    68          5
    69          3
    70          1
    71          2
    72          1
    74          2
    75          3
    76          5
    77         52
    78         30
    79         15
    80         16
    81          4
    82          1
    83          1
    85          1
    86          1
    87          1
    88          1
    89         40
    90         29
    91        999
    92        189
    93        260
    94        107
    95          9
    96          1
    97          1
   102          5
   103          4
   104         12
   105         35
   106         12
   107         25
   108         11
   109          4
   110          1
   111          7
   112          1
   115          5
   116          2
   117          3
   118         10
   119         96
   120        210
   121        168
   122         29
   123          9
   124          5
   125          1
   127          2
   128          5
   129          4
   130          4
   131          5
   132          2
   133          1
   135         21
   136         17
   137          3
   138          1
   139        128
   140         19
   141         10
   142          6
   143          5
   144          5
   145          2
   149          1
   150          1
   151          2
   152          4
   153          4
   154          8
   155        262
   156         32
   157         23
   158          8
   159          1
   162          1
   164          1
   165          5
   166          4
   167         15
   168         17
   169         11
   170          9
   171         13
   172          3
   177          1
   178          4
   179          6
   180          8
   181          9
   182         19
   183         34
   184         61
   185         17
   186          2
   190          1
   191          1
   192          4
   193          9
   194         51
   195        124
   196         91
   197         33
   198          5
   209        163
   210        171
   211        473
   212         97
   213          9
   214          1
   225          2
   226          1
   227          1
   260          1
   274         36
   275        537
   276        166
   277         45
   278          9
   279          1
   287          3
   289          3
   290          1
   301         11
   302          9
   303          1
   339          5
   340          1
   349          1
   351          3
   352          1
   365         20
   366         29
   367          7
   368          2
   430        812
   431        211
   432        103
   433         21
   434          5