##TITLE=Library Entry 41673
##JCAMP-DX=Revision 4.10 
##DATA TYPE=MASS SPECTRUM
##SAMPLE DESCRIPTION=Institute of Organic Chemistry, Novosibirsk, USSR 1988
##NAMES=HP
##CAS NAME=(2S,2'S)-2,2'-Bis[1,4,7,10,13-pentaoxacyclopentadecane]
##MOLFORM=C20H38O10
##CAS REGISTRY NO=95721-96-3
##MP= -300
##BP= -300
##MW= 438
##$RETENTION INDEX=0
##$CONDENSED SPECTRUM=NO
##NPOINTS= 168
##XYDATA=(XY..XY) 1 
    53         11
    54         18
    55         99
    56         54
    57        272
    58        263
    59        363
    60         28
    61         24
    63         19
    64         16
    65         11
    67         37
    68         27
    69        181
    70         96
    71        327
    72        227
    73        999
    74         49
    75         46
    76          7
    77         16
    79         26
    80         16
    81         84
    82         41
    83        112
    84         42
    85        113
    86        354
    87        936
    88        181
    89        909
    90         49
    91         29
    92          9
    93         14
    94         30
    95         86
    96         43
    97         99
    98         27
    99        363
   100         63
   101        199
   102         68
   103        163
   104         18
   105         29
   106          9
   107         34
   108         19
   109         56
   110         25
   111         65
   112         52
   113        114
   114         33
   115        181
   116         38
   117        218
   118         18
   119         22
   121         23
   122         13
   123         38
   124         15
   125         45
   126         24
   127         32
   128         16
   129         49
   130         25
   131        154
   132         15
   133        345
   134         28
   135         22
   136          9
   137         24
   138         14
   139         21
   140         15
   141         21
   142          9
   143         37
   144         10
   145         36
   146         10
   147         33
   148          9
   149         32
   150          8
   151         26
   152          9
   153         13
   155         16
   156         10
   157         32
   158          9
   159         29
   160          9
   161         53
   162          9
   163         19
   165         13
   167         10
   169         11
   171          9
   173         15
   174         21
   175         61
   176         10
   177         74
   178         10
   179         10
   181          8
   183          9
   187         14
   188          8
   189         19
   190          8
   191         19
   195         12
   201         29
   202          9
   203         29
   204          7
   205         84
   206         13
   207          9
   217         24
   218         89
   219         91
   220         13
   221          9
   231         29
   232         11
   233         10
   244         12
   245         23
   246          6
   247          8
   249          9
   261         12
   262          8
   263         14
   273          3
   275          5
   277          4
   291         16
   292          3
   293          3
   305          4
   306          4
   307          3
   319          4
   333          4
   334          2
   350          3
   351          6
   377          7
   378          3
   393          4
   394          2
   438         14
   439          5