##TITLE=Library Entry 55154
##JCAMP-DX=Revision 4.10 
##DATA TYPE=MASS SPECTRUM
##SAMPLE DESCRIPTION=P.A. Leclercq, Lab. Instrum. Anal., Eindhoven Univ. Tec
hnol., Netherlands
##NAMES=HP
##CAS NAME=1,1'-Bicyclohexyl, 4-ethoxy-4'-propyl-
##MOLFORM=C17H32O
##CAS REGISTRY NO=95756-62-0
##MP= -300
##BP= -300
##MW= 252
##$RETENTION INDEX=0
##$CONDENSED SPECTRUM=NO
##NPOINTS= 78
##XYDATA=(XY..XY) 1 
    15         10
    17          9
    18         20
    27        158
    28         16
    29        460
    30         15
    31         47
    39        113
    41        595
    42         60
    43        280
    44        120
    45         31
    53        106
    54         95
    55        583
    57        518
    58         63
    59         22
    65         34
    67        416
    68         87
    69        406
    70         35
    71         33
    72        148
    73         49
    77         57
    79        217
    80        121
    81        701
    82        333
    83        336
    85        999
    86        165
    87         12
    91         60
    92         17
    93        115
    94         46
    95        217
    96         96
    97        134
    98         21
    99         11
   105         18
   107         72
   108        128
   109        248
   110         87
   111         89
   121        148
   122        210
   123        294
   124        207
   125         60
   126         11
   127         16
   135         98
   136         59
   137         41
   138         56
   139         32
   149         49
   150         26
   151         37
   152         10
   163        309
   164         83
   165         23
   166         11
   177        338
   178         70
   181         18
   191         13
   206        628
   207        112