##TITLE=Library Entry 27721
##JCAMP-DX=Revision 4.10 
##DATA TYPE=MASS SPECTRUM
##SAMPLE DESCRIPTION=K. Jacobson, LBC, NIDDK, NIH, Bethesda, MD 20892
##NAMES=HP
##CAS NAME=1,2-Diaminoethane, N-trifluoroacetyl-2,2-dimethyl-
##MOLFORM=C6H11F3N2O
##CAS REGISTRY NO=95778-71-5
##MP= -300
##BP= -300
##MW= 184
##$RETENTION INDEX=0
##$CONDENSED SPECTRUM=NO
##NPOINTS= 57
##XYDATA=(XY..XY) 1 
    41        124
    42        114
    43         35
    44         43
    45          6
    46          0
    48          0
    50          9
    51          3
    52          2
    53          4
    54          7
    55         32
    56         80
    57         28
    58        999
    59         43
    60          1
    64          0
    68          2
    69         43
    70          8
    71          4
    72         19
    73          7
    77          1
    78          8
    79          1
    82          4
    83          1
    84          1
    89          1
    94          0
    96          1
    97          3
    98          3
    99         10
   100          0
   106          1
   114          3
   115          3
   124          1
   126          6
   127          1
   131          3
   137          1
   139          0
   140          1
   151          5
   152          7
   154          9
   166          1
   167          0
   168          6
   169         23
   170          1
   184          1