##TITLE=Library Entry 43799
##JCAMP-DX=Revision 4.10 
##DATA TYPE=MASS SPECTRUM
##SAMPLE DESCRIPTION=Chemical Concepts
##NAMES=HP
##CAS NAME=Silane, (4-methylene-3,3-diphenyl-1-cyclopentene-1,2-diyl)bis[tri
methyl-
##MOLFORM=C24H32Si2
##CAS REGISTRY NO=95798-03-1
##MP= -300
##BP= -300
##MW= 376
##$RETENTION INDEX=0
##$CONDENSED SPECTRUM=NO
##NPOINTS= 234
##XYDATA=(XY..XY) 1 
    24          1
    27          0
    28          7
    29          1
    31          2
    39          0
    40          0
    41          0
    43         21
    44          8
    45         95
    46          6
    47          3
    51          1
    53          2
    55          4
    56          0
    57          3
    58          5
    59         46
    60          3
    61          1
    63          0
    65          1
    67          4
    68          1
    69          5
    70          1
    71          2
    72          5
    73        999
    74         92
    75         36
    76          1
    77          2
    78          1
    79          0
    81         11
    82          1
    83         16
    84          3
    85          3
    87          0
    89          0
    91         14
    92          1
    93          1
    95          2
    96         73
    97         23
    98          4
    99          2
   101          1
   102          0
   103          1
   105          6
   106          1
   107          3
   108          0
   109          1
   111          0
   113          1
   114          0
   115          6
   116          1
   117          0
   119          1
   120          0
   121          8
   122          1
   123          1
   125          1
   126          1
   127          3
   128          5
   129          6
   130          1
   131          3
   132          0
   133          1
   134          1
   135         52
   136          7
   137          2
   139          2
   140          1
   141          3
   142          1
   143          1
   144          0
   145          7
   146          1
   147          0
   149          0
   151          1
   152          3
   153          3
   154          1
   155         21
   156          4
   157          2
   158          0
   159          6
   160          1
   161          0
   162          0
   163          1
   164          1
   165         11
   166          3
   167         64
   168          9
   169          7
   170          1
   171          2
   172          1
   173          1
   175          0
   176          1
   177          1
   178          3
   179          2
   180          2
   181          3
   182          1
   183          2
   184          1
   185          2
   186          1
   187          1
   188          1
   189          6
   190          4
   191         56
   192         17
   193          4
   195         27
   196          5
   197          4
   198          1
   199          0
   200          0
   201          1
   202          5
   203          6
   204          6
   205          8
   206          7
   207          2
   208          1
   209          5
   210          2
   211         43
   212         10
   213          3
   214          1
   215          6
   216          4
   217          2
   218          1
   219          1
   221          3
   222          1
   223          1
   224          0
   225          1
   226          2
   227          2
   228         15
   229         28
   230          8
   231          3
   232          1
   233          2
   234          0
   235          0
   239          1
   240          0
   241          2
   242          2
   243          3
   244          3
   245          7
   246          2
   247          2
   248          2
   249          1
   250          0
   251          0
   252          0
   253          1
   254          1
   255          2
   256          1
   257          3
   258          4
   259          6
   260          3
   261          2
   262          1
   263          2
   264          1
   265          1
   267          1
   269          3
   270          2
   271         10
   272          6
   273         39
   274         12
   275          3
   276          0
   281          0
   283          2
   284          1
   285          2
   286          3
   287         23
   288        117
   289         32
   290          8
   291          1
   302         24
   303         68
   304         20
   305          4
   306          0
   361         11
   362          4
   363          1
   376         74
   377         28
   378          9
   379          2