##TITLE=Library Entry 43802
##JCAMP-DX=Revision 4.10 
##DATA TYPE=MASS SPECTRUM
##SAMPLE DESCRIPTION=Chemical Concepts
##NAMES=HP
##CAS NAME=Silane, [4-(diphenylmethylene)-1-cyclopentene-1,2-diyl]bis[trimet
hyl-
##MOLFORM=C24H32Si2
##CAS REGISTRY NO=95797-90-3
##MP= -300
##BP= -300
##MW= 376
##$RETENTION INDEX=0
##$CONDENSED SPECTRUM=NO
##NPOINTS= 183
##XYDATA=(XY..XY) 1 
    24         11
    27          1
    28          3
    29          4
    30          0
    31          2
    34          1
    36          1
    38          0
    39          2
    40          0
    41          4
    42          0
    43         16
    44          3
    45         76
    46          4
    47          1
    51          1
    53          3
    55          1
    57          1
    58          7
    59         57
    60          3
    61          3
    65          1
    67          1
    69          3
    70          1
    71          3
    72          5
    73        999
    74         89
    75         45
    76          1
    77          3
    78          2
    79          1
    81          5
    82          1
    83         13
    84          3
    85          3
    91          6
    92          2
    93          2
    95          3
    96         19
    97         16
    98          2
    99          2
   101          2
   103          2
   105          8
   107          4
   109          3
   115          7
   116          2
   117          2
   119          2
   121         10
   122          8
   123          3
   125          2
   127          2
   128          2
   129          4
   131          6
   133          3
   134          2
   135         43
   136          6
   137          3
   139          2
   141          3
   145          6
   147          1
   152          7
   153          3
   155         26
   156          5
   159          3
   163          2
   164          2
   165         23
   166         15
   167         83
   168         12
   169          7
   171          3
   172          4
   178          5
   179          2
   181          6
   182          2
   183          3
   189          4
   190          5
   191         17
   192          6
   193          3
   194          2
   195         21
   196          4
   197          4
   202          7
   203          6
   204          5
   205          5
   206          5
   207          3
   208          2
   209          5
   210          2
   211         17
   212          3
   213          2
   215         10
   216          5
   217          2
   218          2
   219          3
   221          4
   222          3
   223          2
   225          3
   226          5
   227          4
   228         25
   229         38
   230         11
   231          6
   232          3
   233          2
   239          2
   240          2
   241          4
   242          4
   243          6
   244          4
   245         12
   246          3
   247          3
   249          2
   255          3
   257          5
   259          8
   260          5
   261          4
   263         36
   264         10
   265          3
   267          3
   268          3
   269          7
   270          3
   271         15
   272          6
   273         42
   274         12
   275          4
   276          2
   281          2
   284          2
   285          2
   286          5
   287         47
   288        113
   289         35
   290          9
   291          2
   301          2
   302         33
   303         80
   304         24
   305          6
   361         10
   362          3
   376        107
   377         41
   378         14
   379          3