##TITLE=Library Entry 42576
##JCAMP-DX=Revision 4.10 
##DATA TYPE=MASS SPECTRUM
##SAMPLE DESCRIPTION=Chemical Concepts
##NAMES=HP
##CAS NAME=Silane, [[3,3-dimethyl-4-methylene-2-(trimethylsilyl)-1-cyclopent
en-1-yl]methoxy]trimethyl-
##MOLFORM=C15H30OSi2
##CAS REGISTRY NO=95798-07-5
##MP= -300
##BP= -300
##MW= 282
##$RETENTION INDEX=0
##$CONDENSED SPECTRUM=NO
##NPOINTS= 159
##XYDATA=(XY..XY) 1 
    27          5
    29          5
    31          7
    39          8
    40          1
    41         12
    42          0
    43         31
    44         13
    45        116
    46          8
    47         12
    51          4
    52          2
    53          6
    54          1
    55          7
    56          0
    57          6
    58          8
    59         63
    60          5
    61          8
    62          0
    63          1
    64          0
    65          5
    66          6
    67          7
    68          1
    69          8
    70          2
    71          5
    72         22
    73        999
    74         82
    75        111
    76          7
    77         16
    78          5
    79         11
    80          1
    81          4
    82          0
    83         12
    84          1
    85          5
    86          0
    87          1
    88          0
    89          2
    90          0
    91         19
    92          4
    93          4
    94          0
    95          4
    96          2
    97         13
    98          1
    99          2
   101          1
   102          1
   103         91
   104         13
   105        128
   106         13
   107          4
   108          0
   109          4
   110          0
   111          2
   113          1
   115          4
   116          1
   117         14
   118          8
   119         52
   120         45
   121         16
   122          1
   123          3
   124          0
   125          1
   126          1
   127          0
   129          1
   130          0
   131         20
   132          4
   133         33
   134          5
   135         11
   136          1
   137          2
   139          0
   140          0
   141          0
   143          1
   144          0
   145          4
   146          2
   147        294
   148         47
   149         42
   150          6
   151          3
   152          0
   153          0
   155          1
   157          1
   158          0
   159          3
   160          0
   161         12
   162          2
   163         15
   164         11
   165          3
   166          1
   167          2
   171          0
   173          1
   174          0
   175          4
   176          1
   177         96
   178         20
   179         47
   180          8
   181          3
   182          0
   191          1
   192         95
   193         64
   194         17
   195         25
   196          4
   197          0
   207          3
   208         44
   209         80
   210         16
   211          4
   221          1
   235          0
   237          1
   239          0
   251          2
   252          1
   253          1
   267        119
   268         32
   269         12
   270          2
   282         34
   283          9
   284          3
   285          0