##TITLE=Library Entry 69658
##JCAMP-DX=Revision 4.10 
##DATA TYPE=MASS SPECTRUM
##SAMPLE DESCRIPTION=Humboldt-Universitat zu Berlin, Department of Chemistry
, Analytical Group
##NAMES=HP
##CAS NAME=Bis-(3,4-dimethoxyphenyl)-hydroxyacetic acid, 1-methyl ester
##MOLFORM=C24H31NO7
##CAS REGISTRY NO=95805-62-2
##MP= -300
##BP= -300
##MW= 445
##$RETENTION INDEX=0
##$CONDENSED SPECTRUM=NO
##NPOINTS= 171
##XYDATA=(XY..XY) 1 
    12         22
    13         41
    14          7
    15         55
    16          8
    17         22
    18        106
    26          4
    27         34
    28         75
    29         45
    30         24
    31          8
    32         10
    35        771
    36         43
    37         44
    38         15
    39         28
    40          6
    41         93
    42        258
    43        202
    44        297
    45         16
    47        195
    48         91
    49         67
    50         40
    51         27
    52          9
    53         30
    54         15
    55         85
    56         44
    57         83
    58         62
    59          8
    60          5
    62          3
    63         11
    64         12
    65         22
    66         22
    67         20
    68         32
    69         38
    70        226
    71        151
    72         18
    73          4
    74          3
    75          8
    76         36
    77        120
    78         16
    79         79
    80         12
    81         17
    82        107
    83        643
    84         91
    85        376
    86         22
    87         62
    88          4
    89          4
    90          3
    91         14
    92         49
    93         17
    94         61
    95         24
    96        133
    97        999
    98        294
    99        439
   100         35
   101          5
   102          6
   103          8
   104         33
   105         24
   106          6
   107         35
   108          5
   109         14
   110          3
   111          3
   112          5
   113          5
   114         44
   115         29
   116          6
   117          8
   118         12
   119         28
   120         59
   121         30
   122         76
   123         22
   124          4
   126          6
   127          8
   128         10
   129          4
   130          2
   131          5
   132          3
   133         13
   134          2
   135         12
   136          4
   137         92
   138         18
   139          7
   140          2
   141          3
   142          5
   143          4
   144          3
   145          3
   149         37
   150          8
   151         11
   152          3
   155          3
   156          2
   157          3
   158          2
   159          3
   163          7
   165        759
   166         79
   167         10
   168          2
   169          2
   170          2
   171          3
   172          1
   173          2
   174          1
   183          2
   184          2
   185          2
   186          2
   187          1
   197          2
   199          1
   200          1
   201          1
   212          1
   213          2
   227          2
   255          1
   257          1
   271          6
   272          1
   273          1
   287          2
   288          1
   302         12
   303        148
   304         25
   305          4
   317          1
   331          1
   345          0
   401          1
   445          7
   446          2