##TITLE=Library Entry 64889
##JCAMP-DX=Revision 4.10 
##DATA TYPE=MASS SPECTRUM
##SAMPLE DESCRIPTION=Japan AIST/NIMC Database- Spectrum MS-IW-3205
##NAMES=HP
##CAS NAME=7-Benzyloxy-3-methoxy-2-(3,4-dimethoxyphenyl)-4H-chromen-4-one
##MOLFORM=C25H22O6
##CAS REGISTRY NO=95817-41-7
##MP= -300
##BP= -300
##MW= 418
##$RETENTION INDEX=0
##$CONDENSED SPECTRUM=NO
##NPOINTS= 248
##XYDATA=(XY..XY) 1 
    15          2
    27          1
    28          7
    29          1
    38          1
    39         16
    40          1
    41          7
    43          2
    45          1
    50          4
    51         14
    52          4
    53          6
    55          3
    61          1
    62          5
    63         48
    64          8
    65         73
    66          8
    67          1
    69          4
    74          3
    75         10
    76         10
    77         27
    78          8
    79         18
    80          2
    81          1
    86          1
    87          2
    88          4
    89         12
    90          8
    91        999
    92         93
    93          6
    94          8
    95          2
    99          1
   100          1
   101          2
   102          1
   103          5
   104          4
   105          9
   106          4
   107         14
   108          5
   109          3
   113          2
   114          3
   115          4
   116          2
   117          1
   118          1
   119         36
   120          8
   121          9
   122          9
   123          2
   125          1
   126          4
   127          5
   128          4
   129          2
   131          3
   132          1
   133          3
   134          4
   135          5
   136          1
   137         20
   138          4
   139          7
   140          2
   141          4
   142          3
   143          1
   144          1
   145          1
   146          1
   147          3
   148          3
   149         23
   150          5
   151          8
   152          5
   153          3
   154          2
   155          4
   156          1
   157          3
   158          1
   161          1
   162          3
   163          5
   164          3
   165        124
   166         12
   167          3
   168          3
   169          4
   170          3
   171          2
   172          1
   173          1
   175          2
   177          4
   178          1
   179          2
   180          1
   181          3
   182          2
   183          3
   184          2
   185          3
   186          1
   187          2
   189          3
   190          1
   191          5
   192          3
   193          1
   194          1
   195          2
   196          2
   197          5
   198          3
   199          2
   200          1
   201          1
   203          1
   208          1
   209          3
   210          2
   211          4
   212          3
   213          6
   214          1
   215          1
   217          2
   218          1
   222          1
   223          4
   224          5
   225          9
   226          4
   227          9
   228          3
   229          1
   236          1
   237          3
   238          7
   239          8
   240          5
   241          9
   242          3
   243          1
   250          1
   251          5
   252          5
   253         18
   254          8
   255          9
   256          7
   257          3
   258          1
   265          1
   266          4
   267          7
   268         12
   269          9
   270          4
   271          3
   272          1
   278         18
   279          5
   280          3
   281          8
   282          5
   283          9
   284         56
   285         21
   286          4
   287          1
   293          1
   294          1
   295          4
   296        102
   297         28
   298         10
   299         61
   300         11
   301          2
   308          1
   309          7
   310          9
   311          9
   312         21
   313         21
   314          6
   315          2
   325          2
   326         42
   327        145
   328         54
   329         10
   330          2
   341          1
   342          5
   343          3
   344          1
   347          1
   357          7
   358          2
   359          3
   360          2
   361          1
   369          3
   370          1
   371          6
   372          3
   373          5
   374          2
   375         31
   376          8
   377          1
   385          5
   386          2
   387         44
   388         13
   389          9
   399         14
   400          7
   401         12
   402         12
   403        284
   404         76
   405         12
   406          2
   417        362
   418        567
   419        147
   420         25
   421          3