##TITLE=Library Entry 82277
##JCAMP-DX=Revision 4.10 
##DATA TYPE=MASS SPECTRUM
##SAMPLE DESCRIPTION=LAC, NIDDK, NIH, Bethesda, MD 20892
##NAMES=HP
##CAS NAME=Cinnamic acid, .alpha.-[N-benzoylamino]-3,5-di-t-butyl-4-hydroxy-
##MOLFORM=C25H31NO4
##CAS REGISTRY NO=95820-15-8
##MP= -300
##BP= -300
##MW= 409
##$RETENTION INDEX=0
##$CONDENSED SPECTRUM=NO
##NPOINTS= 232
##XYDATA=(XY..XY) 1 
    41         87
    42          6
    43         19
    44          5
    45          1
    47          4
    48          2
    49          2
    50          7
    51          4
    52          3
    53          6
    54          1
    55         19
    57        269
    58         11
    59          8
    60          0
    63          1
    65          5
    66          1
    67          5
    68          2
    69         10
    70          2
    71          2
    74          1
    75          2
    76         13
    77        340
    78         25
    79          5
    80          1
    81          2
    82          2
    83          4
    84          1
    85          2
    86          0
    88          2
    89          2
    90          1
    91         17
    92          2
    93          3
    94          1
    95          1
    97          2
    99          1
   101          1
   102          2
   103          5
   104         10
   105        999
   106         91
   107          7
   108          1
   109          1
   111          1
   113          0
   115         14
   116          8
   117          9
   118          3
   119          4
   120          2
   121          3
   122          3
   127          9
   128         16
   129         14
   130         11
   131          9
   132          5
   133         12
   134          3
   135          1
   137          0
   139          3
   140          2
   141          9
   142          6
   143          9
   144          9
   145          9
   146          8
   147          5
   148          3
   149          2
   151          0
   152          3
   153          6
   154          8
   155          7
   156          7
   157          8
   158          6
   159          9
   160         43
   161          9
   162          2
   163          1
   164          1
   165          2
   166          3
   167          5
   168          6
   169          3
   170          9
   171          7
   172         14
   173         12
   174         10
   175          4
   176          1
   177          2
   178          1
   179          1
   180          3
   181          3
   182          5
   183          2
   184          3
   185          3
   186          7
   187          6
   188          7
   189          3
   190          1
   191          6
   192         54
   193          9
   194          2
   195          1
   196          2
   197          1
   198          4
   199          3
   200         28
   201          5
   202          3
   203          3
   204          3
   205          1
   206          0
   211          1
   212          2
   213          2
   214         11
   215          3
   216        172
   217         30
   218         11
   219         19
   220          3
   224          0
   226          1
   228          4
   229          3
   230         16
   231          4
   232          6
   233          8
   234          4
   235          1
   240          1
   242          3
   243          1
   244          7
   245         11
   246         21
   247          4
   248         32
   249          8
   250          1
   251          1
   256          2
   257          0
   260          2
   261          1
   262          1
   265          1
   267          0
   272          3
   273         10
   274          5
   275          2
   276          2
   277          1
   278          2
   288          5
   289          3
   290          4
   291          2
   292          1
   294          1
   303          0
   304         26
   305          7
   306          9
   307          2
   313          2
   316          1
   320          4
   321          1
   322          1
   324          2
   334          2
   335          1
   349          1
   350          1
   351          1
   353          2
   360          1
   362         43
   363         11
   364          1
   376          9
   377          4
   378         12
   379          3
   392          1
   393          3
   394         20
   395          5
   396          0
   407          2
   408          2
   409        706
   410        190
   411         33
   412          4