##TITLE=Library Entry 15541
##JCAMP-DX=Revision 4.10 
##DATA TYPE=MASS SPECTRUM
##SAMPLE DESCRIPTION=Div. of Experiment Therapeutics WRAIR, WRAMC, Washingto
n DC 20307
##NAMES=HP
##CAS NAME=Carboethoxy-1-piperazinethiocarboxylic acid 2-[1-[2-pyridyl]-2-hy
droxeythylidenehydrazide
##MOLFORM=C15H21N5O3S
##CAS REGISTRY NO=95836-66-1
##MP= -300
##BP= -300
##MW= 351
##$RETENTION INDEX=0
##$CONDENSED SPECTRUM=NO
##NPOINTS= 191
##XYDATA=(XY..XY) 1 
    41         89
    42        363
    43        182
    44        999
    45         45
    46          9
    47         11
    48          6
    49         58
    50        103
    51        307
    52        160
    53         50
    54         54
    55        200
    56        805
    57        223
    58         76
    59         50
    60         74
    61         49
    62         16
    63         24
    64         30
    65         37
    66         12
    67         16
    68         47
    69        206
    70        104
    71         22
    72        103
    73         10
    74         26
    75         28
    76         64
    77         68
    78        576
    79        220
    80         50
    81         10
    82         18
    83         67
    84         59
    85        100
    86         37
    87          7
    88         32
    89         32
    90         17
    91          9
    92         37
    93         28
    94         15
    95          6
    96         10
    97          5
    98          4
    99          3
   100         32
   101         21
   102         47
   103         20
   104        129
   105        377
   106        132
   107        106
   108         16
   109          4
   110          8
   111         14
   112          5
   113         64
   114         11
   115         37
   116        250
   117         19
   118          6
   119          7
   120         15
   121         12
   122          8
   123         10
   124         35
   125          5
   126          2
   127          7
   128         20
   129         29
   130          7
   131          5
   132          3
   133         20
   134          6
   135        106
   136         20
   137         24
   138          9
   139          2
   140          4
   141          8
   142          5
   143          6
   144          8
   145          3
   146          3
   147          3
   148          5
   149          4
   150          8
   151          4
   152          4
   153          4
   154          4
   155          3
   156         14
   157         15
   158        111
   159         17
   160          4
   161          2
   162          6
   163          2
   164          8
   165          9
   166          4
   167          0
   168          0
   169          1
   170          1
   171          2
   172          3
   173          1
   175          0
   176          2
   177          4
   178          2
   179          5
   182          6
   183          5
   184         16
   185          2
   186          2
   188          0
   189          0
   190         15
   191         11
   192          5
   193         65
   194         16
   195          7
   196          2
   199          0
   201          3
   202          2
   203          2
   204          3
   205          4
   206          1
   208          0
   209          1
   215          2
   216          1
   217         48
   218          7
   219         21
   220          3
   221          2
   222          3
   223          3
   224          3
   232          7
   233          7
   234          7
   235          2
   248          4
   249          2
   250          2
   251          1
   270         12
   271          2
   274          6
   279          1
   318          3
   319          1
   320         60
   321         13
   322          4
   350          1
   351          3
   352          0