##TITLE=Library Entry 31703
##JCAMP-DX=Revision 4.10 
##DATA TYPE=MASS SPECTRUM
##SAMPLE DESCRIPTION=Div. of Experiment Therapeutics WRAIR, WRAMC, Washingto
n DC 20307
##NAMES=HP
##CAS NAME=2-Bromo-6-methoxy-8-nitroquinoline
##MOLFORM=C10H7BrN2O3
##CAS REGISTRY NO=95836-45-6
##MP= -300
##BP= -300
##MW= 282
##$RETENTION INDEX=0
##$CONDENSED SPECTRUM=NO
##NPOINTS= 172
##XYDATA=(XY..XY) 1 
    41         26
    42         15
    43         47
    44         35
    45         16
    46         52
    47         13
    48          9
    49        114
    50        274
    51        283
    52         95
    53         80
    54          9
    55         21
    56         24
    57         39
    58          3
    59          6
    60         12
    61        188
    62        449
    63        999
    64        239
    65         37
    66         21
    67         11
    68          6
    69         32
    70          7
    71         12
    72          5
    73         30
    74        150
    75        175
    76        123
    77         70
    78         38
    79         20
    80         12
    81         11
    82          7
    83          9
    84         36
    85         24
    86         81
    87        202
    88        157
    89         40
    90         32
    91         16
    92          4
    93          6
    94          0
    95          2
    97         20
    98         37
    99        100
   100         99
   101         73
   102        115
   103         27
   104         10
   105          4
   106          7
   107          4
   108          1
   109          3
   110          3
   111         10
   112         14
   113         30
   114        713
   115         98
   116        121
   117        310
   118         21
   119         17
   120          3
   121          2
   122          1
   123         10
   124         13
   125         15
   126        107
   127        597
   128        265
   129        283
   130        111
   131         12
   132          4
   133          1
   140          2
   141         19
   142        177
   143         26
   144         20
   145         92
   146         10
   147          0
   148          3
   149          5
   150          3
   154          2
   155          2
   156          6
   157        129
   158         22
   159          3
   165          0
   166          1
   167          2
   168          2
   169          2
   170          2
   171          1
   172          1
   173          5
   174          1
   176          2
   177          1
   179          1
   180          5
   181         65
   182          3
   183         67
   184          4
   192          6
   193        104
   194         27
   195        105
   196         23
   197          5
   198          0
   203         29
   204          7
   205         11
   206        127
   207         24
   208        133
   209         40
   210         18
   211         25
   212          2
   220          1
   221         38
   222         11
   223         39
   224        138
   225          1
   226        139
   227         12
   234          1
   236         18
   237          6
   238         19
   239          4
   240          0
   250          3
   252         72
   253          5
   254         70
   255          7
   266          9
   267          3
   268          9
   269          3
   282        911
   283        108
   284        898
   285        105
   286          5