##TITLE=Library Entry 3490
##JCAMP-DX=Revision 4.10 
##DATA TYPE=MASS SPECTRUM
##SAMPLE DESCRIPTION=Scientific Instruments & Applications
##NAMES=HP
##CAS NAME=N,N'-1,4-butanediylbis(2-methyl-2-propenamide)
##MOLFORM=C12H20N2O2
##CAS REGISTRY NO=95844-38-5
##MP= -300
##BP= -300
##MW= 224
##$RETENTION INDEX=0
##$CONDENSED SPECTRUM=NO
##NPOINTS= 76
##XYDATA=(XY..XY) 1 
    40        105
    41        999
    42         85
    43         56
    44         44
    45          4
    49          1
    50          1
    51          4
    52          4
    53         13
    54         15
    55         40
    56         33
    57         12
    58         19
    59          3
    65          2
    66          2
    67         10
    68          1
    69        751
    70        134
    71         10
    72          8
    73          2
    77          1
    78          1
    79          2
    80          2
    81          4
    82          9
    83          9
    84         25
    85          4
    86         27
    87          2
    94          3
    95          3
    96          7
    97          2
    98        169
    99         40
   100          4
   108          2
   109          4
   110         15
   111         12
   112         53
   113         17
   114          1
   120          1
   121          1
   122          1
   124         14
   125          2
   126         55
   127         12
   128          1
   135          1
   136          2
   137         10
   138        183
   139        145
   140         15
   141          1
   153          1
   154          4
   155         26
   156          2
   183          1
   196          3
   206          1
   207          1
   224          2
   225          0