##TITLE=Library Entry 7142
##JCAMP-DX=Revision 4.10 
##DATA TYPE=MASS SPECTRUM
##SAMPLE DESCRIPTION=D.M. JERINA, NIDDK, NATL. INST. HEALTH, BETHESDA, MD.,
 USA
##NAMES=HP
##CAS NAME=5.beta.,6.beta.-Epoxycholest-7-en-3.beta.-ol
##MOLFORM=C27H44O2
##CAS REGISTRY NO=95841-71-7
##MP= -300
##BP= -300
##MW= 400
##$RETENTION INDEX=0
##$CONDENSED SPECTRUM=NO
##NPOINTS= 100
##XYDATA=(XY..XY) 1 
    41        540
    42         85
    43        999
    44        156
    53        105
    55        602
    56         65
    57        437
    65         66
    67        269
    68         42
    69        330
    71        228
    77        185
    78         44
    79        247
    80         38
    81        358
    82         86
    83        212
    85         54
    91        344
    92         61
    93        334
    94         89
    95        397
    96         47
    97        117
   101         40
   105        312
   106         70
   107        234
   108         79
   109        152
   110         46
   111         59
   115         53
   117        154
   118         48
   119        170
   120         61
   121        190
   122         74
   123         84
   128         53
   129         84
   130         36
   131        159
   132         47
   133        193
   134        111
   135        134
   136         47
   137         37
   141         38
   143         71
   145        161
   146         49
   147        184
   148         50
   149         56
   157         87
   158         49
   159        181
   160         52
   161        138
   162         42
   163         58
   171         54
   173         86
   174         47
   175        142
   176         43
   177         62
   180         40
   185         45
   187         71
   190         46
   193         51
   197         51
   199         50
   215         68
   227         44
   233         39
   251        108
   269         65
   287         68
   288        103
   339         38
   343        160
   344         39
   353         35
   367        201
   368         59
   369         53
   382        102
   383         37
   385        103
   400        278
   401         83