##TITLE=Library Entry 79851
##JCAMP-DX=Revision 4.10 
##DATA TYPE=MASS SPECTRUM
##SAMPLE DESCRIPTION=J.A. CILLER CORTES, VIRGEN DE NURIA, MADRID, SPAIN
##NAMES=HP
##CAS NAME=4-Benzoyl-5-hydroxy-3,5-diphenyl-2(5H)-pyrrolone
##MOLFORM=C23H17NO3
##CAS REGISTRY NO=95855-21-3
##MP= -300
##BP= -300
##MW= 355
##$RETENTION INDEX=0
##$CONDENSED SPECTRUM=NO
##NPOINTS= 13
##XYDATA=(XY..XY) 1 
    51         60
    77        360
   105        999
   106         90
   129        120
   178         40
   232         60
   250        320
   251        110
   278         30
   337         20
   338         30
   355         80