##TITLE=Library Entry 4884
##JCAMP-DX=Revision 4.10 
##DATA TYPE=MASS SPECTRUM
##SAMPLE DESCRIPTION=A.A.Kutin, Moscow, Russia
##NAMES=HP
##CAS NAME=1H-Imidazole, 1-methyl-4-nitro-5-phenoxy-
##MOLFORM=C10H9N3O3
##CAS REGISTRY NO=95862-48-9
##MP= -300
##BP= -300
##MW= 219
##$RETENTION INDEX=0
##$CONDENSED SPECTRUM=NO
##NPOINTS= 121
##XYDATA=(XY..XY) 1 
    37         10
    38         52
    39        190
    40         64
    41         70
    42        999
    43         27
    44          9
    45         23
    46         78
    49          6
    50        188
    51        541
    52         74
    53        142
    54         28
    55         14
    56         19
    57         11
    58        154
    59          5
    61          5
    62         26
    63         74
    65        667
    66         71
    67        105
    69        277
    70         14
    71         11
    73         13
    74         93
    75         58
    76         83
    77        910
    78         73
    79         65
    80         43
    81         94
    82         14
    83        110
    84         18
    85          5
    86          0
    88          1
    89         16
    90         21
    91        102
    92         36
    93        271
    94        139
    95         17
    96          4
    97          5
    98         15
    99          0
   102         10
   103         58
   104         70
   105         25
   106         37
   107         11
   108         37
   109        154
   110         24
   111        105
   112         13
   113          6
   114          0
   115          1
   116         10
   117         26
   118         44
   119         33
   120         75
   121         19
   122         12
   123         12
   126        126
   127          9
   128          0
   129          4
   130          3
   131          6
   132         22
   133         13
   134         37
   135         14
   136          1
   142          0
   143          1
   144          2
   145         21
   146          6
   147          3
   148         10
   149         14
   150         41
   151          4
   157         61
   158          7
   161        210
   162         23
   163          7
   165          1
   171          9
   172         39
   173          3
   174          9
   175          3
   178          2
   186          1
   188         12
   189        292
   190         44
   191          3
   201          1
   202         13
   203          0
   219         75
   220         11