##TITLE=Library Entry 60472
##JCAMP-DX=Revision 4.10 
##DATA TYPE=MASS SPECTRUM
##SAMPLE DESCRIPTION=NIST Mass Spectrometry Data Center
##NAMES=HP
##CAS NAME=4-Thujen-2-.alpha.-yl acetate
##MOLFORM=C12H18O2
##CAS REGISTRY NO=95875-05-1
##MP= -300
##BP= -300
##MW= 194
##$RETENTION INDEX=1273
##$CONDENSED SPECTRUM=NO
##NPOINTS= 87
##XYDATA=(XY..XY) 1 
    27         35
    29         20
    37          1
    38          4
    39        101
    40         19
    41        221
    42         19
    43        676
    44         19
    45          8
    50         11
    51         45
    52         22
    53         75
    55         55
    56         10
    58          9
    59         13
    60          4
    61          9
    62          5
    63         22
    64          7
    65         88
    66         22
    67         78
    68         35
    74          3
    76          3
    77        143
    78         49
    79        160
    80         26
    81        123
    82         23
    83         32
    85        165
    86          9
    87          2
    89          8
    90          5
    91        999
    92        991
    93        134
    95         39
    96         15
   102          5
   103         27
   104         15
   105        125
   106         42
   107         68
   108         27
   109        142
   110         26
   111          4
   115         34
   116          9
   117         66
   118         28
   119        329
   120         33
   121         20
   122          3
   123         34
   127         10
   128          7
   129          4
   130          2
   131         26
   132          4
   133         25
   134        165
   135         34
   136          7
   137         24
   145          4
   146         12
   147          3
   151         19
   152         28
   153          2
   161          2
   165          4
   194         48
   195          5