##TITLE=Library Entry 35972
##JCAMP-DX=Revision 4.10 
##DATA TYPE=MASS SPECTRUM
##SAMPLE DESCRIPTION=Japan AIST/NIMC Database- Spectrum MS-IW-5011
##NAMES=HP
##CAS NAME=3,3'-(Pentamethylenebis(oxy-p-phenylene))dipropionitrile
##MOLFORM=C23H26N2O2
##CAS REGISTRY NO=95872-92-7
##MP= -300
##BP= -300
##MW= 362
##$RETENTION INDEX=0
##$CONDENSED SPECTRUM=NO
##NPOINTS= 134
##XYDATA=(XY..XY) 1 
    26          1
    27         17
    28         12
    29         15
    38          1
    39         26
    40          7
    41        335
    42         30
    43         14
    44          4
    50          5
    51         17
    52         11
    53         17
    54          4
    55         21
    56          2
    57          7
    60          1
    62          2
    63         12
    64          5
    65         20
    66          4
    67         29
    68         44
    69        999
    70         73
    71          5
    74          1
    75          3
    76          5
    77        104
    78         49
    79         14
    80          1
    81          4
    82          1
    83          3
    84          1
    85          4
    88          1
    89         24
    90         27
    91        117
    92         11
    93          3
    94          4
    95          4
    96          2
    97          3
    98          1
    99          1
   101          7
   102         13
   103        209
   104         49
   105         21
   106         12
   107        891
   108         70
   109          5
   110          1
   111          1
   113          1
   115          4
   116          6
   117         13
   118         10
   119         64
   120         24
   121         22
   122          2
   123          1
   125          1
   127          1
   128         15
   129          9
   130        137
   131         20
   132         16
   133         45
   134          6
   135          2
   139          1
   140          2
   141        249
   142          8
   143          1
   144          4
   145         25
   146         33
   147        194
   148        142
   149         14
   150          1
   153          1
   155          1
   156          1
   157          1
   158          5
   159          3
   160        467
   161         72
   162          5
   163          3
   172          2
   173         23
   174         22
   175        535
   176         70
   177         25
   178          3
   181          3
   185          1
   186         13
   187          7
   188          7
   189          4
   199          2
   200          1
   214          6
   215         33
   216        868
   217        133
   218         11
   322          7
   323          1
   335          5
   336          1
   362        100
   363         26
   364          3