##TITLE=Library Entry 109602
##JCAMP-DX=Revision 4.10 
##DATA TYPE=MASS SPECTRUM
##SAMPLE DESCRIPTION=NIST Mass Spectrometry Data Center, 2010
##NAMES=HP
##CAS NAME=4-Chlorobenzyl alcohol, pentafluoropropionate
##MOLFORM=C10H6ClF5O2
##CAS REGISTRY NO=958997-71-2
##MP= -300
##BP= -300
##MW= 288
##$RETENTION INDEX=1193
##$CONDENSED SPECTRUM=NO
##NPOINTS= 90
##XYDATA=(XY..XY) 1 
    26          1
    27          3
    28          2
    29          4
    31          8
    37          3
    38          8
    39         30
    40          3
    41          1
    43          2
    44         13
    47          1
    49          5
    50         43
    51         46
    52          6
    53          1
    60          1
    61          8
    62         27
    63         79
    64         15
    65          9
    66          1
    69         69
    70          1
    72          2
    73         21
    74         16
    75         47
    76         10
    77         59
    78         13
    79          1
    81          1
    83          1
    84          2
    85          8
    86          7
    87          8
    88          3
    89        242
    90         61
    91          5
    96          1
    97          4
    98          1
    99         47
   100         16
   101         15
   102          1
   105          7
   106          2
   107          1
   108          1
   109          5
   110          2
   111         36
   112          8
   113         15
   114          3
   115          1
   119        112
   120          2
   123          6
   124        240
   125        999
   126        149
   127        330
   128         25
   129          1
   139         25
   140          4
   141         15
   142          2
   143          4
   145          1
   147          4
   161          1
   169          1
   177          1
   225          5
   253         34
   254          4
   259          1
   288        128
   289         14
   290         44
   291          5