##TITLE=Library Entry 66336
##JCAMP-DX=Revision 4.10 
##DATA TYPE=MASS SPECTRUM
##SAMPLE DESCRIPTION=Japan AIST/NIMC Database- Spectrum MS-NW-5742
##NAMES=HP
##CAS NAME=2-Benzoylacetanilide
##MOLFORM=C15H13NO2
##CAS REGISTRY NO=959-66-0
##MP= -300
##BP= -300
##MW= 239
##$RETENTION INDEX=0
##$CONDENSED SPECTRUM=NO
##NPOINTS= 121
##XYDATA=(XY..XY) 1 
    13          1
    14          2
    15          2
    17          1
    18          3
    26          5
    27         21
    28         13
    29          3
    30          2
    36          1
    37         11
    38         28
    39        109
    40         15
    41         16
    42          9
    43         11
    44          2
    45          2
    46          3
    49          6
    50         62
    51        191
    52         31
    53          7
    54          9
    55          3
    56          2
    57          4
    59          3
    60          2
    61          7
    62         18
    63         50
    64         34
    65        131
    66         78
    67         11
    68          2
    69         91
    70          3
    71          3
    73          3
    74         21
    75         19
    76         30
    77        566
    78         90
    79         11
    80          2
    83          1
    85          2
    86          2
    87          3
    88          2
    89         20
    90         11
    91         61
    92         48
    93        999
    94         72
    95          3
    97          2
    98          1
    99          1
   101          2
   102          6
   103          6
   104          8
   105        636
   106         68
   107          5
   113          1
   115          2
   116          1
   117          3
   118          4
   119         19
   120        294
   121         29
   122          2
   128          1
   129          2
   132          2
   133          1
   134          3
   135          2
   136          2
   137          1
   139          1
   141          1
   146         66
   147         42
   148          4
   149          1
   152          2
   160          1
   161          1
   165          2
   166          1
   167          3
   168          2
   178          1
   180          2
   182          1
   193          1
   194          2
   196          3
   197          2
   210          2
   211          1
   220          2
   221          1
   222          1
   223          1
   238          1
   239        407
   240         69
   241          9
   242          1