##TITLE=Library Entry 18848
##JCAMP-DX=Revision 4.10 
##DATA TYPE=MASS SPECTRUM
##SAMPLE DESCRIPTION=J. Little, Eastman chemical company.
##NAMES=HP
##CAS NAME=1,3,5-Triacryloylhexahydro-s-triazine
##MOLFORM=C12H15N3O3
##CAS REGISTRY NO=959-52-4
##MP= -300
##BP= -300
##MW= 249
##$RETENTION INDEX=0
##$CONDENSED SPECTRUM=NO
##NPOINTS= 58
##XYDATA=(XY..XY) 1 
    27        567
    29        106
    39         51
    41        278
    42        350
    43        205
    45         26
    53         48
    54         35
    55        999
    56         92
    57        183
    67         52
    68         29
    69        232
    70         59
    71         88
    79         24
    81         58
    82         50
    83        111
    84        160
    85         63
    94         28
    95         61
    96         25
    97        182
    98         28
    99         65
   108         34
   109         31
   110         17
   111        176
   112         93
   113         16
   123         68
   124         40
   125         18
   137         16
   138         25
   139         24
   149         25
   150         13
   151         15
   153         45
   154          8
   155          7
   163          7
   165         11
   166         36
   167         11
   178         32
   179         11
   193          8
   194         29
   195          7
   207          7
   249         13