##TITLE=Library Entry 79792
##JCAMP-DX=Revision 4.10 
##DATA TYPE=MASS SPECTRUM
##SAMPLE DESCRIPTION=Japan AIST/NIMC Database- Spectrum MS-IW-4897
##NAMES=HP
##CAS NAME=trans-1,2-Dibenzoylethylene
##MOLFORM=C16H12O2
##CAS REGISTRY NO=959-28-4
##MP= -300
##BP= -300
##MW= 236
##$RETENTION INDEX=0
##$CONDENSED SPECTRUM=NO
##NPOINTS= 61
##XYDATA=(XY..XY) 1 
    26          2
    27          5
    28          3
    38          1
    39          5
    50         23
    51         99
    52          7
    53          8
    54          4
    62          2
    63          4
    65          1
    74          8
    75          8
    76         15
    77        398
    78         30
    79          1
    82          2
    87          1
    89          3
    90          2
   101          1
   102          9
   103         25
   104          5
   105        999
   106         85
   107          5
   110          1
   115          8
   118          4
   130          7
   131         59
   132          6
   133          2
   143          1
   152          1
   159         26
   160          3
   165          3
   178          4
   179          8
   180          5
   181          1
   189          1
   191          3
   192          1
   207         30
   208         57
   209          9
   210          1
   218          1
   220          9
   221          1
   235          1
   236        372
   237         66
   238         10
   239          1