##TITLE=Library Entry 50668
##JCAMP-DX=Revision 4.10 
##DATA TYPE=MASS SPECTRUM
##SAMPLE DESCRIPTION=NIST Mass Spectrometry Data Center, 2010
##NAMES=HP
##CAS NAME=2-Ethylcyclohexanol, heptafluorobutyrate
##MOLFORM=C12H15F7O2
##CAS REGISTRY NO=959079-92-6
##MP= -300
##BP= -300
##MW= 324
##$RETENTION INDEX=1079
##$CONDENSED SPECTRUM=NO
##NPOINTS= 91
##XYDATA=(XY..XY) 1 
    15          2
    20          1
    26          4
    27         70
    28         18
    29         84
    30          2
    31          9
    37          1
    38          4
    39        114
    40         22
    41        343
    42         95
    43        108
    44          9
    45         23
    46          1
    47          3
    50         11
    51         25
    52         12
    53         92
    54        108
    55        305
    56        128
    57         32
    58          2
    59         13
    60          1
    61          1
    62          2
    63          4
    64          1
    65         27
    66         33
    67        326
    68        128
    69        424
    70         22
    71          5
    72          1
    73          1
    74          1
    75          1
    77         31
    78          9
    79        107
    80         50
    81        999
    82        243
    83         19
    84          6
    85          2
    89          1
    91         12
    92          1
    93         14
    94          3
    95        159
    96         13
    97          4
    98          2
    99          1
   100         43
   101          1
   105          1
   106          1
   107          2
   108          2
   109         28
   110        491
   111        263
   112         21
   113          1
   119         43
   120          1
   126          2
   131          6
   147          1
   150         15
   151          1
   159          1
   169        113
   170          3
   197          4
   215          1
   225          2
   240          1
   253          2
   324          1