##TITLE=Library Entry 37385
##JCAMP-DX=Revision 4.10 
##DATA TYPE=MASS SPECTRUM
##SAMPLE DESCRIPTION=NIST Mass Spectrometry Data Center
##NAMES=HP
##CAS NAME=Pentafluoropropionic acid, heptyl ester
##MOLFORM=C10H15F5O2
##CAS REGISTRY NO=959033-16-0
##MP= -300
##BP= -300
##MW= 262
##$RETENTION INDEX=992
##$CONDENSED SPECTRUM=NO
##NPOINTS= 84
##XYDATA=(XY..XY) 1 
    15          6
    20          1
    25          1
    26         12
    27        198
    28         67
    29        340
    30          9
    31         22
    32          1
    33          6
    37          1
    38          6
    39        198
    40         48
    41        952
    42        395
    43        617
    44         30
    45         14
    46          1
    47          8
    48          1
    50         19
    51         15
    52          6
    53         56
    54         89
    55        720
    56        983
    57        839
    58         34
    59          3
    61          2
    62          1
    63          2
    65          9
    66          3
    67         67
    68        212
    69        821
    70        999
    71         64
    72          2
    75          1
    77          5
    78          8
    79          8
    80          2
    81         21
    82          9
    83        121
    84          8
    85          3
    91          1
    93          3
    95          1
    96          5
    97         21
    98         81
    99          8
   100         60
   101          3
   109          5
   117          2
   119        552
   120         10
   125          3
   127          1
   128          9
   143         29
   144          3
   145          1
   147         79
   148          2
   149         13
   150          1
   163          2
   165          2
   175          1
   177          8
   190          1
   191          2
   205          5