##TITLE=Library Entry 44303
##JCAMP-DX=Revision 4.10 
##DATA TYPE=MASS SPECTRUM
##SAMPLE DESCRIPTION=Tox21 Consortium/NIST Mass Spectrometry Data Center, 20
12
##NAMES=HP
##CAS NAME=Lorazepam, 2TMS derivative
##MOLFORM=C21H26Cl2N2O2Si2
##CAS REGISTRY NO=959089-69-1
##MP= -300
##BP= -300
##MW= 464
##$RETENTION INDEX=0
##$CONDENSED SPECTRUM=NO
##NPOINTS= 362
##XYDATA=(XY..XY) 1 
    15          1
    27          1
    29          5
    31          2
    35          1
    39          2
    42          1
    43         24
    44         19
    45        175
    46         11
    47         18
    49          1
    51          4
    52          1
    53          2
    54          1
    55          4
    56          2
    57          7
    58          9
    59         25
    60          5
    61         10
    63          7
    64          1
    65          6
    66          2
    67          1
    70          7
    71          5
    72         23
    73        999
    74         90
    75        105
    76          8
    77          5
    79          3
    80          1
    81          2
    84          4
    85          3
    86          3
    87          5
    88          1
    89          4
    90          2
    91         13
    92          3
    93         47
    94          3
    95         19
    96          1
    97          3
    99          4
   100         28
   101          7
   102         12
   103          7
   104          4
   105         10
   106          2
   107          1
   108          1
   109          1
   110          4
   111         10
   113          6
   114          3
   115          4
   116          3
   117          7
   118          1
   119          4
   120          3
   121          2
   122          2
   123          2
   124          4
   125          6
   126          4
   127          3
   128          3
   129          1
   130          2
   131         25
   132          5
   133         34
   134          7
   135          5
   136          3
   137         11
   138         11
   139          9
   140          2
   141         11
   142          3
   143          3
   144          2
   145          2
   146          2
   147        195
   148         34
   149         20
   150         12
   151         10
   152          4
   153          4
   154          1
   155          3
   157          2
   158          1
   159          1
   160          2
   161          3
   162          4
   163         13
   164          7
   165          5
   166          3
   167          5
   168          3
   169          5
   170          2
   171          2
   172          2
   173          1
   174          5
   175          5
   176         11
   177         43
   178          9
   179          3
   180          3
   181          2
   182          4
   183          2
   184          3
   185          2
   186          4
   187          3
   188          7
   189          5
   190          4
   191          9
   192          4
   193          2
   194          2
   196          6
   197          3
   198          4
   199          3
   200          2
   201          2
   202          2
   203          5
   204          5
   205          3
   206          4
   208          1
   210          1
   211          5
   212          8
   213          7
   214          4
   215          5
   216          2
   217          5
   218          5
   219          2
   220          2
   221          1
   222          1
   223          1
   224          5
   225          5
   226          3
   227          3
   228          2
   229          2
   231          2
   232          3
   233          3
   234          2
   235          3
   236          1
   237          2
   238          5
   239         19
   240         15
   241         11
   242          5
   243          1
   244          1
   245          1
   246          1
   247          5
   248          2
   249          4
   250          2
   251          2
   252          1
   253          1
   254          3
   255          4
   256          3
   257          1
   258          1
   260          2
   261          2
   262          2
   263          2
   264          1
   265          3
   266          1
   267         16
   268          6
   269          8
   270          3
   271          2
   272          1
   273          9
   275          7
   276          3
   277          6
   278          4
   279          2
   281          2
   282          1
   283          2
   284          1
   285          1
   289          1
   290          2
   291          2
   292          1
   293          1
   295          1
   296          1
   297          8
   298          3
   299          6
   300          2
   301          3
   303          3
   305          5
   306          8
   307          4
   308          1
   309          1
   310          1
   311          8
   312          6
   313         18
   314          5
   315          6
   316          2
   317          1
   319          1
   320          2
   321          5
   322          2
   323          1
   324          2
   325          3
   326          2
   327          5
   328          2
   329          1
   330          1
   331          1
   332          1
   333          2
   334          1
   335          2
   336          1
   337          1
   338          1
   339          6
   340         10
   341         42
   342         14
   343         16
   344          3
   345         13
   346          4
   347         70
   348         19
   349         51
   350         13
   351          9
   352          4
   353          2
   355          5
   356          1
   357          3
   358          2
   359          2
   360          2
   361         12
   362          4
   363         17
   364          5
   365         10
   366          3
   367          2
   373          1
   374          2
   375          3
   376          3
   377          4
   378          1
   379          3
   385          1
   387          1
   393          1
   394          4
   395          2
   396          1
   397          1
   399          3
   401          2
   402          1
   403          1
   405         15
   406          4
   407          9
   408          3
   409          3
   411          1
   413          1
   416          1
   419          1
   421          3
   422          2
   423          2
   425          1
   427          1
   429        665
   430        227
   431        301
   432         87
   433         28
   434          5
   435         11
   436          3
   437          6
   438          2
   439          1
   449         37
   450         10
   451         27
   452          9
   453          7
   454          2
   455          1
   463          3
   464          5
   465          4
   466          5
   467          2
   468          2