##TITLE=Library Entry 41302
##JCAMP-DX=Revision 4.10 
##DATA TYPE=MASS SPECTRUM
##SAMPLE DESCRIPTION=Tox21 Consortium/NIST Mass Spectrometry Data Center, 20
12
##NAMES=HP
##CAS NAME=Ethacrynic acid, TMS derivative
##MOLFORM=C16H20Cl2O4Si
##CAS REGISTRY NO=959044-53-2
##MP= -300
##BP= -300
##MW= 374
##$RETENTION INDEX=0
##$CONDENSED SPECTRUM=NO
##NPOINTS= 321
##XYDATA=(XY..XY) 1 
    15          2
    26          1
    27         23
    28          7
    29         48
    30          2
    31          2
    35          1
    36          2
    37          1
    38          2
    39         29
    40          4
    41          3
    42          9
    43         26
    44         16
    45         91
    46          6
    47         29
    48          2
    49          2
    50          4
    51          8
    52          2
    53         32
    54         20
    55        268
    56         13
    57          8
    58         25
    59         22
    60          6
    61         18
    62          8
    63         12
    64          1
    65          8
    66          1
    67          3
    68          1
    69          2
    70          3
    71          4
    72         48
    73        999
    74        102
    75        323
    76         24
    77         21
    78          3
    79          9
    80          1
    81          4
    82         29
    83        210
    84         15
    85          4
    86          3
    87          7
    88         20
    89         12
    90          3
    91          7
    92          3
    93         58
    94          5
    95         27
    96          4
    97         27
    98          4
    99         12
   100          3
   101         35
   102          9
   103         23
   104          4
   105          6
   106          1
   107          4
   108          4
   109         32
   110         10
   111         16
   112          4
   113         10
   114          4
   115         25
   116         45
   117         30
   118          4
   119          6
   120          2
   121          2
   122          1
   123         37
   124         25
   125         12
   126          5
   127         13
   128         18
   129         16
   130         17
   131          9
   132          5
   133         16
   134          8
   135          6
   136          4
   137         15
   138          9
   139         14
   140          4
   141          6
   142          3
   143          7
   144         23
   145         16
   146         15
   147         14
   148          5
   149         10
   150          4
   151         10
   152          7
   153         13
   154          3
   155          6
   156          2
   157          4
   158          2
   159          4
   160         10
   161          8
   162          9
   163          6
   164          5
   165          8
   166          3
   167          6
   168          2
   169          3
   170          2
   171          3
   172         26
   173         13
   174         18
   175         11
   176          5
   177          5
   178          2
   179          6
   180          7
   181          6
   182          5
   183          6
   184          3
   185          5
   186          2
   187          3
   188          5
   189          7
   190          5
   191          6
   192          3
   193          6
   194          2
   195          4
   196          1
   197          3
   198          2
   199          4
   200          2
   201          8
   202          2
   203          7
   204          1
   205          3
   206          1
   207          2
   208          2
   209          2
   210          1
   211          3
   212          6
   213          4
   214          5
   215          8
   216          3
   217          6
   218          2
   219          2
   220          1
   221          4
   222          1
   223          2
   225          2
   226          4
   227         14
   228          6
   229          8
   230          2
   231          4
   232          1
   233          2
   234          1
   235          1
   236          1
   237          3
   238          2
   239          2
   240          1
   241         11
   242          3
   243        203
   244         25
   245        131
   246         16
   247         25
   248          4
   249          3
   250          2
   251          7
   252          3
   253          4
   254          1
   255          3
   256          5
   257          5
   258          3
   259          3
   260          1
   261         40
   262          7
   263         29
   264          5
   265         15
   266         18
   267          8
   268          7
   269          4
   270          1
   271          3
   272          1
   273          2
   274          1
   275          2
   276          1
   277          1
   279          2
   280          1
   281          4
   282          1
   283          1
   284          1
   285          6
   286          2
   287          5
   288          1
   289          3
   290          1
   291          1
   293          1
   294          5
   295          8
   296          4
   297          4
   298          1
   299          1
   300          5
   301         18
   302          6
   303         18
   304         10
   305          6
   306          2
   307          1
   309         13
   310          3
   311          7
   312          1
   313          1
   315          4
   316          1
   317          3
   319        186
   320         34
   321        125
   322         21
   323         27
   324         15
   325          4
   326          5
   327          1
   329         17
   330          3
   331         14
   332          3
   333          4
   334          1
   335          1
   338          3
   339         95
   340         22
   341         36
   342          8
   343          2
   345          1
   346          1
   359         12
   360          3
   361          8
   362          2
   363          2
   373          2
   374         44
   375         12
   376         30
   377          6
   378          7
   379          1