##TITLE=Library Entry 24719
##JCAMP-DX=Revision 4.10 
##DATA TYPE=MASS SPECTRUM
##SAMPLE DESCRIPTION=NIST Mass Spectrometry Data Center
##NAMES=HP
##CAS NAME=Pentafluoropropionic acid, pentadecyl ester
##MOLFORM=C18H31F5O2
##CAS REGISTRY NO=959092-08-1
##MP= -300
##BP= -300
##MW= 374
##$RETENTION INDEX=1728
##$CONDENSED SPECTRUM=NO
##NPOINTS= 114
##XYDATA=(XY..XY) 1 
    15          1
    26          3
    27         46
    28         16
    29        136
    30          4
    33          2
    37          1
    39         68
    40         19
    41        555
    42        151
    43        815
    47          2
    50          2
    51          4
    52          3
    53         46
    54        100
    55        913
    56        393
    57        999
    58         42
    59          2
    61          2
    63          1
    65          9
    66         12
    67        140
    68        168
    69        753
    70        388
    71        488
    72         25
    73          1
    77          6
    78          3
    79         17
    80          6
    81         84
    82        343
    83        741
    84        299
    85        309
    86         19
    87          1
    91          2
    93          4
    94          2
    95         40
    96        157
    97        709
    98        205
    99         72
   100         18
   101          1
   107          1
   109         16
   110         73
   111        405
   112        141
   113         38
   114          3
   117          1
   119        190
   120          4
   122          1
   123          6
   124         41
   125        182
   126         94
   127         25
   128          5
   137          3
   138         24
   139         53
   140         53
   141         16
   142          1
   147         24
   148          1
   149          7
   151          1
   152         12
   153         22
   154         29
   155          8
   156          1
   163          1
   165          3
   166          5
   167         11
   168         12
   169          3
   177          2
   180          3
   181          5
   182         47
   183          7
   188          1
   191          1
   202          1
   205          1
   207          1
   208          2
   210         51
   211          8
   212          1
   237          2
   255         17
   256          3
   257          1
   356          6
   357          1