##TITLE=Library Entry 44049
##JCAMP-DX=Revision 4.10 
##DATA TYPE=MASS SPECTRUM
##SAMPLE DESCRIPTION=NIST Mass Spectrometry Data Center
##NAMES=HP
##CAS NAME=2-Hydroxybenzeneacetic acid, 2TBDMS derivative
##MOLFORM=C20H36O3Si2
##CAS REGISTRY NO=959090-83-6
##MP= -300
##BP= -300
##MW= 380
##$RETENTION INDEX=2026
##$CONDENSED SPECTRUM=NO
##NPOINTS= 194
##XYDATA=(XY..XY) 1 
    27          3
    28          1
    29         23
    30          1
    31          2
    38          1
    39         10
    41         50
    42          3
    43         19
    44          3
    45         46
    46          3
    47         17
    48          1
    49          1
    50          1
    51          3
    52          1
    53          3
    54          1
    55          7
    56         20
    57         85
    58         25
    59         83
    60          9
    61         12
    62          1
    63          4
    64          1
    65          4
    66          1
    67          1
    68          1
    69          3
    70          1
    71          3
    73        999
    74        100
    75        209
    76         15
    77         25
    78         10
    79         10
    80          1
    81          1
    82          2
    83          4
    84          1
    85         12
    86          2
    87          2
    88          1
    89         18
    90         12
    91         74
    92          6
    93          2
    95          3
    96          1
    97          3
    98          1
    99         12
   100          3
   101          3
   102          3
   103         20
   104          8
   105         51
   106          7
   107         11
   108          1
   109          2
   110          1
   111          5
   113          2
   115         35
   116          6
   117          8
   118         13
   119        100
   121         15
   122          2
   123          4
   127          1
   128          1
   129          2
   130          1
   131         15
   133        127
   134         23
   135         76
   136         10
   137         14
   138          2
   139          1
   143          2
   145          6
   147        559
   148        103
   149        204
   150         32
   151         19
   152          2
   153          1
   157          1
   159          3
   160          1
   161         27
   162          5
   163         63
   164         36
   165         53
   166          8
   167          6
   168          1
   173         15
   174          3
   175          6
   176          1
   177         18
   178          3
   179         13
   180          3
   181         34
   182          5
   183          2
   187          1
   189         15
   190          3
   191          3
   192          5
   193          6
   194          2
   195         53
   196         10
   197          5
   198          1
   203          1
   205          9
   206          2
   207          5
   208          4
   209         86
   210         16
   211          8
   212          1
   215          1
   219          7
   220          2
   221         13
   223        158
   224         35
   225         21
   226          3
   227          1
   233         21
   234          5
   235          5
   236          1
   237         18
   239        685
   240        159
   241         66
   242         10
   243          2
   248          1
   249         22
   250          5
   251          7
   253        227
   254         54
   255         21
   256          3
   257          1
   265          2
   266          1
   267          1
   279          1
   295         11
   296          3
   297          1
   307          1
   323        849
   324        257
   325        100
   326         19
   327          3
   365         34
   366         10
   367          4
   368          1
   379          2