##TITLE=Library Entry 81374
##JCAMP-DX=Revision 4.10 
##DATA TYPE=MASS SPECTRUM
##SAMPLE DESCRIPTION=J.M. Halket, Trace Anal. Unit (TAU), London, UK
##NAMES=HP
##CAS NAME=1H-Indole-2,3-dione, 7-(3-methylbutyl)-
##MOLFORM=C13H15NO2
##CAS REGISTRY NO=959029-46-0
##MP= -300
##BP= -300
##MW= 217
##$RETENTION INDEX=0
##$CONDENSED SPECTRUM=NO
##NPOINTS= 109
##XYDATA=(XY..XY) 1 
    37         11
    38         31
    39        182
    40         24
    41        169
    42         20
    43         70
    44          7
    45          4
    46          1
    50         59
    51        188
    52         79
    53         35
    54          9
    55         10
    56          3
    57         11
    58         25
    61          8
    62         35
    63         97
    64         53
    65         86
    67          5
    68          2
    69          2
    71          3
    72          9
    73         17
    74         19
    75         34
    76         81
    77        250
    78         90
    79         25
    81          1
    84          1
    86          5
    87          9
    88         11
    89         91
    90         81
    91        161
    92         21
    93          6
    94          1
    98          2
    99          2
   100          4
   101          7
   102         42
   103         79
   104        306
   105        999
   106         92
   107          6
   113          2
   114          6
   115         28
   116         49
   117        114
   118         81
   119         78
   120         13
   121          1
   126          2
   127         12
   128         33
   129         20
   130         61
   131         48
   132        163
   133        445
   134         55
   135          5
   140          1
   141          2
   142          3
   143          9
   144         21
   146        276
   147         31
   148          3
   154          1
   155          1
   156          3
   157          4
   158          4
   159          6
   160         45
   161        487
   162         57
   163          3
   170          1
   171          1
   172          7
   174        265
   175         32
   176          2
   188         17
   189          9
   190          3
   191          1
   213          1
   214          1
   217        381
   218         66
   219          6