##TITLE=Library Entry 42047
##JCAMP-DX=Revision 4.10 
##DATA TYPE=MASS SPECTRUM
##SAMPLE DESCRIPTION=Chemical Concepts
##NAMES=HP
##CAS NAME=Ethanol, 1-phenyl-2-(2-trimethylsilylcyclopropenyl)-
##MOLFORM=C14H20OSi
##CAS REGISTRY NO=959040-16-5
##MP= -300
##BP= -300
##MW= 232
##$RETENTION INDEX=0
##$CONDENSED SPECTRUM=NO
##NPOINTS= 132
##XYDATA=(XY..XY) 1 
    26          4
    27         40
    28         46
    29         22
    31         11
    38          4
    39         36
    40          3
    41         22
    42          4
    43         80
    44         25
    45        160
    46         10
    47         27
    50         23
    51         76
    52         22
    53         17
    54          3
    55         19
    57         11
    58         21
    59         37
    60          5
    61         17
    62          4
    63         14
    64          3
    65         16
    66          4
    67          9
    69         13
    70          4
    71          6
    72         10
    73        999
    74         88
    75        439
    76         38
    77        259
    78         47
    79        447
    80         28
    81          9
    82          4
    83         24
    84          6
    85         16
    86          3
    87          3
    89         10
    90          3
    91         56
    92          7
    95          8
    96          4
    97          7
    98          3
    99          6
   101          7
   102         10
   103         25
   104         24
   105        116
   106         33
   107        764
   108         57
   109         10
   110          3
   111         30
   112          6
   113          8
   114          3
   115         51
   116         24
   117         14
   120         14
   121          4
   122          9
   125          4
   126          8
   127         25
   128         16
   129         12
   130          4
   131          8
   133          5
   135          7
   139          7
   140          2
   141        308
   142        144
   143         33
   144          3
   145         10
   146          5
   147         14
   148          3
   149          3
   155          3
   157          4
   158          9
   159         13
   161          4
   163          3
   164         17
   165          3
   171          4
   172          3
   173          4
   179         53
   180          9
   181          3
   183         17
   184          3
   185          4
   189          2
   199         11
   200          3
   201         23
   202          4
   203          4
   214          3
   215         34
   216         20
   217         35
   218          8
   229          4
   230          3
   231         30
   232          9