##TITLE=Library Entry 27641
##JCAMP-DX=Revision 4.10 
##DATA TYPE=MASS SPECTRUM
##SAMPLE DESCRIPTION=NIST Mass Spectrometry Data Center
##NAMES=HP
##CAS NAME=Tris(2,4-di-tert-butylphenyl) phosphate
##MOLFORM=C42H63O4P
##CAS REGISTRY NO=95906-11-9
##MP= -300
##BP= -300
##MW= 662
##$RETENTION INDEX=3582
##$CONDENSED SPECTRUM=NO
##NPOINTS= 215
##XYDATA=(XY..XY) 1 
    29         27
    39          6
    41        162
    42          5
    43         15
    51          2
    53          9
    55         77
    56          4
    57        999
    58         44
    63          1
    65          6
    66          1
    67          9
    69         21
    77         15
    78          4
    79         16
    81          5
    90          1
    91        110
    92         10
    93          8
    95          6
   102          1
   103         10
   104          8
   105         65
   106          8
   107         32
   108          2
   109          4
   115         55
   116         25
   117         81
   118         15
   119         64
   120          9
   121         21
   122          2
   127          9
   128         43
   129         50
   130         17
   131         95
   132         32
   133         32
   134          8
   135         20
   136          2
   141         13
   142         15
   143         35
   144         13
   145         23
   146          6
   147        143
   148         20
   149         34
   150          4
   153          4
   154          1
   155          4
   156          4
   157         19
   158          9
   159         61
   160          9
   161         15
   163         23
   171          5
   172          5
   173         21
   174          5
   175         66
   176          9
   178         35
   179         15
   180          1
   186          1
   187         27
   188          8
   189         15
   190          5
   191        227
   192         34
   193          6
   194          8
   197         27
   198          1
   203          4
   206         68
   208          9
   209          8
   210          4
   211          4
   213          6
   214          1
   215         20
   216          2
   217          2
   219         16
   220          2
   222         21
   225         12
   226          1
   227          1
   229          4
   233          2
   235         16
   236          2
   237         54
   238          8
   239          2
   251         21
   252          5
   253         74
   254          9
   255          4
   263         12
   265          5
   271          5
   272          1
   273          4
   287          1
   289         17
   290          2
   291         91
   292         16
   293          2
   302         13
   303          9
   305         20
   306          2
   307          4
   308         21
   313          1
   316        604
   321          8
   327          2
   329          8
   330          1
   331         15
   336          1
   339          1
   343          1
   345          8
   346          1
   347          9
   348          1
   361          9
   362          2
   363          2
   367         34
   368          6
   369          2
   379          4
   381          5
   385          2
   387          2
   401          5
   402          1
   403         10
   404          2
   407          5
   421          1
   423         10
   424          2
   425          1
   427          1
   437          5
   443         15
   444          4
   447          1
   457          2
   459         24
   460          6
   461          1
   463          1
   479         10
   480          4
   493          5
   494          1
   519          1
   535         16
   536          5
   537          1
   549          2
   550          1
   575         21
   576          8
   577          2
   589          2
   591         29
   592         12
   593          2
   605          6
   606          2
   607          1
   617          1
   619          1
   631          5
   632          2
   634          1
   645          1
   647        888
   648        393
   649         94
   650         15
   661          6
   662        516
   663        238
   664         57
   665          9