##TITLE=Library Entry 100947
##JCAMP-DX=Revision 4.10 
##DATA TYPE=MASS SPECTRUM
##SAMPLE DESCRIPTION=NIST Mass Spectrometry Data Center
##NAMES=HP
##CAS NAME=4-Nitrophenol, pentafluoropropionate
##MOLFORM=C9H4F5NO4
##CAS REGISTRY NO=959070-21-4
##MP= -300
##BP= -300
##MW= 285
##$RETENTION INDEX=1224
##$CONDENSED SPECTRUM=NO
##NPOINTS= 149
##XYDATA=(XY..XY) 1 
    26          6
    27          3
    28          6
    29          2
    30         90
    31         20
    32          2
    36          1
    37         10
    38         57
    39         13
    40          2
    41          2
    44          2
    45          2
    46          5
    47          1
    49          3
    50         95
    51         29
    52         32
    53         19
    54         16
    55          2
    57          2
    60          1
    61         17
    62         59
    63        231
    64        218
    65         16
    66          5
    67          2
    68         11
    69        182
    70          2
    71          2
    73          5
    74         30
    75        135
    76         60
    77          5
    78          8
    79          8
    80         30
    81          7
    82          8
    83         14
    84          1
    86          1
    87          1
    88          1
    90          1
    91          6
    92        217
    93         17
    94          4
    95        206
    96         17
    97          3
   100         25
   101          3
   102          2
   104          1
   106          5
   107          2
   108         58
   109         12
   110          1
   111          4
   112          1
   113          1
   114         12
   115          1
   117          1
   119        999
   120         25
   121          5
   122        123
   123         12
   124          3
   125          1
   126          7
   127          1
   128          5
   132          1
   133          6
   134          1
   136          1
   138          1
   139          9
   140          1
   141          2
   142          2
   143          1
   145          2
   147        113
   148          3
   149          1
   151         11
   152          1
   154          1
   161          9
   162          1
   163         20
   164          4
   166         11
   167          1
   168          1
   170         11
   171          3
   173          1
   176          4
   183          2
   188          2
   189          4
   191          3
   192         64
   193          6
   199         39
   200          3
   208          1
   210          1
   211         13
   212          1
   220          3
   221          8
   222          1
   227         47
   228          4
   229          1
   238          4
   239         40
   240          4
   241          1
   249          1
   253          1
   254          1
   255         53
   256          5
   266          1
   269         22
   270          1
   271          1
   281          1
   285        403
   286         44
   287          6
   288          1