##TITLE=Library Entry 40161
##JCAMP-DX=Revision 4.10 
##DATA TYPE=MASS SPECTRUM
##SAMPLE DESCRIPTION=Chemical Concepts
##NAMES=HP
##CAS NAME=3-Hydroxynonanamide, N,N-dimethyl-
##MOLFORM=C11H23NO2
##CAS REGISTRY NO=959104-22-4
##MP= -300
##BP= -300
##MW= 201
##$RETENTION INDEX=0
##$CONDENSED SPECTRUM=NO
##NPOINTS= 133
##XYDATA=(XY..XY) 1 
    26         13
    27        155
    28          0
    29        195
    30         54
    31         26
    37          2
    38          6
    39        104
    40         23
    41        289
    42        165
    43        299
    44        483
    45        688
    46        266
    47          8
    50          4
    51          9
    52          4
    53         32
    54         24
    55        309
    56         46
    57         93
    58         83
    59         14
    60         15
    61          2
    63          2
    65          7
    66          5
    67         40
    68         34
    69        107
    70         94
    71         59
    72        999
    73         85
    74         74
    75          3
    77          7
    78          2
    79         15
    80          4
    81         41
    82         13
    83         28
    84         37
    85         21
    86         30
    87        626
    88         55
    89          5
    91          6
    92          2
    93         11
    94          6
    95         22
    96         22
    97         66
    98         70
    99         17
   100         45
   101         10
   102          2
   105          2
   107          7
   108          2
   109          9
   110          5
   111         13
   112         20
   113         31
   114         18
   115          9
   116        940
   117         98
   118          9
   119          2
   121          4
   122          2
   123          2
   124          2
   125         15
   126         65
   127        110
   128         13
   129         17
   130        104
   131         12
   132          1
   133          2
   135          3
   136          2
   138          3
   139         29
   140         76
   141         57
   142         13
   143          4
   144          3
   145          6
   149          2
   152          2
   153         13
   154         65
   155         12
   156          4
   157          2
   158         24
   159          4
   167          2
   168         22
   169          4
   170          1
   171          1
   172         10
   173          1
   179          1
   180          6
   181          4
   182         10
   183        171
   184         48
   185          5
   186         21
   187          3
   200         16
   201         23
   202         41
   203          5
   204          1