##TITLE=Library Entry 11903
##JCAMP-DX=Revision 4.10 
##DATA TYPE=MASS SPECTRUM
##SAMPLE DESCRIPTION=H. Luftmann, Org. Chem. Inst., Westfalisch Wilhelms Uni
v., Munster, Germany
##NAMES=HP
##CAS NAME=Heptanoic acid, 2,2-dichloro-3-hydroxy-4-methyl-, ethyl ester
##MOLFORM=C10H18Cl2O3
##CAS REGISTRY NO=959110-23-7
##MP= -300
##BP= -300
##MW= 256
##$RETENTION INDEX=0
##$CONDENSED SPECTRUM=NO
##NPOINTS= 106
##XYDATA=(XY..XY) 1 
    36         50
    38         20
    39        110
    40         20
    41        420
    42        240
    43        999
    44         60
    45        300
    46         10
    47         10
    48         20
    49         20
    50         10
    51         30
    53         60
    54         20
    55        550
    56         60
    57        200
    58        270
    59        220
    63         10
    65         30
    67         30
    69         70
    70        260
    71        250
    72         10
    73         30
    74         60
    75         20
    76         40
    77         70
    78         20
    79         40
    81         20
    82         10
    83        390
    84         40
    85         40
    87         40
    88         20
    89         40
    91         20
    93         20
    94         40
    95         40
    96         30
    97         40
    98         20
    99         40
   100         10
   101        100
   102         20
   103         20
   104        130
   105         90
   106         60
   107         70
   109         20
   110         50
   111         50
   112         50
   113         80
   114         20
   115         80
   116         20
   117         40
   119         10
   120         10
   121         30
   122        420
   123        180
   124        150
   125         70
   128        660
   129         40
   130        500
   131         30
   132         80
   133         80
   134         30
   135         60
   136         20
   137         10
   139         30
   141         30
   143         30
   147         20
   149         10
   150        130
   151        120
   152         50
   153         40
   156        550
   157        100
   158        370
   159         70
   160         70
   161         20
   169         10
   175         10
   185        110
   187         80
   189         20