##TITLE=Library Entry 41043
##JCAMP-DX=Revision 4.10 
##DATA TYPE=MASS SPECTRUM
##SAMPLE DESCRIPTION=Chemical Concepts
##NAMES=HP
##CAS NAME=Silane, (2-ethyl-4-methylene-1-cyclopenten-1-yl)trimethyl-
##MOLFORM=C11H20Si
##CAS REGISTRY NO=95911-32-3
##MP= -300
##BP= -300
##MW= 180
##$RETENTION INDEX=0
##$CONDENSED SPECTRUM=NO
##NPOINTS= 90
##XYDATA=(XY..XY) 1 
    27         20
    28          0
    29         21
    31         37
    39         29
    40          4
    41         21
    42          4
    43        122
    44         36
    45        209
    46         13
    47          6
    50          2
    51         11
    52          5
    53         22
    54          5
    55         29
    56          3
    57         17
    58         32
    59        353
    60         25
    61         13
    63          4
    65         15
    66          6
    67         21
    68          6
    69         31
    70          6
    71         13
    72         16
    73        999
    74        173
    75         76
    76          3
    77         24
    78         14
    79         27
    80          3
    81         15
    82          3
    83         44
    84          4
    85         17
    87         13
    91         84
    92         10
    93         13
    95         18
    96          7
    97         17
    99          8
   103          5
   104          3
   105         53
   106        184
   107         40
   108          3
   109         21
   110          3
   111         26
   112          3
   119          6
   120          2
   121         17
   122          3
   123         16
   125          4
   131          2
   133          4
   135         25
   136          8
   137         19
   138          2
   145          3
   147          5
   149          7
   151          4
   161          2
   163          9
   164          3
   165         68
   166         11
   167          3
   180        142
   181         22
   182          6