##TITLE=Library Entry 42728
##JCAMP-DX=Revision 4.10 
##DATA TYPE=MASS SPECTRUM
##SAMPLE DESCRIPTION=NIST Mass Spectrometry Data Center
##NAMES=HP
##CAS NAME=2-Ethyl 1,3-bis(trimethylsilyl) 2-((trimethylsilyl)oxy)propane-1,
2,3-tricarboxylate
##MOLFORM=C17H36O7Si3
##CAS REGISTRY NO=959234-55-0
##MP= -300
##BP= -300
##MW= 436
##$RETENTION INDEX=1807
##$CONDENSED SPECTRUM=NO
##NPOINTS= 153
##XYDATA=(XY..XY) 1 
    27          3
    29         27
    31          3
    39          6
    43         25
    44         20
    45         79
    46          4
    53          5
    55          9
    57          5
    58         18
    59         11
    60          6
    61         19
    65          6
    67         32
    68          6
    69          7
    70         10
    71          5
    72         32
    73        999
    74         98
    75        184
    76         13
    77         28
    79          4
    85         13
    88          8
    89          9
    91          8
    93          4
    95          4
    97         10
    98          3
    99         26
   102          7
   103         19
   104          5
   105          9
   106          5
   109          3
   111         19
   113         31
   115         57
   116         25
   117         53
   118          8
   119         36
   121          3
   128          7
   129         41
   131         70
   133        137
   134         29
   135         15
   139         11
   141         27
   142          9
   143         33
   144          4
   147        539
   148         72
   149        148
   150         10
   151          8
   157         71
   158         15
   159         28
   161         17
   164          3
   169         13
   171         10
   172          4
   173          8
   177          9
   178          3
   183         40
   184          4
   185         58
   186         10
   187         37
   188         11
   190          5
   191         63
   192          7
   201         67
   202          4
   204         19
   207         12
   211         53
   212          4
   213         81
   214         19
   215         26
   217        211
   218         38
   219         25
   221         19
   222         10
   223          6
   229        423
   230         71
   231         84
   232         20
   235          7
   244          4
   245         18
   246         14
   247          7
   248          3
   257         12
   258          3
   259         12
   260         10
   261         21
   262          6
   263          4
   271          3
   273        520
   274        112
   275         76
   276          9
   279          2
   285         20
   286          4
   287         14
   288          3
   289          5
   301         13
   303        223
   304         45
   305         79
   306         12
   319        196
   320         47
   321         23
   322          3
   331         98
   332         16
   333         13
   334          4
   347         85
   348         28
   349         20
   363         45
   364         10
   393          4
   421         83
   422         28
   423         16
   424          5