##TITLE=Library Entry 31627
##JCAMP-DX=Revision 4.10 
##DATA TYPE=MASS SPECTRUM
##SAMPLE DESCRIPTION=Zaikin V.G., TIPS RAS, Moscow, Russia
##NAMES=HP
##CAS NAME=Propyl tetradecyl carbonate
##MOLFORM=C18H36O3
##CAS REGISTRY NO=959223-77-9
##MP= -300
##BP= -300
##MW= 300
##$RETENTION INDEX=0
##$CONDENSED SPECTRUM=NO
##NPOINTS= 81
##XYDATA=(XY..XY) 1 
    25          5
    26         35
    27        112
    29        121
    31         46
    37          8
    38          7
    39        122
    40         31
    41        465
    42        179
    43        831
    44         99
    45          7
    50          6
    51          8
    52          4
    53         35
    54         87
    55        548
    56        325
    57        506
    58         25
    59         30
    63        999
    64         11
    65         12
    66         11
    67        135
    68        151
    69        550
    70        328
    71        319
    72         15
    77          4
    79         11
    80          5
    81         74
    82        196
    83        563
    84        239
    85        210
    86         12
    89          6
    95         38
    96         90
    97        449
    98        147
    99         56
   100          2
   103         13
   104         23
   105        959
   106         42
   107          5
   109         14
   110         44
   111        240
   112         97
   113         25
   123          4
   124         23
   125        116
   126         67
   127         26
   137          2
   138         13
   139         38
   140         26
   145          2
   152          5
   153         15
   154         19
   155          5
   166          3
   167          7
   168        110
   169         12
   194          2
   196         70
   197         17