##TITLE=Library Entry 42623
##JCAMP-DX=Revision 4.10 
##DATA TYPE=MASS SPECTRUM
##SAMPLE DESCRIPTION=Chemical Concepts
##NAMES=HP
##CAS NAME=2,5-Furandione, 3,4-bis[(trimethylsilyl)oxy]-
##MOLFORM=C10H18O5Si2
##CAS REGISTRY NO=95920-35-7
##MP= -300
##BP= -300
##MW= 274
##$RETENTION INDEX=0
##$CONDENSED SPECTRUM=NO
##NPOINTS= 181
##XYDATA=(XY..XY) 1 
    23          0
    25          0
    26          2
    27         10
    28         17
    29         48
    30          4
    31         10
    32          5
    33          0
    36          1
    37          0
    38          0
    39          3
    40          0
    41          5
    42         23
    43        153
    44         60
    45        287
    46         17
    47         14
    49          0
    50          0
    51          5
    52         12
    53         13
    54          3
    55         30
    56          6
    57         19
    58         85
    59         50
    60          7
    61          8
    62          0
    63          0
    64          0
    65          0
    66         50
    67          6
    68          2
    69          4
    70          6
    71          8
    72         50
    73        999
    74         87
    75         50
    76          2
    77          4
    78          0
    79          0
    81          0
    82          0
    83          2
    84          0
    85          2
    86          2
    87          3
    88          0
    89          2
    91          0
    92          0
    93          1
    94          0
    95          0
    96          0
    97          0
    98          2
    99          5
   100          0
   101         13
   102         10
   103          7
   104          1
   105          2
   106          0
   108          1
   110          0
   113          3
   114          3
   115          8
   116          4
   117          9
   118          2
   119          4
   120          0
   121          0
   122          0
   123          0
   124          0
   126          0
   127          1
   128          1
   129          1
   130          2
   131         21
   132          4
   133         62
   134          8
   135          4
   136          0
   137          0
   138          0
   139          0
   140          0
   142          1
   143          3
   144          0
   145          1
   146          5
   147        395
   148         60
   149         36
   150          3
   151          0
   152          0
   155          0
   156          0
   157          3
   158          4
   159          1
   160          0
   161          2
   162          0
   163          0
   164          0
   166          0
   169          0
   171          0
   173          1
   174          0
   175         21
   176          3
   177          1
   178          0
   181          0
   184          0
   185          0
   187          1
   188          1
   189          1
   190        334
   191         55
   192         28
   193          3
   194          0
   201          0
   202         11
   203          1
   204          1
   205          1
   206          3
   209          0
   213          0
   215          1
   217          1
   221          0
   222          0
   225          0
   226          0
   227          1
   229          0
   230          1
   231         64
   232         12
   233          5
   234          0
   245          0
   246          0
   254          0
   259         83
   260         16
   261          6
   262          0
   273          0
   274         28
   275          6
   276          2
   277          0