##TITLE=Library Entry 24795
##JCAMP-DX=Revision 4.10 
##DATA TYPE=MASS SPECTRUM
##SAMPLE DESCRIPTION=NIST Mass Spectrometry Data Center
##NAMES=HP
##CAS NAME=Pentafluoropropionic acid, octadecyl ester
##MOLFORM=C21H37F5O2
##CAS REGISTRY NO=959261-25-7
##MP= -300
##BP= -300
##MW= 416
##$RETENTION INDEX=2010
##$CONDENSED SPECTRUM=NO
##NPOINTS= 128
##XYDATA=(XY..XY) 1 
    26          2
    27         32
    28         10
    29        104
    30          3
    31          2
    33          1
    37          1
    39         48
    41        460
    42        133
    43        744
    44         28
    47          2
    50          3
    51          3
    52          2
    53         34
    54         86
    55        796
    56        329
    57        999
    58         45
    59          2
    61          1
    65          7
    66         11
    67        121
    68        143
    69        662
    70        315
    71        537
    72         29
    73          1
    77          5
    78          2
    79         14
    80          6
    81         88
    82        328
    83        709
    84        251
    85        363
    86         23
    87          1
    91          3
    93          4
    94          3
    95         52
    96        178
    97        776
    98        188
    99         94
   100         17
   101          1
   107          1
   108          1
   109         24
   110         87
   111        489
   112        142
   113         57
   114          4
   117          1
   119        131
   120          3
   121          1
   122          2
   123         15
   124         58
   125        259
   126         99
   127         38
   128          6
   136          1
   137          9
   138         39
   139         98
   140         69
   141         23
   142          2
   147         16
   149          5
   151          2
   152         24
   153         43
   154         41
   155         14
   156          1
   163          1
   165          2
   166         15
   167         23
   168         31
   169         11
   170          1
   177          1
   180          9
   181         11
   182         16
   183          7
   184          1
   188          1
   194          6
   195          7
   196         10
   197          3
   202          1
   205          1
   208          3
   209          4
   210          4
   211          1
   222          3
   223          3
   224         26
   225          4
   249          1
   250          2
   252         51
   253         10
   254          1
   279          2
   297         19
   298          4
   299          1
   398         19
   399          4