##TITLE=Library Entry 51878
##JCAMP-DX=Revision 4.10 
##DATA TYPE=MASS SPECTRUM
##SAMPLE DESCRIPTION=V. KADENTSEV,ZELINSKII INST. ORG. CHEM.,ACAD. SCI.,MOSC
OW,USSR
##NAMES=HP
##CAS NAME=Thieno[2,3-d]-1,3-diseleno-2-thione
##MOLFORM=C5H2S2Se2
##CAS REGISTRY NO=95928-39-5
##MP= -300
##BP= -300
##MW= 286
##$RETENTION INDEX=0
##$CONDENSED SPECTRUM=NO
##NPOINTS= 50
##XYDATA=(XY..XY) 1 
    37        120
    38        110
    44        120
    45        460
    69        300
    70         80
    81        190
    82        999
    83         80
    84         80
   114        180
   115        320
   116        130
   117        630
   118        200
   122        100
   124        200
   126        430
   128         90
   129         60
   130        130
   134         80
   136        150
   158         50
   160         80
   161         60
   162         80
   202         50
   203         40
   204        130
   206        250
   208         70
   236        100
   237         80
   238        260
   239        140
   240        450
   241         50
   242        500
   243         40
   244        160
   280        160
   281        110
   282        450
   283        250
   284        750
   285        110
   286        850
   287         60
   288        330