##TITLE=Library Entry 14149
##JCAMP-DX=Revision 4.10 
##DATA TYPE=MASS SPECTRUM
##SAMPLE DESCRIPTION=Chemical Concepts
##NAMES=HP
##CAS NAME=8a,3a-(Epoxyetheno)-8H-indeno[1,2-d]-1,3,2-dioxaborol-8-one, 11-a
cetyl-2-ethyl-10-methyl-
##MOLFORM=C16H15BO5
##CAS REGISTRY NO=95920-33-5
##MP= -300
##BP= -300
##MW= 298
##$RETENTION INDEX=0
##$CONDENSED SPECTRUM=NO
##NPOINTS= 145
##XYDATA=(XY..XY) 1 
    26          5
    27         17
    29         16
    38          4
    39         38
    40          2
    41          2
    42          7
    43        999
    44         22
    45          2
    50         42
    51         40
    52          8
    53         25
    55          8
    57          3
    61          2
    62         12
    63         28
    64          6
    65         17
    66          7
    67         43
    68          2
    74         31
    75         53
    76         85
    77         51
    78          7
    79          6
    85          2
    86         10
    87         12
    88         17
    89         25
    90          4
    91          3
    92          4
    98          5
    99          9
   100         28
   101         92
   102         22
   103          9
   104         33
   105         22
   106          3
   112          4
   113         16
   114         20
   115        125
   116         18
   117          4
   121          4
   125         10
   126         44
   127         62
   128         63
   129         63
   130         16
   131          4
   132          3
   133          4
   138          1
   139          6
   140          5
   141         12
   142          5
   143         43
   144         11
   151          4
   152          3
   153          6
   154         18
   155         34
   156         17
   157         46
   158          6
   167          3
   168          3
   169          6
   170          9
   171         41
   172         13
   173          2
   179          4
   181          5
   182          7
   183         29
   184         47
   185         71
   186         17
   187          4
   196          5
   197         10
   198         15
   199         37
   200         14
   201          3
   208          2
   209         32
   210        118
   211         28
   212         30
   213         52
   214         20
   215          5
   217          2
   218          3
   222         15
   223         35
   224          9
   225         12
   226         25
   227         62
   228         18
   229          3
   235          2
   236          9
   237        109
   238        466
   239         76
   240         89
   241        260
   242         90
   243         14
   251          3
   252         10
   253         35
   254        101
   255        277
   256        880
   257        123
   258         16
   268          8
   269         30
   270          6
   282          8
   283         35
   284          6
   297        163
   298        714
   299        124
   300         18