##TITLE=Library Entry 25767
##JCAMP-DX=Revision 4.10 
##DATA TYPE=MASS SPECTRUM
##SAMPLE DESCRIPTION=NIST Mass Spectrometry Data Center, 2010
##NAMES=HP
##CAS NAME=Isobutyl tridecyl carbonate
##MOLFORM=C18H36O3
##CAS REGISTRY NO=959275-44-6
##MP= -300
##BP= -300
##MW= 300
##$RETENTION INDEX=0
##$CONDENSED SPECTRUM=NO
##NPOINTS= 97
##XYDATA=(XY..XY) 1 
    27         22
    28          9
    29         77
    30          3
    31          5
    39         29
    41        242
    42         53
    43        235
    44         11
    45          3
    51          1
    53         14
    54         29
    55        251
    56        238
    57        999
    58         47
    59          7
    63        113
    64          1
    65          3
    66          4
    67         50
    68         63
    69        249
    70        156
    71        218
    72         13
    73         18
    74          1
    75          1
    76          4
    77          5
    79          6
    80          2
    81         29
    82        105
    83        272
    84        112
    85        170
    86         11
    87          1
    88          1
    89          2
    90          2
    91          1
    93          1
    94          1
    95         15
    96         59
    97        251
    98         82
    99         63
   100          5
   101          1
   103         27
   104          2
   105          1
   109          6
   110         28
   111        151
   112         57
   113         48
   114          4
   117         10
   118         16
   119        183
   120         10
   121          2
   123          4
   124         16
   125         76
   126         37
   127         32
   128          2
   137          2
   138          7
   139         19
   140         16
   141         15
   142          1
   146          1
   152          5
   153          8
   154         86
   155         11
   156          1
   159          1
   180          2
   182         92
   183         60
   184          8
   185          1
   199          2
   227          1
   245          1