##TITLE=Library Entry 24753
##JCAMP-DX=Revision 4.10 
##DATA TYPE=MASS SPECTRUM
##SAMPLE DESCRIPTION=NIST Mass Spectrometry Data Center
##NAMES=HP
##CAS NAME=Heptafluorobutyric acid, pentadecyl ester
##MOLFORM=C19H31F7O2
##CAS REGISTRY NO=959261-23-5
##MP= -300
##BP= -300
##MW= 424
##$RETENTION INDEX=1759
##$CONDENSED SPECTRUM=NO
##NPOINTS= 114
##XYDATA=(XY..XY) 1 
    15          1
    26          2
    27         40
    28         15
    29        121
    30          3
    33          1
    37          1
    39         59
    40         17
    41        502
    42        141
    43        772
    44         28
    47          2
    50          3
    51          4
    52          2
    53         42
    54         98
    55        889
    56        386
    57        999
    58         42
    59          2
    61          2
    62          1
    63          1
    65          8
    66         12
    67        137
    68        167
    69        808
    70        386
    71        506
    72         26
    73          1
    77          5
    78          3
    79         17
    80          6
    81         89
    82        345
    83        737
    84        297
    85        327
    86         20
    87          1
    91          3
    93          5
    94          2
    95         41
    96        158
    97        696
    98        203
    99         75
   100         33
   101          1
   107          1
   109         24
   110         73
   111        400
   112        139
   113         39
   114          3
   119         22
   122          1
   123          6
   124         41
   125        177
   126         92
   127         25
   128          2
   131          4
   137          3
   138         24
   139         52
   140         52
   141         16
   142          1
   147          1
   150          8
   151          1
   152         12
   153         22
   154         27
   155          8
   156          1
   159          1
   166          5
   167         11
   169        119
   170          4
   180          3
   181          5
   182         48
   183          7
   195          1
   197          9
   199          1
   207          1
   208          1
   210         58
   211         10
   212          1
   215          3
   227          1
   237          2
   238          1
   241          1
   255         14
   256          2
   406          4
   407          1