##TITLE=Library Entry 41418
##JCAMP-DX=Revision 4.10 
##DATA TYPE=MASS SPECTRUM
##SAMPLE DESCRIPTION=NIST Mass Spectrometry Data Center, 2009
##NAMES=HP
##CAS NAME=1-Naphthylacetic acid, TMS derivative
##MOLFORM=C15H18O2Si
##CAS REGISTRY NO=959294-94-1
##MP= -300
##BP= -300
##MW= 258
##$RETENTION INDEX=1828
##$CONDENSED SPECTRUM=NO
##NPOINTS= 115
##XYDATA=(XY..XY) 1 
    15          2
    26          1
    27          1
    28          2
    29          3
    31          1
    39          6
    41          1
    42          1
    43         15
    44         10
    45         63
    46          5
    47         20
    48          1
    49          1
    50          3
    51          5
    52          1
    53          1
    55          2
    56          1
    57          4
    58         10
    59         10
    60          3
    61         14
    62          5
    63         16
    64          2
    65          6
    66          1
    70          3
    71          3
    73        999
    74         94
    75        183
    76         15
    77          9
    78          1
    85          1
    86          3
    87          7
    88          6
    89         20
    90          2
    91          7
    92          1
    98          1
    99          2
   100          1
   101          2
   102          4
   103          1
   110          1
   111          1
   113         13
   114         11
   115        176
   116         19
   117          9
   118          1
   121         32
   126          5
   127          5
   128          4
   129          2
   137          4
   139        154
   140         93
   141        181
   142         24
   143          2
   145          1
   150          1
   151          1
   152          4
   153          5
   154          2
   155          5
   156          1
   157          1
   165          3
   166          1
   167          4
   168         25
   169          7
   170          1
   171          2
   181          4
   182          2
   183         11
   184          3
   185          3
   186          1
   187          4
   188          1
   195          2
   197         20
   198          6
   199          7
   200          2
   214        100
   215         21
   216          6
   217          1
   229          1
   243         70
   244         14
   245          4
   246          1
   258        107
   259         23
   260          6
   261          1