##TITLE=Library Entry 41818
##JCAMP-DX=Revision 4.10 
##DATA TYPE=MASS SPECTRUM
##SAMPLE DESCRIPTION=O A MAMER, MCGILL UNIVERSITY, MONTREAL,
##NAMES=HP
##CAS NAME=Ethyl 2-ethyl-3-hydroxyvalerate
##MOLFORM=C9H18O3
##CAS REGISTRY NO=959249-73-1
##MP= -300
##BP= -300
##MW= 174
##$RETENTION INDEX=0
##$CONDENSED SPECTRUM=NO
##NPOINTS= 77
##XYDATA=(XY..XY) 1 
    15         31
    18          4
    19         23
    20          3
    26         33
    27        387
    28         74
    29        743
    30         24
    31        363
    32          0
    37          4
    38          4
    39        129
    40         16
    41        325
    42         80
    43        483
    44         19
    45        146
    46          6
    47         61
    50          0
    51          5
    53         37
    54         14
    55        407
    56         46
    57        377
    58          2
    59        331
    60         31
    61         10
    67         15
    68         16
    69         84
    70        450
    71        389
    72         31
    73        999
    74         45
    75         57
    77          2
    81          8
    82          6
    83        191
    84         22
    85         27
    86         11
    87         56
    88        320
    89         62
    90          5
    91          4
    97          4
    98          5
    99        937
   100         54
   101        770
   102         57
   103         12
   111         27
   113         11
   115         15
   116        843
   117         95
   118          8
   127         24
   128          8
   129        349
   130         36
   131         27
   132          4
   133          6
   145        539
   146         53
   175          7