##TITLE=Library Entry 20162
##JCAMP-DX=Revision 4.10 
##DATA TYPE=MASS SPECTRUM
##SAMPLE DESCRIPTION=NIST Mass Spectrometry Data Center
##NAMES=HP
##CAS NAME=Nonyl heptafluorobutyrate
##MOLFORM=C13H19F7O2
##CAS REGISTRY NO=959297-30-4
##MP= -300
##BP= -300
##MW= 340
##$RETENTION INDEX=1206
##$CONDENSED SPECTRUM=NO
##NPOINTS= 93
##XYDATA=(XY..XY) 1 
    15          2
    26          6
    27         86
    28         28
    29        193
    30          6
    37          1
    39        124
    40         31
    41        643
    42        232
    43        697
    44         29
    46          1
    47          3
    50          8
    51         10
    52          5
    53         61
    54         92
    55        999
    56        722
    57        530
    58         23
    59          2
    61          3
    62          1
    63          1
    64          1
    65         10
    66          7
    67        118
    68        237
    69        842
    70        653
    71        407
    72         22
    73          1
    77          7
    78          6
    79         14
    80          3
    81         39
    82        236
    83        501
    84        378
    85        258
    86         16
    87          1
    90          1
    91          2
    93          6
    94          1
    95          8
    96         64
    97        482
    98        332
    99         25
   100         71
   101          2
   109         24
   110          1
   111         20
   112          3
   113          1
   119         55
   120          1
   123          1
   124          3
   125          4
   126        116
   127         12
   128          1
   131          8
   147          2
   150         13
   151          1
   153          4
   159          1
   169        274
   170          9
   171         29
   172          3
   178          1
   195          1
   197         32
   198          2
   199          2
   213          1
   227          3
   238          1
   241          1
   255          3