##TITLE=Library Entry 109604
##JCAMP-DX=Revision 4.10 
##DATA TYPE=MASS SPECTRUM
##SAMPLE DESCRIPTION=NIST Mass Spectrometry Data Center, 2010
##NAMES=HP
##CAS NAME=4-Chlorobenzyl alcohol, heptafluorobutyrate
##MOLFORM=C11H6ClF7O2
##CAS REGISTRY NO=959268-33-8
##MP= -300
##BP= -300
##MW= 338
##$RETENTION INDEX=1232
##$CONDENSED SPECTRUM=NO
##NPOINTS= 90
##XYDATA=(XY..XY) 1 
    26          1
    27          2
    28          2
    29          3
    31          6
    37          2
    38          7
    39         27
    40          3
    41          1
    43          2
    44         10
    47          1
    49          4
    50         34
    51         41
    52          5
    53          1
    60          1
    61          7
    62         23
    63         71
    64         14
    65          9
    66          1
    69        126
    70          1
    72          1
    73         19
    74         13
    75         41
    76          8
    77         53
    78         12
    79          1
    81          2
    83          1
    84          2
    85          7
    86          6
    87          6
    88          3
    89        224
    90         58
    91          5
    93          1
    97          3
    99         42
   100         36
   101         15
   102          1
   105          6
   106          2
   107          1
   108          1
   109          8
   110          1
   111         32
   112          7
   113         13
   114          2
   115          1
   119         22
   120          1
   123          6
   124        214
   125        999
   126        145
   127        320
   128         25
   129          1
   131          2
   139         22
   140          4
   141         12
   142          1
   143          3
   145          1
   150          2
   161          1
   169         48
   170          2
   197          1
   275          4
   303         23
   304          3
   338         87
   339         10
   340         29
   341          3