##TITLE=Library Entry 40904
##JCAMP-DX=Revision 4.10 
##DATA TYPE=MASS SPECTRUM
##SAMPLE DESCRIPTION=Chemical Concepts
##NAMES=HP
##CAS NAME=4,7-Benzofurandione, 3-acetyl-3a,7a-dihydro-3a,5,6,7a-tetrahydrox
y-2-methyl-, 4TMS derivative
##MOLFORM=C23H42O8Si4
##CAS REGISTRY NO=95920-37-9
##MP= -300
##BP= -300
##MW= 558
##$RETENTION INDEX=0
##$CONDENSED SPECTRUM=NO
##NPOINTS= 413
##XYDATA=(XY..XY) 1 
    28         23
    43         81
    44         14
    45        136
    47          6
    59          9
    67         26
    72          8
    73        999
    74         77
    75         76
    76          4
    77          6
    85          3
    91          4
    97          9
    99          4
   109          4
   115          3
   117          4
   119          3
   121          2
   131          9
   133         27
   134          4
   135          5
   139          3
   141          5
   143          3
   147        122
   148         18
   149         17
   150          2
   151          2
   154          2
   155          7
   156          3
   157         30
   158          3
   159          2
   165          1
   167          4
   169          2
   170          1
   171          2
   173          1
   177          1
   179          2
   181          4
   182          1
   183          4
   184          2
   185          1
   189          1
   190          2
   191          4
   192          1
   193          6
   194          2
   195          3
   196          1
   197          2
   199         93
   200         14
   201          5
   202          3
   203          2
   204          1
   205          7
   206          2
   207         12
   208          2
   209          3
   210          1
   211          1
   212          4
   213          2
   214          0
   215          3
   216          1
   217          1
   218          0
   219          2
   220          1
   221          5
   222          1
   223          2
   224          1
   225          1
   226          0
   227          1
   228          2
   229         22
   230          4
   231          3
   232          0
   233          2
   234          0
   235          2
   236          1
   237          1
   238          1
   239          3
   240          1
   241          2
   242          1
   243          3
   244          1
   245          1
   246          0
   247          1
   248          0
   249          2
   250          1
   251          2
   252          1
   253          2
   254          1
   255          2
   256          1
   257          3
   258          1
   259          2
   260          1
   261          1
   262          0
   263          1
   264          1
   265          3
   266          2
   267          7
   268          2
   269          3
   270          2
   271          3
   272          1
   273          1
   274          0
   275          2
   276          1
   277          1
   278          1
   279          3
   280          1
   281          7
   282          2
   283          4
   284          2
   285         16
   286          4
   287          2
   288          1
   289          1
   290          1
   291          2
   292          1
   293          4
   294          3
   295          5
   296          2
   297          8
   298          2
   299          4
   300         33
   301          9
   302          3
   303          2
   304          0
   305          1
   306          1
   307          4
   308          2
   309          4
   310          2
   311          3
   312          5
   313          4
   314          1
   315          1
   316          0
   317          0
   318          0
   319          3
   320          1
   321          2
   322          2
   323         10
   324          6
   325          6
   326          2
   327          2
   328          1
   329          3
   330          1
   331         19
   332          6
   333          3
   334          1
   335          3
   336          2
   337          3
   338          1
   339          5
   340          3
   341          2
   342          2
   343          2
   344          3
   345          2
   346          1
   347          1
   348          1
   349          2
   350          2
   351          7
   352          3
   353          9
   354          3
   355          4
   356          2
   357          2
   358          1
   359          3
   360          9
   361          3
   362          1
   363          7
   364          2
   365          3
   366          2
   367          5
   368          4
   369         20
   370          7
   371          7
   372          2
   373          1
   374          1
   375          0
   376          0
   377          1
   378          2
   379          5
   380          2
   381         11
   382          5
   383         10
   384          5
   385         10
   386          3
   387          3
   388          1
   389          1
   390          0
   391          0
   392          1
   393          1
   394          1
   395          8
   396          5
   397          9
   398          5
   399          5
   400          3
   401          5
   402          2
   403          1
   404          0
   405          0
   406          0
   407          1
   408          1
   409          5
   410          3
   411         10
   412          4
   413          6
   414          2
   415          2
   416          1
   417         10
   418          4
   419          2
   420          1
   421          1
   422          0
   423          1
   424          2
   425         19
   426         19
   427         12
   428          5
   429          4
   430          3
   431          2
   432         30
   433         12
   434          6
   435          2
   436          1
   437          3
   438          2
   439          2
   440          4
   441         58
   442         22
   443         11
   444          4
   445          2
   446          1
   447          0
   448          1
   449          1
   450          1
   451          2
   452          2
   453        134
   454         47
   455         25
   456          7
   457          9
   458          3
   459          3
   460          1
   461          2
   462          1
   463          1
   464          0
   465          0
   466          0
   467          1
   468         11
   469         10
   470          5
   471         14
   472          6
   473         12
   474          4
   475          2
   476          1
   477          1
   478          0
   479          0
   481          0
   482          0
   483          1
   484          0
   485          8
   486          9
   487          6
   488          8
   489          3
   490          1
   491          0
   492          0
   494          0
   497          0
   498          0
   499          4
   500          2
   501         17
   502          7
   503          3
   504          1
   505          0
   506          0
   507          0
   508          0
   509          0
   510          0
   511          0
   512          0
   513          2
   514          8
   515         27
   516         13
   517          6
   518          2
   519          0
   520          0
   521          0
   522          0
   523          0
   524          0
   525          1
   526          0
   527          1
   528          0
   529          1
   530          3
   531          2
   532          1
   533          0
   535          0
   539          0
   540          0
   541         14
   542          7
   543         82
   544         36
   545         19
   546          5
   547          1
   548          0
   549          0
   556          0
   557          0
   558         48
   559         22
   560         11
   561          3
   562          1
   563          0