##TITLE=Library Entry 40596
##JCAMP-DX=Revision 4.10 
##DATA TYPE=MASS SPECTRUM
##SAMPLE DESCRIPTION=Chemical Concepts
##NAMES=HP
##CAS NAME=3-Acetyl-3a,8b-dihydroxy-2-methylindeno[1,2-b]furan-4-one, (Z)-,
 2TMS derivative
##MOLFORM=C20H28O5Si2
##CAS REGISTRY NO=95920-28-8
##MP= -300
##BP= -300
##MW= 404
##$RETENTION INDEX=0
##$CONDENSED SPECTRUM=NO
##NPOINTS= 343
##XYDATA=(XY..XY) 1 
    26          4
    27         13
    28         13
    29         16
    31          8
    35          9
    39         12
    40          7
    41         14
    42          7
    43        312
    44         47
    45        264
    46         16
    47         41
    49         16
    51          5
    53          4
    55          8
    57         11
    58         10
    59         28
    61         14
    65          4
    66          9
    67         14
    68         11
    69          5
    70          5
    71          9
    72         19
    73        999
    74         79
    75        149
    76         19
    77         27
    83          7
    84         74
    85         23
    86         46
    87          3
    88          9
    89          5
    91          4
    97         11
    98          9
    99          9
   100         11
   101          9
   102          4
   103          6
   104         11
   105         19
   109          1
   110          0
   111          1
   112          1
   113          4
   114          2
   115         29
   116          4
   117          7
   118          1
   119          7
   120          1
   121          4
   122          0
   123          1
   124          0
   125          8
   126          6
   127         17
   128          8
   129         11
   130          3
   131         22
   132          4
   133         31
   134          5
   135          8
   136          1
   137          1
   138          1
   139          8
   140         11
   141         15
   142          4
   143         10
   144          2
   145          7
   146          4
   147        246
   148         37
   149         24
   150          3
   151          2
   152          3
   153          5
   154          3
   155         18
   156          3
   157         72
   158          9
   159          8
   160          1
   161          3
   162          0
   163          3
   164          0
   165          2
   166          1
   167          3
   168          2
   169          7
   170          2
   171         12
   172          9
   173          6
   174          3
   175          1
   176          1
   177          2
   178          1
   179         11
   180          2
   181          4
   182          2
   183          9
   184          2
   185          5
   186          3
   187          4
   188          1
   189          1
   190          0
   191          1
   192          0
   193          1
   194          0
   195          1
   196          1
   197          5
   198          1
   199         10
   200          4
   201          6
   202          4
   203          6
   204          1
   205          2
   206          1
   207          1
   208          0
   209          1
   210          0
   211          2
   212          1
   213          5
   214          2
   215          4
   216          4
   217          4
   218          1
   219          2
   220          1
   221          3
   222          1
   223          1
   224          4
   225          6
   226         10
   227          7
   228          2
   229         24
   230          8
   231          9
   232          3
   233          1
   234          0
   235          0
   236          0
   237          0
   238          0
   239          2
   240          5
   241          5
   242          6
   243         14
   244          6
   245         15
   246          4
   247          2
   248          1
   249          0
   250          0
   251          0
   252          0
   253          2
   254          2
   255          7
   256         42
   257         31
   258         11
   259          7
   260          1
   261          3
   262          1
   263          0
   264          0
   265          3
   266          1
   267          0
   268          0
   269          1
   270          5
   271         17
   272         13
   273         12
   274         23
   275          6
   276          1
   277          0
   279          0
   280          0
   281          0
   282          0
   283          1
   284          1
   285          3
   286          2
   287          2
   288          3
   289          4
   290          1
   291          1
   292          0
   293          0
   294          0
   295          0
   296          0
   297          0
   298          1
   299         41
   300          9
   301          4
   302          2
   303          3
   304          2
   305          1
   306          0
   307          0
   308          0
   309          1
   310          1
   311          0
   312          0
   313          1
   314          9
   315          6
   316          9
   317          6
   318          5
   319          2
   320          1
   321          0
   322          1
   323          0
   324          1
   326          1
   327          1
   328          1
   329          2
   330          4
   331        102
   332         33
   333         16
   334          6
   336          1
   337          0
   338          0
   339          0
   340          0
   341          1
   342          1
   343          1
   344          6
   345         16
   346         14
   347        208
   348         57
   349         22
   350          4
   351          1
   352          0
   353          0
   354          0
   355          0
   356          0
   357          0
   358          0
   359          1
   360          1
   361          6
   362        139
   363         39
   364         15
   365          2
   366          0
   371          0
   372          2
   373          3
   374          4
   375          4
   376          4
   377          2
   378          0
   379          0
   380          0
   381          0
   383          0
   384          0
   385          0
   386          1
   388          3
   389        201
   390         58
   391         22
   392          4
   393          1
   394          0
   395          1
   396          0
   397          0
   398          0
   399          0
   400          0
   401          0
   402          0
   404        107
   405         33
   406         13
   407          3
   408          0