##TITLE=Library Entry 78233
##JCAMP-DX=Revision 4.10 
##DATA TYPE=MASS SPECTRUM
##SAMPLE DESCRIPTION=NIST Mass Spectrometry Data Center, 2010
##NAMES=HP
##CAS NAME=Dodecyl propyl carbonate
##MOLFORM=C16H32O3
##CAS REGISTRY NO=959272-51-6
##MP= -300
##BP= -300
##MW= 272
##$RETENTION INDEX=1868
##$CONDENSED SPECTRUM=NO
##NPOINTS= 95
##XYDATA=(XY..XY) 1 
    15          1
    26          3
    27         63
    28         17
    29        107
    30          5
    31         15
    39         50
    41        396
    42        132
    43        723
    44         34
    45          7
    51          2
    52          1
    53         22
    54         57
    55        460
    56        295
    57        444
    58         23
    59         25
    60          1
    61          3
    63        757
    64          9
    65         11
    66          7
    67         87
    68        119
    69        479
    70        331
    71        271
    72         13
    73          8
    76          2
    77          4
    79         10
    80          3
    81         44
    82        167
    83        453
    84        232
    85        192
    86         12
    87          2
    88          1
    89          9
    90          3
    91          2
    94          1
    95         17
    96         77
    97        395
    98        153
    99         61
   100          5
   101          1
   103         17
   104         34
   105        999
   106         46
   107          7
   108          1
   109          6
   110         36
   111        239
   112         95
   113         39
   114          3
   115          1
   117          2
   124         14
   125         87
   126         43
   127         16
   128          2
   131          1
   132          3
   137          1
   138          8
   139         24
   140        168
   141         20
   142          1
   145          3
   159          1
   160          1
   166          1
   168        116
   169         28
   170          3
   185          2
   213          1
   214          1