##TITLE=Library Entry 45365
##JCAMP-DX=Revision 4.10 
##DATA TYPE=MASS SPECTRUM
##SAMPLE DESCRIPTION=NIST Mass Spectrometry Data Center
##NAMES=HP
##CAS NAME=Succinic acid, monoethyl ester-, (TMS)
##MOLFORM=C9H18O4Si
##CAS REGISTRY NO=959313-61-2
##MP= -300
##BP= -300
##MW= 218
##$RETENTION INDEX=1251
##$CONDENSED SPECTRUM=NO
##NPOINTS= 101
##XYDATA=(XY..XY) 1 
    26          3
    27         22
    28         18
    29         42
    30          2
    31          4
    39          1
    41          2
    42          9
    43         41
    44         16
    45        120
    46          8
    47         53
    48          3
    49          2
    51         23
    52          2
    53          4
    54          3
    55        260
    56         44
    57         14
    58         42
    59         39
    60         14
    61         64
    62          5
    63          3
    65         11
    66          1
    69          1
    70          5
    71          6
    72         32
    73        917
    74         95
    75        999
    76         72
    77         52
    78          2
    79         52
    82          3
    83          3
    84          3
    85          7
    86         30
    87         10
    88          4
    89         10
    90          1
    91          5
    93          2
    94          1
    97          1
    99          8
   100         16
   101        143
   102         16
   103        151
   104         14
   105         27
   106          2
   107          1
   111          1
   112          1
   113         11
   114          2
   115         18
   116          4
   119         17
   120          2
   121          1
   128        127
   129        309
   130         79
   131         55
   132          7
   143          7
   144          1
   156          1
   157        257
   158         29
   159         13
   160          1
   172         29
   173        505
   174         66
   175        516
   176         58
   177         22
   178          2
   179          2
   202          1
   203        605
   204         83
   205         29
   206          2
   218         11
   219          2
   220          1