##TITLE=Library Entry 22374
##JCAMP-DX=Revision 4.10 
##DATA TYPE=MASS SPECTRUM
##SAMPLE DESCRIPTION=NIST Mass Spectrometry Data Center, 2010
##NAMES=HP
##CAS NAME=Isobutyl 2,2,2-trichloroethyl carbonate
##MOLFORM=C7H11Cl3O3
##CAS REGISTRY NO=959311-17-2
##MP= -300
##BP= -300
##MW= 248
##$RETENTION INDEX=0
##$CONDENSED SPECTRUM=NO
##NPOINTS= 114
##XYDATA=(XY..XY) 1 
    14          1
    15          4
    25          2
    26         20
    27         71
    28         21
    29        142
    30         19
    31         50
    32          5
    33          1
    35          3
    36          3
    37          3
    38          6
    39         98
    40         22
    41        375
    42         65
    43        277
    44         18
    45         14
    47         12
    48         15
    49         31
    50          7
    51         11
    52          1
    53          9
    54          4
    55         81
    56        999
    57        956
    58         51
    59         52
    60         28
    61        127
    62         13
    63         90
    64          2
    65          1
    69          1
    70          1
    71          3
    73        157
    74          7
    76        212
    77         94
    78          5
    79          5
    82         29
    83         12
    84         19
    85          8
    86          3
    87          3
    88          2
    90          1
    91          2
    93          1
    95        222
    96        277
    97        152
    98        177
    99         29
   100         30
   101          1
   103         23
   104          1
   109          1
   110          1
   111          2
   112         10
   113          2
   114          6
   115          1
   117         54
   119         46
   121         15
   123          2
   126         49
   127          2
   128         32
   130         75
   131        344
   132         74
   133        328
   134         29
   135        104
   136          4
   137         11
   157        112
   158          4
   159         72
   160          2
   161         12
   162          1
   171         48
   172          3
   173         31
   174          2
   175          6
   193          8
   195          8
   197          3
   206         38
   207          6
   208         38
   209          5
   210         12
   211          2
   212          2
   233          1
   235          1