##TITLE=Library Entry 78372
##JCAMP-DX=Revision 4.10 
##DATA TYPE=MASS SPECTRUM
##SAMPLE DESCRIPTION=R.T. LOEFFLER,LONG ASHTON RES. STN.,LONG ASHTON,BRISTOL
,U.K.
##NAMES=HP
##CAS NAME=2-(Acetylamino)-3-(N'-benzoylhydrazido)-1,4-naphthoquinone
##MOLFORM=C19H15N3O4
##CAS REGISTRY NO=95937-08-9
##MP= -300
##BP= -300
##MW= 349
##$RETENTION INDEX=0
##$CONDENSED SPECTRUM=NO
##NPOINTS= 231
##XYDATA=(XY..XY) 1 
    35          0
    36          1
    37          0
    38          2
    39          8
    40          4
    41          7
    43        117
    44         23
    45          4
    46          1
    48          2
    49          0
    50         22
    51         66
    52          8
    53          2
    54          1
    55          5
    56          2
    57         10
    58          1
    59          1
    60          2
    61          0
    62          2
    63          5
    64          2
    65          4
    66          0
    67          1
    68          7
    69          7
    70          2
    71          2
    72          0
    73          3
    74          8
    75         17
    76         47
    77        454
    78         38
    79          4
    80          0
    81          1
    82          1
    83          2
    84          1
    85          3
    86          0
    87          1
    88          6
    89         22
    90         10
    91          8
    92          1
    93          0
    94          0
    95          1
    96          0
    97          1
    98          0
    99          2
   100          3
   101         30
   102         19
   103         24
   104         49
   105        999
   106         80
   107          4
   108          0
   109          0
   110          0
   111          1
   112          0
   113          0
   114          6
   115         12
   116          7
   117         10
   118          2
   119          1
   120          0
   121         48
   122          7
   123          0
   124          0
   125          0
   126          3
   127          3
   128          7
   129         25
   130         12
   131          2
   132          9
   133         16
   134          4
   135          0
   136          0
   137          0
   138          0
   139          0
   140          0
   141          2
   142          0
   143          2
   144          4
   145          3
   146         16
   147          9
   148          0
   149          4
   150          0
   151          0
   152          0
   153          0
   154          1
   155          0
   156          1
   157          9
   158          6
   159          2
   160         16
   161         18
   162          6
   163          1
   164          0
   165          0
   166          0
   167          0
   168          0
   169          1
   170          0
   171         10
   172         11
   173          8
   174         78
   175          9
   176          1
   177          0
   178          0
   179          0
   180          0
   181          0
   182          0
   183          0
   184          0
   185          0
   186          3
   187          1
   188         62
   189          6
   190          0
   191          0
   192          0
   193          0
   194          1
   195          0
   197          0
   198          3
   199         16
   200         71
   201         47
   202         78
   203          9
   204          1
   205          1
   206          0
   207          0
   209          0
   212          2
   213          0
   214          0
   215          0
   216          8
   217          0
   218          0
   219          0
   220          0
   221          0
   222          0
   223          0
   225          0
   226          0
   227          2
   228          1
   229          0
   230         10
   231          0
   232          0
   233          1
   234          0
   235          0
   244          1
   245          0
   247          0
   248          0
   249          0
   250          0
   251          0
   259          0
   260          1
   261          1
   262          0
   263          0
   274          0
   275          1
   276          1
   277          2
   278         12
   279         24
   280          3
   281          0
   286          0
   289          0
   290          0
   291          0
   292          0
   293          0
   302         15
   303          3
   304          0
   306          1
   307         70
   308         12
   309          0
   318          0
   349         37
   350          7
   351          0