##TITLE=Library Entry 24920
##JCAMP-DX=Revision 4.10 
##DATA TYPE=MASS SPECTRUM
##SAMPLE DESCRIPTION=NIST Mass Spectrometry Data Center, 2010
##NAMES=HP
##CAS NAME=Isobutyl nonyl carbonate
##MOLFORM=C14H28O3
##CAS REGISTRY NO=959311-27-4
##MP= -300
##BP= -300
##MW= 244
##$RETENTION INDEX=0
##$CONDENSED SPECTRUM=NO
##NPOINTS= 77
##XYDATA=(XY..XY) 1 
    15          1
    26          2
    27         37
    28         14
    29        101
    30          5
    31          8
    39         46
    40         12
    41        296
    42         77
    43        273
    44         14
    45          5
    51          2
    52          1
    53         15
    54         24
    55        234
    56        329
    57        999
    58         47
    59         10
    63        132
    64          2
    65          3
    66          2
    67         30
    68         53
    69        220
    70        183
    71        327
    72         20
    73         28
    74          1
    76          6
    77          7
    79          4
    80          1
    81         12
    82         63
    83        183
    84        121
    85        232
    86         15
    87          1
    88          1
    89          4
    90          3
    91          1
    95          6
    96         27
    97        168
    98        138
    99         12
   100          1
   103         36
   104          2
   109          1
   111          9
   112          1
   117         10
   118         28
   119        112
   120          6
   121          1
   124          2
   126        111
   127         64
   128          6
   131          1
   143          2
   146          1
   155          1
   159          1
   171          2
   189          3