##TITLE=Library Entry 42531
##JCAMP-DX=Revision 4.10 
##DATA TYPE=MASS SPECTRUM
##SAMPLE DESCRIPTION=Chemical Concepts
##NAMES=HP
##CAS NAME=Silane, trimethyl[[4-methylene-2-(trimethylsilyl)-1-cyclopenten-1
-yl]methoxy]-
##MOLFORM=C13H26OSi2
##CAS REGISTRY NO=95935-25-4
##MP= -300
##BP= -300
##MW= 254
##$RETENTION INDEX=0
##$CONDENSED SPECTRUM=NO
##NPOINTS= 159
##XYDATA=(XY..XY) 1 
    26          1
    27          4
    28          5
    29          7
    30          0
    31          8
    33          0
    38          0
    39          7
    40         38
    41          3
    42          1
    43         34
    44         12
    45        114
    46          7
    47         14
    48          0
    49          0
    50          0
    51          3
    52          3
    53          5
    54          1
    55          7
    56          1
    57          6
    58         10
    59         47
    60          3
    61          6
    62          0
    63          2
    64          0
    65         11
    66         13
    67          5
    68          1
    69          6
    70          2
    71          5
    72         14
    73        999
    74         81
    75        139
    76          9
    77         11
    78          3
    79          3
    80          0
    81          3
    82          1
    83         10
    84          1
    85          2
    86          0
    87          1
    88          0
    89          2
    90          1
    91        100
    92        137
    93         16
    94          1
    95          5
    96          1
    97          3
    98          0
    99          1
   101          1
   102          0
   103         34
   104          4
   105          9
   106          2
   107          5
   108          1
   109          5
   110          0
   111          1
   112          0
   113          1
   114          0
   115          1
   116          0
   117          8
   118          1
   119          5
   120          1
   121          7
   122          1
   123          2
   124          0
   125          1
   126          0
   127          0
   129          1
   130          0
   131         17
   132          3
   133         28
   134          4
   135         23
   136          6
   137          1
   138          1
   139          0
   141          0
   143          1
   144          0
   145          2
   146          0
   147        263
   148         42
   149         36
   150          5
   151         20
   152          3
   153          1
   154          0
   155          0
   157          1
   159          0
   161          0
   163          2
   164         74
   165         35
   166         12
   167         96
   168         14
   169          4
   170          0
   177          0
   179         19
   180         85
   181         92
   182         17
   183          4
   184          0
   193          1
   194          0
   195          0
   207          1
   208          0
   209          0
   211          0
   221          0
   223          0
   227          0
   234          0
   235          1
   237          0
   239          1
   240          0
   253          1
   254         39
   255         10
   256          3
   257          0