##TITLE=Library Entry 114177
##JCAMP-DX=Revision 4.10 
##DATA TYPE=MASS SPECTRUM
##SAMPLE DESCRIPTION=Japan AIST/NIMC Database- Spectrum MS-IW-3178
##NAMES=HP
##CAS NAME=Methyl 4-acetamido-1,2,3,4-tetrahydro-2-naphthalenecarboxylate
##MOLFORM=C14H17NO3
##CAS REGISTRY NO=95979-83-2
##MP= -300
##BP= -300
##MW= 247
##$RETENTION INDEX=0
##$CONDENSED SPECTRUM=NO
##NPOINTS= 136
##XYDATA=(XY..XY) 1 
    14          1
    15         32
    26          1
    27         10
    28         27
    29         11
    30         11
    31         20
    32          2
    37          1
    38          4
    39         30
    40          3
    41         13
    42         16
    43        255
    44          9
    45          7
    46          3
    50         13
    51         39
    52         13
    53          5
    54          4
    55         16
    56          3
    57          1
    58          2
    59         19
    60         66
    61          5
    62          6
    63         26
    64         23
    65         28
    66          3
    67          1
    68          1
    70          1
    71          4
    72          2
    73          1
    74         19
    75         10
    76         11
    77         50
    78         49
    79          6
    80          1
    82          3
    85          1
    86          3
    87          6
    88          3
    89         29
    90         21
    91         67
    92         23
    93          3
    94         11
    95          1
    98          1
    99          1
   101          9
   102         21
   103         21
   104         20
   105          6
   106          2
   113          2
   114          6
   115        139
   116         55
   117         71
   118         51
   119         99
   120          9
   121          1
   125          1
   126          9
   127        109
   128        584
   129        999
   130        523
   131         92
   132          9
   133          2
   134          1
   140          3
   141          4
   142          8
   143         45
   144        340
   145        251
   146         63
   147          6
   154          1
   155          7
   156         21
   157         11
   158          5
   159          6
   160          9
   161          5
   162          1
   168          2
   169          1
   170          7
   171          3
   172         18
   173         82
   174        166
   175         20
   176          2
   186         89
   187        204
   188        164
   189         22
   190         18
   191          3
   202          1
   203          1
   204        630
   205         87
   206          8
   215        153
   216         35
   217          4
   218          3
   228          1
   229          9
   230          2
   246          1
   247        376
   248         58
   249          6