##TITLE=Library Entry 34051
##JCAMP-DX=Revision 4.10 
##DATA TYPE=MASS SPECTRUM
##SAMPLE DESCRIPTION=Chuck Anderson, Aldrich Chemical Co.
##NAMES=HP
##CAS NAME=2-Propenoic acid, 2-methyl-, 2-propenyl ester
##MOLFORM=C7H10O2
##CAS REGISTRY NO=96-05-9
##MP= -300
##BP= -300
##MW= 126
##$RETENTION INDEX=849
##$CONDENSED SPECTRUM=NO
##NPOINTS= 89
##XYDATA=(XY..XY) 1 
    12          0
    13          0
    14          0
    15          8
    24          0
    25          0
    26         18
    27         45
    28          2
    29         43
    30          4
    31         14
    32          0
    33          0
    36          1
    37         18
    38         51
    39        492
    40         85
    41        980
    42         46
    43         20
    44          4
    45          8
    46          0
    47          0
    48          0
    49          0
    50          1
    51          1
    52          1
    53         17
    54          8
    55         29
    56          7
    57         86
    58          6
    59          8
    60          0
    61          0
    62          0
    63          0
    64          0
    65          3
    66          2
    67         18
    68          9
    69        999
    70         63
    71          5
    72          1
    73          0
    74          1
    75          0
    77          2
    78          0
    79         45
    80         23
    81        329
    82         26
    83         16
    84          8
    85          4
    86          1
    87         15
    88          0
    89          0
    90          0
    91          0
    93          4
    94          0
    95          0
    96          0
    97         43
    98         20
    99          1
   100          0
   107          2
   108          5
   109          4
   111        149
   112          9
   113          0
   114          0
   123          0
   125          7
   126          6
   127          1
   128          0