##TITLE=Library Entry 23931
##JCAMP-DX=Revision 4.10 
##DATA TYPE=MASS SPECTRUM
##SAMPLE DESCRIPTION=Japan AIST/NIMC Database- Spectrum MS-NW-3005
##NAMES=HP
##CAS NAME=Acetyl valeryl
##MOLFORM=C7H12O2
##CAS REGISTRY NO=96-04-8
##MP= -300
##BP= -300
##MW= 128
##$RETENTION INDEX=816
##$CONDENSED SPECTRUM=NO
##NPOINTS= 59
##XYDATA=(XY..XY) 1 
    13          1
    14          9
    15         72
    16          1
    17          2
    18          7
    25          1
    26         15
    27        123
    28         24
    29        508
    30         10
    31          3
    32          1
    37          3
    38          6
    39         67
    40          8
    41        468
    42         37
    43        585
    44         27
    45          5
    49          1
    50          5
    51          5
    52          2
    53          9
    54          3
    55         38
    56          9
    57        999
    58         47
    59          2
    60          9
    65          1
    67          7
    68          1
    69          2
    71          9
    72         10
    73          3
    74          1
    79          1
    81          3
    82          1
    83          4
    84          1
    85        465
    86         26
    87          7
    95          6
    99          4
   109          1
   110          1
   111          2
   113          2
   128         55
   129          5