##TITLE=Library Entry 6140
##JCAMP-DX=Revision 4.10 
##DATA TYPE=MASS SPECTRUM
##SAMPLE DESCRIPTION=RADIAN CORP
##NAMES=HP
##CAS NAME=7-Oxabicyclo[4.1.0]heptane, 1-methyl-4-(2-methyloxiranyl)-
##MOLFORM=C10H16O2
##CAS REGISTRY NO=96-08-2
##MP= -300
##BP= -300
##MW= 168
##$RETENTION INDEX=1294
##$CONDENSED SPECTRUM=NO
##NPOINTS= 105
##XYDATA=(XY..XY) 1 
    15         13
    26         10
    27        169
    28         16
    29        171
    30         11
    31         59
    37          2
    38         11
    39        267
    40         45
    41        307
    42         50
    43        999
    44         58
    45         68
    46          2
    50         18
    51         52
    52         29
    53        168
    54         52
    55        290
    56         43
    57        102
    58         80
    59         38
    60          1
    61          4
    62          4
    63         17
    64          4
    65         78
    66         33
    67        306
    68         58
    69        120
    70         29
    71        108
    72         18
    73          3
    74          4
    75         41
    76          3
    77        162
    78         30
    79        281
    80         63
    81        205
    82        114
    83        125
    84         59
    85         54
    86          6
    87          7
    89          3
    91        172
    92         74
    93        274
    94        141
    95        261
    96         35
    97        129
    98         38
    99         11
   100          1
   103          7
   104          2
   105         53
   106         18
   107        224
   108         52
   109        102
   110         70
   111         67
   112          8
   113          5
   115          5
   117         17
   118          2
   119         20
   120          6
   121         50
   122         36
   123         75
   124         13
   125         41
   126          5
   127         26
   128          1
   132          4
   133          1
   135         36
   136          7
   137         52
   138         14
   139         16
   140          5
   149          3
   150          6
   151          3
   153         28
   154          3
   168         16
   169          1