##TITLE=Library Entry 50059
##JCAMP-DX=Revision 4.10 
##DATA TYPE=MASS SPECTRUM
##SAMPLE DESCRIPTION=Exported from NIST MS Search
##NAMES=HP
##CAS NAME=Cyclohexanol, 2-(1-methylethyl)-
##MOLFORM=C9H18O
##CAS REGISTRY NO=96-07-1
##MP= -300
##BP= -300
##MW= 142
##$RETENTION INDEX=0
##$CONDENSED SPECTRUM=NO
##NPOINTS= 109
##XYDATA=(XY..XY) 1 
    14          1
    15         11
    16          1
    17          2
    18          8
    19          2
    26          5
    27        156
    28         55
    29        180
    30          9
    31         49
    32          8
    36          2
    37          1
    38          5
    39        133
    40         22
    41        413
    42         64
    43        398
    44        116
    45         36
    46          2
    47          1
    48          1
    49          1
    50          5
    51         17
    52          8
    53         82
    54         83
    55        395
    56        291
    57        868
    58         66
    59         31
    60          2
    61          1
    62          1
    63          4
    64          1
    65         19
    66        111
    67        393
    68        360
    69        422
    70        138
    71        118
    72         21
    73         22
    74          2
    75          1
    76          1
    77          1
    78          4
    79         86
    80         99
    81        999
    82        757
    83        145
    84         19
    85        223
    86         31
    87          5
    88          1
    89          1
    91          8
    92          1
    93          7
    94          6
    95        298
    96        225
    97         35
    98         15
    99        123
   100         16
   101          1
   102          1
   103          1
   104          1
   105          1
   106          1
   107          5
   108          2
   109        625
   110         56
   111         13
   112          1
   113          3
   114          6
   115          1
   117          1
   118          1
   119          1
   121          2
   122          1
   123         17
   124        713
   125         78
   126          4
   127         78
   128          7
   129          1
   136          1
   140          1
   141          4
   142         13
   143          1