##TITLE=Library Entry 61754
##JCAMP-DX=Revision 4.10 
##DATA TYPE=MASS SPECTRUM
##SAMPLE DESCRIPTION=Japan AIST/NIMC Database- Spectrum MS-NW- 437
##NAMES=HP
##CAS NAME=Oxirane, phenyl-
##MOLFORM=C8H8O
##CAS REGISTRY NO=96-09-3
##MP= -300
##BP= -300
##MW= 120
##$RETENTION INDEX=1119
##$CONDENSED SPECTRUM=NO
##NPOINTS= 65
##XYDATA=(XY..XY) 1 
    14          1
    15          2
    18          2
    26          5
    27         12
    28          8
    29         12
    30          1
    31          4
    37          9
    38         25
    39        106
    40         12
    41         18
    42          1
    43         15
    44          3
    45          4
    46          2
    49          6
    50         47
    51         87
    52         16
    53          3
    55          1
    57          2
    59          4
    60          1
    61         12
    62         33
    63         96
    64         38
    65        149
    66          9
    72          3
    73          4
    74         15
    75          9
    76          7
    77         39
    78         12
    79          2
    84          1
    85          3
    86          6
    87          6
    88          4
    89        267
    90        346
    91        999
    92        297
    93         19
    94          1
    98          1
   102          3
   103          8
   104         14
   105         16
   106          8
   107          1
   118          3
   119        211
   120        358
   121         31
   122          2