##TITLE=Library Entry 45580
##JCAMP-DX=Revision 4.10 
##DATA TYPE=MASS SPECTRUM
##SAMPLE DESCRIPTION=Japan AIST/NIMC Database- Spectrum MS-NW-4409
##NAMES=HP
##CAS NAME=Propane, 1,2,3-trichloro-
##MOLFORM=C3H5Cl3
##CAS REGISTRY NO=96-18-4
##MP= -300
##BP= -300
##MW= 146
##$RETENTION INDEX=938
##$CONDENSED SPECTRUM=NO
##NPOINTS= 71
##XYDATA=(XY..XY) 1 
    12          1
    13          2
    14          5
    15          9
    24          1
    25          5
    26         29
    27         66
    28          8
    29          1
    35         11
    36         16
    37         27
    38         43
    39        209
    40         16
    41         49
    42          2
    43          2
    44          1
    47         12
    48         11
    49        189
    50          7
    51         60
    52          1
    55          2
    56          1
    60          7
    61        256
    62         94
    63         85
    64         28
    65          1
    69          1
    72          2
    73         13
    74          3
    75        999
    76         38
    77        319
    78         11
    81          9
    82          1
    83         21
    85         13
    87          2
    95          3
    96         31
    97        187
    98         23
    99        120
   100          6
   101         18
   109          8
   110        324
   111         33
   112        207
   113         19
   114         34
   115          3
   130          1
   131          3
   132          1
   133          3
   135          1
   144          1
   145          2
   146          2
   147          1
   148          1