##TITLE=Library Entry 86220
##JCAMP-DX=Revision 4.10 
##DATA TYPE=MASS SPECTRUM
##SAMPLE DESCRIPTION=Japan AIST/NIMC Database- Spectrum MS-NW-2892
##NAMES=HP
##CAS NAME=1-Propene, 1,2,3-trichloro-
##MOLFORM=C3H3Cl3
##CAS REGISTRY NO=96-19-5
##MP= -300
##BP= -300
##MW= 144
##$RETENTION INDEX=0
##$CONDENSED SPECTRUM=NO
##NPOINTS= 63
##XYDATA=(XY..XY) 1 
    12          2
    13          2
    14          2
    24          2
    25          7
    26         10
    27          4
    28          8
    29          2
    35         20
    36         23
    37         67
    38         80
    39        123
    40          4
    42          1
    44          1
    47         30
    48         17
    49        111
    50          6
    51         34
    53          1
    59          2
    60         15
    61         20
    62          6
    63          6
    71          5
    72         17
    73        175
    74         23
    75         61
    76          6
    77          3
    82          2
    83        238
    84          4
    85        160
    86          2
    87         25
    94          1
    95         16
    96          9
    97         10
    98          6
    99          2
   107          9
   108          3
   109        999
   110         35
   111        637
   112         20
   113        100
   114          3
   143         12
   144        224
   145         28
   146        209
   147         19
   148         70
   149          5
   150          7