##TITLE=Library Entry 24856
##JCAMP-DX=Revision 4.10 
##DATA TYPE=MASS SPECTRUM
##SAMPLE DESCRIPTION=Japan AIST/NIMC Database- Spectrum MS-NW-1215
##NAMES=HP
##CAS NAME=Pentane, 3-methyl-
##MOLFORM=C6H14
##CAS REGISTRY NO=96-14-0
##MP= -300
##BP= -300
##MW= 86
##$RETENTION INDEX=584
##$CONDENSED SPECTRUM=NO
##NPOINTS= 33
##XYDATA=(XY..XY) 1 
    15          7
    26          9
    27        132
    28         21
    29        390
    30          9
    37          2
    38          5
    39         91
    40         11
    41        533
    42         35
    43        253
    44          8
    50          6
    51          8
    52          3
    53         17
    54          5
    55         66
    56        766
    57        999
    58         44
    63          1
    65          1
    67          2
    69          6
    70         15
    71         56
    72          3
    85          7
    86         29
    87          2