##TITLE=Library Entry 1506
##JCAMP-DX=Revision 4.10 
##DATA TYPE=MASS SPECTRUM
##SAMPLE DESCRIPTION=Japan AIST/NIMC Database- Spectrum MS-NW-2904
##NAMES=HP
##CAS NAME=2,3-Dibromopropyl alcohol
##MOLFORM=C3H6Br2O
##CAS REGISTRY NO=96-13-9
##MP= -300
##BP= -300
##MW= 216
##$RETENTION INDEX=1079
##$CONDENSED SPECTRUM=NO
##NPOINTS= 91
##XYDATA=(XY..XY) 1 
    12          3
    13          3
    14         10
    15         39
    16          2
    18          2
    24          2
    25         14
    26        108
    27        526
    28         94
    29        623
    30         28
    31        999
    32         17
    33          2
    35          1
    36          9
    37         16
    38         29
    39        115
    40         17
    41         27
    42         11
    43         56
    44         10
    45          2
    52          1
    53          7
    54          2
    55         40
    56         19
    57        712
    58         30
    59          3
    79         25
    80         43
    81         32
    82         45
    83          8
    87          1
    91          2
    92          2
    93         28
    94          3
    95         28
    96          1
   104          3
   105         32
   106        423
   107        136
   108        524
   109        109
   110        121
   111         11
   112          2
   119         34
   120          1
   121         31
   122          3
   123          8
   124          1
   125          7
   135          6
   136        345
   137        392
   138        328
   139        342
   140         12
   141          1
   160          1
   165          3
   167          3
   173          1
   185          3
   186          5
   187          6
   188          9
   189          3
   190          4
   193          1
   195          1
   198          1
   199          4
   200          3
   201          7
   202          1
   203          3
   216          1
   218          3
   220          1