##TITLE=Library Entry 945
##JCAMP-DX=Revision 4.10 
##DATA TYPE=MASS SPECTRUM
##SAMPLE DESCRIPTION=Japan AIST/NIMC Database- Spectrum MS-NW-3318
##NAMES=HP
##CAS NAME=1-Butanamine, 2-methyl-
##MOLFORM=C5H13N
##CAS REGISTRY NO=96-15-1
##MP= -300
##BP= -300
##MW= 87
##$RETENTION INDEX=701
##$CONDENSED SPECTRUM=NO
##NPOINTS= 34
##XYDATA=(XY..XY) 1 
    15          4
    26          3
    27         26
    28         31
    29         33
    30        999
    31         22
    32         16
    37          1
    38          2
    39         20
    40          3
    41         49
    42         13
    43         11
    44         17
    45          2
    50          1
    51          2
    52          1
    53          3
    54          4
    55         19
    56         15
    57          6
    58         16
    59          2
    69          3
    70         12
    71          1
    72          1
    86          4
    87         37
    88          2