##TITLE=Library Entry 252
##JCAMP-DX=Revision 4.10 
##DATA TYPE=MASS SPECTRUM
##SAMPLE DESCRIPTION=D.HENNEBERG, MAX-PLANCK INSTITUTE, MULHEIM, WEST GERMAN
Y
##NAMES=HP
##CAS NAME=Aluminum, chlorodiethyl-
##MOLFORM=C4H10AlCl
##CAS REGISTRY NO=96-10-6
##MP= -300
##BP= -300
##MW= 120
##$RETENTION INDEX=0
##$CONDENSED SPECTRUM=NO
##NPOINTS= 92
##XYDATA=(XY..XY) 1 
    26        374
    27        547
    28        999
    29        359
    30        175
    31         15
    35          7
    36         39
    37          2
    38         10
    39         11
    40          2
    41         21
    42          4
    43         10
    44          1
    45          6
    46          2
    47          5
    48          0
    49          0
    50          2
    51          0
    52          7
    53          3
    54          0
    55          3
    56         17
    57         85
    58          2
    59          1
    61          0
    62        112
    63        398
    64         43
    65        122
    66          5
    68          4
    69          4
    70          1
    71          3
    73          7
    74          0
    75         11
    76          6
    77          8
    78          3
    79          1
    80          0
    81          0
    84          0
    85        127
    86          6
    87          6
    88          0
    89         13
    90          5
    91        684
    92         20
    93        223
    94          6
    95          8
    96          2
    97         18
    98          0
    99         13
   100          2
   101          5
   102          2
   103          1
   104          2
   105          4
   106          1
   107         11
   108          0
   109          4
   110          0
   111          0
   112          0
   113          0
   114          3
   115          1
   117          1
   119          6
   120        127
   121          7
   122         49
   123          3
   124          3
   125          7
   126          2
   127          4