##TITLE=Library Entry 6736
##JCAMP-DX=Revision 4.10 
##DATA TYPE=MASS SPECTRUM
##SAMPLE DESCRIPTION=Japan AIST/NIMC Database- Spectrum MS-NW- 870
##NAMES=HP
##CAS NAME=1,2-Propanediol, 3-chloro-
##MOLFORM=C3H7ClO2
##CAS REGISTRY NO=96-24-2
##MP= -300
##BP= -300
##MW= 110
##$RETENTION INDEX=0
##$CONDENSED SPECTRUM=NO
##NPOINTS= 77
##XYDATA=(XY..XY) 1 
    12          2
    13          4
    14         25
    15        243
    16          6
    17         11
    18         35
    19          4
    25          7
    26         44
    27        163
    28         80
    29        223
    30         24
    31        416
    32         27
    33         16
    35         11
    36         45
    37          9
    38         13
    39         30
    40          6
    41         17
    42         81
    43        999
    44        997
    45         85
    46          4
    47          7
    48         10
    49         59
    50         13
    51         20
    52          3
    53          4
    55         19
    56         10
    57         42
    58          7
    59          4
    60         21
    61        977
    62         38
    63         16
    64         14
    65          7
    67          2
    69          1
    70          2
    71          4
    72          1
    73          5
    74         14
    75          7
    76          2
    77          4
    78         86
    79        696
    80         44
    81        229
    82          7
    83          1
    84          1
    86          1
    87          8
    89          1
    91          9
    92          3
    93          6
    94          1
   105          2
   107          5
   109          1
   110          1
   111          2
   113          1