##TITLE=Library Entry 48542
##JCAMP-DX=Revision 4.10 
##DATA TYPE=MASS SPECTRUM
##SAMPLE DESCRIPTION=NIST Mass Spectrometry Data Center, 1998.
##NAMES=HP
##CAS NAME=2-Propanol, 1,3-dichloro-
##MOLFORM=C3H6Cl2O
##CAS REGISTRY NO=96-23-1
##MP= -300
##BP= -300
##MW= 128
##$RETENTION INDEX=873
##$CONDENSED SPECTRUM=NO
##NPOINTS= 62
##XYDATA=(XY..XY) 1 
    13          1
    14          4
    15         33
    16          1
    25          2
    26         15
    27         40
    28          1
    29         55
    30          3
    31         25
    35          8
    36          7
    37         17
    38         21
    39         51
    40          5
    41         15
    42         48
    43        372
    44         25
    45          1
    47         14
    48         19
    49        130
    50         21
    51         45
    52          5
    53          4
    54          1
    55          6
    56          3
    57         11
    58          1
    60          4
    61         16
    62          4
    63         13
    64          1
    65          6
    67          1
    72          1
    73          5
    74          1
    75         23
    76          5
    77         11
    78         27
    79        999
    80         32
    81        364
    82          8
    83          3
    85          1
    91          6
    92          2
    93          2
    94          1
   111          1
   113          1
   127          1
   129          1