##TITLE=Library Entry 27733
##JCAMP-DX=Revision 4.10 
##DATA TYPE=MASS SPECTRUM
##SAMPLE DESCRIPTION=Japan AIST/NIMC Database- Spectrum MS-NW-9497
##NAMES=HP
##CAS NAME=1-Butanol, 2-amino-
##MOLFORM=C4H11NO
##CAS REGISTRY NO=96-20-8
##MP= -300
##BP= -300
##MW= 89
##$RETENTION INDEX=1546
##$CONDENSED SPECTRUM=NO
##NPOINTS= 44
##XYDATA=(XY..XY) 1 
    14          1
    15         16
    17          1
    18          3
    26          5
    27         25
    28         71
    29         26
    30        114
    31         24
    32          1
    37          1
    38          2
    39         23
    40          5
    41        295
    42        150
    43         79
    44         19
    45          1
    46          1
    50          1
    51          2
    52          3
    53          6
    54          9
    55         10
    56         41
    57         24
    58        999
    59         49
    60        207
    61          5
    68          1
    69          1
    70          9
    71          9
    72         42
    73          2
    74          5
    86          1
    88          2
    90         24
    91          1