##TITLE=Library Entry 18874
##JCAMP-DX=Revision 4.10 
##DATA TYPE=MASS SPECTRUM
##SAMPLE DESCRIPTION=NIST Mass Spectrometry Data Center, 1998.
##NAMES=HP
##CAS NAME=2-Propenoic acid, methyl ester
##MOLFORM=C4H6O2
##CAS REGISTRY NO=96-33-3
##MP= -300
##BP= -300
##MW= 86
##$RETENTION INDEX=571
##$CONDENSED SPECTRUM=NO
##NPOINTS= 38
##XYDATA=(XY..XY) 1 
    13          1
    14          3
    15         26
    16          1
    24          1
    25         10
    26         62
    27        227
    28          9
    29         37
    30          8
    31         29
    32          1
    36          1
    37          3
    38          3
    39         10
    40          3
    41         12
    42         98
    43         33
    44         14
    45         13
    52          3
    53         28
    54         13
    55        999
    56         38
    57         21
    58         94
    59         51
    60          3
    68         24
    69          3
    71          5
    85        146
    86         15
    87          1