##TITLE=Library Entry 1513
##JCAMP-DX=Revision 4.10 
##DATA TYPE=MASS SPECTRUM
##SAMPLE DESCRIPTION=Japan AIST/NIMC Database- Spectrum MS-IW-3840
##NAMES=HP
##CAS NAME=Acetic acid, hydroxy-, methyl ester
##MOLFORM=C3H6O3
##CAS REGISTRY NO=96-35-5
##MP= -300
##BP= -300
##MW= 90
##$RETENTION INDEX=677
##$CONDENSED SPECTRUM=NO
##NPOINTS= 39
##XYDATA=(XY..XY) 1 
    12          1
    13          4
    14         14
    15        112
    16          3
    18          2
    26          1
    27          2
    28         40
    29        281
    30         68
    31        999
    32         63
    33        232
    34          3
    40          2
    41         10
    42         83
    43         21
    44         15
    45        111
    46          4
    47          1
    56          6
    57          1
    58          9
    59        516
    60         59
    61        235
    62         63
    63          4
    72          3
    73         31
    74         40
    75         19
    89          3
    90        156
    91          9
    92          1