##TITLE=Library Entry 29521
##JCAMP-DX=Revision 4.10 
##DATA TYPE=MASS SPECTRUM
##SAMPLE DESCRIPTION=Japan AIST/NIMC Database- Spectrum MS-NW-4942
##NAMES=HP
##CAS NAME=Acetic acid, bromo-, methyl ester
##MOLFORM=C3H5BrO2
##CAS REGISTRY NO=96-32-2
##MP= -300
##BP= -300
##MW= 152
##$RETENTION INDEX=800
##$CONDENSED SPECTRUM=NO
##NPOINTS= 67
##XYDATA=(XY..XY) 1 
    12          8
    13         31
    14        134
    15        566
    16          7
    17          1
    18          3
    24          1
    25          4
    26          9
    27         39
    28         45
    29        543
    30         26
    31         64
    32          6
    33          2
    34          1
    35          3
    36         23
    37          1
    38          8
    40          3
    41         34
    42        291
    43         57
    44          8
    45        112
    46          3
    49          1
    50          1
    57          1
    59        999
    60         22
    61          5
    72        350
    73         18
    74         22
    75          5
    79         26
    80         12
    81         25
    82         13
    83          1
    91         13
    92         26
    93        399
    94         36
    95        379
    96         13
    97          2
   107          3
   108        223
   109          9
   110        218
   111          6
   120         27
   121        250
   122         32
   123        250
   124          6
   125          1
   151          1
   152        143
   153          7
   154        140
   155          6