##TITLE=Library Entry 24581
##JCAMP-DX=Revision 4.10 
##DATA TYPE=MASS SPECTRUM
##SAMPLE DESCRIPTION=Japan AIST/NIMC Database- Spectrum MS-NW-1501
##NAMES=HP
##CAS NAME=Cyclopentanol
##MOLFORM=C5H10O
##CAS REGISTRY NO=96-41-3
##MP= -300
##BP= -300
##MW= 86
##$RETENTION INDEX=768
##$CONDENSED SPECTRUM=NO
##NPOINTS= 48
##XYDATA=(XY..XY) 1 
    14          2
    15         12
    17          1
    18          3
    26         17
    27         94
    28         41
    29         93
    30         27
    31         46
    32          2
    37          7
    38         14
    39        114
    40         38
    41        152
    42         42
    43         83
    44        326
    45         47
    46          1
    49          2
    50          7
    51          7
    52          2
    53         25
    54          3
    55         24
    56         15
    57        999
    58        136
    59          6
    61          2
    62          2
    63          3
    65          6
    66          4
    67         82
    68         70
    69         17
    70          1
    71         34
    72          1
    83          2
    84          1
    85          8
    86         91
    87          5