##TITLE=Library Entry 38339
##JCAMP-DX=Revision 4.10 
##DATA TYPE=MASS SPECTRUM
##SAMPLE DESCRIPTION=Exported from NIST MS Search
##NAMES=HP
##CAS NAME=Furan, tetrahydro-2-methyl-
##MOLFORM=C5H10O
##CAS REGISTRY NO=96-47-9
##MP= -300
##BP= -300
##MW= 86
##$RETENTION INDEX=674
##$CONDENSED SPECTRUM=NO
##NPOINTS= 68
##XYDATA=(XY..XY) 1 
     2          8
    12          8
    13         18
    14         65
    15        217
    16          9
    17          2
    18          5
    19          8
    20          1
    24          1
    25         10
    26        113
    27        478
    28        168
    29        351
    30         23
    31         35
    32          1
    33          1
    34          2
    35          1
    36          2
    37         24
    38         48
    39        313
    40        102
    41        709
    42        583
    43        974
    44         48
    45        259
    46          6
    47          1
    48          1
    49          5
    50         21
    51         21
    52          7
    53         31
    54         16
    55         69
    56        228
    57         37
    58         19
    59          1
    60          1
    61          1
    62          1
    63          1
    64          1
    65          2
    66          1
    67         11
    68          2
    69          6
    70         11
    71        999
    72         45
    73          2
    81          3
    82          5
    83          3
    84          1
    85         45
    86        157
    87          9
    88          1