##TITLE=Library Entry 97919
##JCAMP-DX=Revision 4.10 
##DATA TYPE=MASS SPECTRUM
##SAMPLE DESCRIPTION=NIST Mass Spectrometry Data Center, 1998.
##NAMES=HP
##CAS NAME=Thiophene, 2-chloro-
##MOLFORM=C4H3ClS
##CAS REGISTRY NO=96-43-5
##MP= -300
##BP= -300
##MW= 118
##$RETENTION INDEX=0
##$CONDENSED SPECTRUM=NO
##NPOINTS= 68
##XYDATA=(XY..XY) 1 
    12          1
    13          1
    24          2
    25          6
    26         11
    27          2
    32         14
    33          3
    34          1
    35         10
    36         14
    37         67
    38         77
    39        220
    40          9
    41         32
    44         25
    45        284
    46          8
    47         35
    48         13
    49         48
    50         58
    51         12
    52          1
    56         25
    57        186
    58        166
    59         39
    60         34
    61          5
    62          6
    63          1
    67          1
    68         14
    69         48
    70          3
    71          6
    72         13
    73        106
    74         10
    75         35
    76          2
    79         81
    80         15
    81        114
    82         78
    83        718
    84         50
    85         40
    86          5
    87          2
    91          6
    92         42
    93          3
    94         15
    95          1
    96          1
   103          2
   105          1
   115          2
   116          2
   118        999
   119         55
   120        369
   121         19
   122         15
   123          1