##TITLE=Library Entry 98879
##JCAMP-DX=Revision 4.10 
##DATA TYPE=MASS SPECTRUM
##SAMPLE DESCRIPTION=Japan AIST/NIMC Database- Spectrum MS-NW-4986
##NAMES=HP
##CAS NAME=2-Thiazolidinethione
##MOLFORM=C3H5NS2
##CAS REGISTRY NO=96-53-7
##MP= -300
##BP= -300
##MW= 119
##$RETENTION INDEX=0
##$CONDENSED SPECTRUM=NO
##NPOINTS= 65
##XYDATA=(XY..XY) 1 
    12          2
    13          2
    14          7
    15         57
    25          2
    26         24
    27        106
    28         13
    29         10
    30         10
    32         20
    33          9
    34         11
    35         27
    37          1
    38          2
    39          2
    40          9
    41         22
    42         64
    43         12
    44         21
    45        257
    46         51
    47        121
    48          4
    49          5
    52          1
    54          4
    56          1
    57         11
    58         54
    59        299
    60        286
    61        212
    62         16
    63          8
    64         81
    65          4
    66          7
    70          3
    71          2
    72        125
    73         92
    74         10
    75          4
    76         36
    77         20
    78          4
    79          2
    84          1
    85          6
    86          3
    87          3
    90         15
    91         15
    92          3
    93          1
   117          1
   118          3
   119        999
   120         61
   121         88
   122          4
   123          2