##TITLE=Library Entry 73111
##JCAMP-DX=Revision 4.10 
##DATA TYPE=MASS SPECTRUM
##SAMPLE DESCRIPTION=NIST Mass Spectrometry Data Center, 1998.
##NAMES=HP
##CAS NAME=Aminothiazole
##MOLFORM=C3H4N2S
##CAS REGISTRY NO=96-50-4
##MP= -300
##BP= -300
##MW= 100
##$RETENTION INDEX=0
##$CONDENSED SPECTRUM=NO
##NPOINTS= 57
##XYDATA=(XY..XY) 1 
    12          1
    13          2
    14          1
    16          1
    24          1
    25          3
    26         12
    27         20
    28         82
    29          7
    30          1
    32         20
    33          7
    34          2
    38         18
    39         21
    40         30
    41         23
    42         33
    43         59
    44         29
    45        142
    46         63
    47         19
    48          5
    49          1
    50         12
    51          5
    52          4
    53         20
    54          7
    55         59
    56         16
    57        131
    58        768
    59         46
    60         92
    61          3
    62          2
    65          1
    66          4
    67          3
    70         22
    71         12
    72         11
    73        186
    74         17
    75          9
    76          1
    82          3
    83          4
    84          1
    98          1
   100        999
   101         54
   102         51
   103          2