##TITLE=Library Entry 9157
##JCAMP-DX=Revision 4.10 
##DATA TYPE=MASS SPECTRUM
##SAMPLE DESCRIPTION=H.FR.GRUTZMACHER HAMBURG UNIV., HAMBURG, GERMANY, F.R.G
.
##NAMES=HP
##CAS NAME=L-Valine, N-acetyl-
##MOLFORM=C7H13NO3
##CAS REGISTRY NO=96-81-1
##MP= -300
##BP= -300
##MW= 159
##$RETENTION INDEX=0
##$CONDENSED SPECTRUM=NO
##NPOINTS= 68
##XYDATA=(XY..XY) 1 
    14         22
    15        150
    25          1
    26         24
    27        180
    28        467
    29         94
    30        124
    31         11
    32          7
    38         20
    39        143
    40         43
    41        238
    42        127
    43        999
    44        103
    45         47
    46         31
    50          3
    51          8
    52         10
    53         17
    54         34
    55        186
    56        156
    57        291
    58         78
    59         19
    60        243
    61          9
    67          4
    68         14
    69         22
    70         65
    71        135
    72        805
    73         49
    74        308
    75         92
    76          9
    82         48
    83         14
    84         21
    85          9
    86          3
    87          3
    88         22
    97          8
    98         21
    99        653
   100         75
   101         13
   102         19
   113         19
   114        371
   115         63
   116         29
   117        161
   118          8
   126         15
   127          1
   141          1
   142         17
   143          2
   145          2
   159         28
   160         15