##TITLE=Library Entry 80465
##JCAMP-DX=Revision 4.10 
##DATA TYPE=MASS SPECTRUM
##SAMPLE DESCRIPTION=Humboldt-Universitat zu Berlin, Department of Chemistry
, Analytical Group
##NAMES=HP
##CAS NAME=5'-O-(4-Oxopentanoyl)-2'-O-uridine
##MOLFORM=C21H22N2O9
##CAS REGISTRY NO=96026-64-1
##MP= -300
##BP= -300
##MW= 446
##$RETENTION INDEX=0
##$CONDENSED SPECTRUM=NO
##NPOINTS= 229
##XYDATA=(XY..XY) 1 
    12          2
    13          2
    14         23
    15         46
    16          7
    17          5
    18         20
    19         11
    25          2
    26         29
    27         71
    28        248
    29         70
    30         10
    31         33
    32         36
    36          3
    37          7
    38         12
    39         43
    40         33
    41         65
    42         63
    43        470
    44         37
    45         30
    46          1
    47          3
    49          4
    50         38
    51         87
    52         16
    53         29
    54         26
    55         99
    56         37
    57         50
    58          8
    59          3
    60          4
    61          4
    62          2
    63          2
    65          5
    66          4
    67          8
    68         33
    69         57
    70         37
    71         72
    72          6
    73         25
    74         10
    75          7
    76         18
    77        284
    78         24
    79         10
    80          5
    81         32
    82         13
    83         11
    84         10
    85         21
    86         10
    87          3
    91          2
    92          2
    93          2
    94          6
    95         12
    96         24
    97        140
    98         42
    99        519
   100         29
   101          6
   102          1
   103          3
   105        999
   106         81
   107          7
   108          5
   109          3
   110          7
   111          4
   112         22
   113         57
   114         16
   115         14
   116          2
   117         27
   118          2
   119          1
   120          1
   121          3
   122         53
   123         20
   124          6
   125          4
   126          2
   130          2
   132          1
   133          4
   134          2
   135          2
   136          7
   137         16
   138          4
   139          3
   140          1
   141          7
   147          1
   148         15
   149          3
   150          1
   151          3
   152          2
   153          2
   154          3
   155          4
   156          1
   157          1
   161          1
   162          1
   163          2
   164          1
   165         12
   166          2
   167          4
   170          1
   171          3
   172          1
   177          4
   178          2
   179          9
   180          5
   181          1
   183          2
   184          1
   188          2
   189          8
   190          2
   191         27
   192          3
   193          2
   194          0
   195         15
   196          2
   197          0
   201        100
   202         14
   203          2
   205          0
   207          7
   208         14
   209          7
   210          1
   212          1
   213          6
   214          1
   215          1
   217          2
   218          2
   219          6
   220          1
   225          3
   226          2
   227          2
   230          0
   231          8
   232          1
   233          0
   237          7
   238          1
   263          1
   265          0
   269          7
   270          1
   271          0
   281          1
   282          0
   287          0
   299          0
   306          1
   307          2
   308          0
   309          0
   312         10
   313          2
   314          0
   316          0
   317          1
   318          0
   323          2
   324          3
   325          1
   326          0
   329          5
   330          3
   331          2
   332          0
   335          9
   336          2
   337          0
   341          6
   342          1
   343          0
   347          0
   379          0
   385          1
   386          0
   421          0
   422          0
   423          0
   427          1
   428          7
   429          2
   430          0
   433          5
   434          3
   435          1
   436          0
   439         11
   440          3
   441          0
   445          5
   446          1
   447          0