##TITLE=Library Entry 71902
##JCAMP-DX=Revision 4.10 
##DATA TYPE=MASS SPECTRUM
##SAMPLE DESCRIPTION=Humboldt-Universitat zu Berlin, Department of Chemistry
, Analytical Group
##NAMES=HP
##CAS NAME=3'-O-(4,4'-Dimethoxytrityl)-5'-O-(4-oxopentanoyl)uridine
##MOLFORM=C35H36N2O10
##CAS REGISTRY NO=96026-66-3
##MP= -300
##BP= -300
##MW= 644
##$RETENTION INDEX=0
##$CONDENSED SPECTRUM=NO
##NPOINTS= 191
##XYDATA=(XY..XY) 1 
    14         14
    15         48
    16         13
    17         16
    18         61
    19         12
    26         26
    27         69
    28        137
    29        104
    30         20
    31         51
    32         12
    39         48
    40         30
    41        102
    42         73
    43        619
    44         57
    45         56
    50         10
    51         14
    52         14
    53         32
    54         34
    55        133
    56         59
    57        114
    58         28
    59         14
    60         18
    61          9
    63         12
    64         13
    65         12
    67         18
    68         32
    69         64
    70         71
    71        129
    72         10
    73         63
    74         14
    75          9
    76         12
    77         29
    78         12
    79          9
    81         39
    82         26
    83         26
    84         25
    85         36
    86         29
    87         12
    89          8
    91         13
    92          9
    94         12
    95         22
    96         44
    97        186
    98         65
    99        999
   100         69
   101         28
   102          9
   103          9
   105         14
   107          8
   108         12
   110         21
   111         16
   112         61
   113        158
   114         68
   115         69
   116          8
   117        154
   118         13
   121         16
   122         10
   123          8
   124         10
   125         12
   126         10
   127         16
   128         10
   129         10
   130          9
   133         16
   135         20
   136          8
   137          9
   138         10
   139         17
   140         10
   141         40
   142         13
   143          8
   145          6
   148         10
   149          9
   150          6
   151         20
   152         53
   153         44
   154         29
   155         47
   156          8
   157          6
   163          9
   164         10
   165         47
   166         16
   167         13
   168          8
   169         18
   171         43
   172         13
   176          6
   178          6
   179          8
   180         21
   181         30
   182         14
   183         34
   184          9
   185          5
   187          6
   189         20
   190          6
   191          9
   195         39
   196         32
   197         41
   198          9
   200          8
   201          8
   202         37
   203         10
   207         16
   208         63
   209         16
   210          6
   211         12
   212         12
   213         36
   214          9
   215         41
   216         14
   217          9
   221          5
   223          6
   225         16
   226         22
   227        111
   228         36
   229         28
   230         29
   231        177
   232         21
   233          6
   241          6
   243         12
   244         10
   245         18
   246          5
   257          6
   258          4
   259         17
   260          6
   271          5
   273         59
   274         13
   281          4
   287          5
   288         51
   289         18
   290          4
   303         84
   304         96
   305         22
   306         14
   307         29
   308          8
   316          5
   324         17
   325          4
   329          4
   384          4