##TITLE=Library Entry 79622
##JCAMP-DX=Revision 4.10 
##DATA TYPE=MASS SPECTRUM
##SAMPLE DESCRIPTION=Humboldt-Universitat zu Berlin, Department of Chemistry
, Analytical Group
##NAMES=HP
##CAS NAME=5'-O-(4-Oxopentanoyl)-3'-O-uridine
##MOLFORM=C21H22N2O9
##CAS REGISTRY NO=96026-65-2
##MP= -300
##BP= -300
##MW= 446
##$RETENTION INDEX=0
##$CONDENSED SPECTRUM=NO
##NPOINTS= 246
##XYDATA=(XY..XY) 1 
    12          2
    13          2
    14         35
    15         11
    16         16
    17          4
    18          4
    25          2
    26         13
    27         24
    28        159
    29         20
    30          2
    31          5
    32         41
    36          2
    37          7
    38          9
    39         25
    40         18
    41         23
    42         29
    43        166
    44         17
    45         11
    46          1
    49          5
    50         34
    51         72
    52         13
    53         18
    54         12
    55         46
    56         13
    57          8
    58          1
    60          1
    61          1
    62          2
    63          2
    64          1
    65          4
    66          4
    67          6
    68         17
    69         24
    70         16
    71         21
    72          1
    73          5
    74         12
    75          5
    76         17
    77        257
    78         22
    79          6
    80          4
    81         29
    82          7
    83          4
    84          2
    85          6
    86          1
    89          1
    91          2
    92          2
    93          3
    94          8
    95         10
    96         16
    97         40
    98         20
    99        130
   100          8
   101          2
   102          1
   103          1
   105        999
   106         88
   107          7
   108          6
   109          4
   110          3
   111          3
   112         15
   113         23
   114          3
   115          3
   116          1
   117          2
   118          1
   119          1
   120          2
   121          4
   122         80
   123         10
   124          2
   125          2
   127          1
   128          1
   129          0
   131          1
   133          1
   134          1
   135          3
   136         12
   137         23
   138          3
   139          2
   141          1
   145          1
   146          1
   147          1
   148         23
   149          9
   150          3
   151          2
   152          2
   153          2
   154          5
   155          1
   157          1
   161          0
   162          4
   163          5
   164          3
   165         17
   166          2
   167          2
   168          0
   169          0
   170          0
   171          1
   172          1
   173          0
   174          0
   177         12
   178          3
   179         18
   180          3
   181          2
   185          1
   188          3
   189          5
   190          4
   191         65
   192          7
   193         11
   194          2
   195          8
   196          1
   197          0
   201        191
   202         27
   203          4
   204          0
   205          0
   206          0
   207         13
   208          5
   209          8
   210          1
   212          0
   213          2
   215          2
   216          0
   217          5
   218          5
   219          8
   220          1
   221          0
   225          2
   226          1
   227          2
   228          0
   230          0
   233          0
   237          0
   241          1
   263          1
   265          4
   266          0
   269         11
   270          2
   271          0
   281          1
   282          0
   283          0
   284          0
   285          0
   287          0
   294          0
   295          0
   299          0
   300          0
   301          0
   304          0
   306          1
   307          6
   308          1
   309          0
   312         18
   313          7
   314          1
   315          0
   316          1
   317          2
   318          0
   319          0
   321          0
   322          0
   323          1
   324          0
   325          0
   329          8
   330          3
   331         16
   332          3
   333          0
   335          0
   336          0
   341          2
   342          0
   372          0
   379          0
   385          6
   386          1
   387          0
   395          0
   396          0
   413          0
   421          0
   422          0
   423          0
   428         12
   429          3
   430          0
   433          0
   434          1
   435          0
   436          0
   439         12
   440          3
   441          0
   445          1
   446          0