##TITLE=Library Entry 60998
##JCAMP-DX=Revision 4.10 
##DATA TYPE=MASS SPECTRUM
##SAMPLE DESCRIPTION=Chemical Concepts
##NAMES=HP
##CAS NAME=Benzenepropanol, .alpha.-methyl-.beta.-nitro-, (R*,R*)-(.+-.)-
##MOLFORM=C10H13NO3
##CAS REGISTRY NO=96040-24-3
##MP= -300
##BP= -300
##MW= 195
##$RETENTION INDEX=0
##$CONDENSED SPECTRUM=NO
##NPOINTS= 121
##XYDATA=(XY..XY) 1 
    25          2
    26          7
    27         58
    28         18
    29         48
    30         17
    31         13
    37          3
    38         10
    39         78
    40          9
    41         43
    42         10
    43        228
    44         38
    45        223
    46          7
    49          1
    50         35
    51         98
    52         27
    53         20
    54          4
    55         33
    56          8
    57         23
    58          8
    59          4
    60          2
    61          4
    62         14
    63         44
    64         16
    65        128
    66         14
    67          9
    68          2
    69          9
    70          4
    71         27
    72          2
    73          3
    74         14
    75         16
    76         17
    77        145
    78        103
    79         75
    80          6
    81          7
    82          2
    83          5
    84          5
    85         39
    86          4
    87          4
    88          4
    89         38
    90         37
    91        999
    92        113
    93         10
    94          9
    95          5
    96          2
    97          4
    98          2
    99          6
   100          2
   101          5
   102         21
   103         96
   104        151
   105        427
   106         58
   107         16
   108          2
   109          2
   111          2
   112          2
   113          2
   114          2
   115         44
   116         42
   117         84
   118         16
   119         14
   120          8
   121          7
   122          2
   123          2
   125          1
   126          2
   127          9
   128         12
   129         23
   130         22
   131         62
   132         16
   133        138
   134         51
   135         10
   136          2
   137          1
   141          4
   142          2
   143          2
   145          2
   146          2
   147         21
   148        383
   149         62
   150          5
   151          3
   152          2
   155          1
   159          2
   160          2
   167          5
   169          1
   195          2