##TITLE=Library Entry 71992
##JCAMP-DX=Revision 4.10 
##DATA TYPE=MASS SPECTRUM
##SAMPLE DESCRIPTION=Chemical Concepts
##NAMES=HP
##CAS NAME=Cyclohexaneethanol, 1-hydroxy-.beta.-nitro-, (.+-.)-
##MOLFORM=C8H15NO4
##CAS REGISTRY NO=96040-03-8
##MP= -300
##BP= -300
##MW= 189
##$RETENTION INDEX=0
##$CONDENSED SPECTRUM=NO
##NPOINTS= 99
##XYDATA=(XY..XY) 1 
    25          4
    26         43
    27        352
    28         82
    29        178
    30         84
    31        148
    33          2
    34          3
    37          8
    38         22
    39        254
    40         72
    41        450
    42        377
    43        386
    44        124
    45        288
    46         19
    47          8
    48          4
    49          3
    50         15
    51         30
    52         14
    53        104
    54         82
    55        972
    56        114
    57        131
    58         14
    59          7
    60          4
    61         24
    62          9
    63          7
    64          2
    65         23
    66         12
    67         83
    68         20
    69        266
    70        196
    71        148
    72         12
    73         68
    74         36
    75          4
    76          2
    77         29
    78          9
    79         96
    80         54
    81        452
    82         44
    83        134
    84         12
    85         13
    86          6
    87          4
    88          5
    89          2
    91         35
    92          7
    93         11
    94          4
    95         47
    96         12
    97         90
    98        273
    99        999
   100         90
   101          8
   102          1
   103          2
   104          1
   105          9
   106          4
   107         51
   108          6
   109          5
   110          1
   111          4
   112          2
   113          4
   114          1
   115          2
   116          1
   120          1
   121          1
   123          3
   124          7
   125        212
   126         20
   127          2
   141          4
   142          3
   143         25
   144          3