##TITLE=Library Entry 620
##JCAMP-DX=Revision 4.10 
##DATA TYPE=MASS SPECTRUM
##SAMPLE DESCRIPTION=Chemical Concepts
##NAMES=HP
##CAS NAME=Propanoic acid, 2-amino-3-hydroxy-, ethyl ester
##MOLFORM=C5H9NO5
##CAS REGISTRY NO=96040-01-6
##MP= -300
##BP= -300
##MW= 163
##$RETENTION INDEX=0
##$CONDENSED SPECTRUM=NO
##NPOINTS= 100
##XYDATA=(XY..XY) 1 
    25          4
    26         56
    27        353
    28        112
    29        999
    30        247
    31        170
    33          6
    38          0
    39          7
    40          3
    41         37
    42        109
    43        417
    44        195
    45        292
    46         28
    47        143
    48          5
    49          0
    50          0
    51          1
    52          0
    53         10
    54         28
    55        123
    56         14
    57         12
    58          9
    59         44
    60         10
    61         31
    62         11
    63          0
    65          1
    67          2
    68          1
    69         17
    70         41
    71        782
    72        125
    73         33
    74         72
    75         83
    76          4
    77          2
    78          0
    79          1
    81          1
    82          2
    83          3
    84          4
    85         40
    86          5
    87         53
    88        212
    89        183
    90         10
    91          3
    92          0
    93          0
    94          0
    95          0
    96          0
    97          2
    98          3
    99         20
   100         30
   101         13
   102          8
   103          6
   104          2
   105         39
   106          4
   107          0
   109          0
   111          0
   112          0
   113          0
   114          0
   115          2
   116         46
   117         12
   118         68
   119          3
   120          0
   121          0
   122          0
   123          0
   128          1
   129          0
   130          1
   131          3
   132          8
   133         13
   134          0
   136          1
   145          2
   146          1
   164          0