##TITLE=Library Entry 80287
##JCAMP-DX=Revision 4.10 
##DATA TYPE=MASS SPECTRUM
##SAMPLE DESCRIPTION=Chemical Concepts
##NAMES=HP
##CAS NAME=2-Nitro-1-phenyl-3-(tetrahydropyran-2-yloxy)propan-1-one
##MOLFORM=C14H17NO5
##CAS REGISTRY NO=96040-43-6
##MP= -300
##BP= -300
##MW= 279
##$RETENTION INDEX=0
##$CONDENSED SPECTRUM=NO
##NPOINTS= 111
##XYDATA=(XY..XY) 1 
    26         17
    27        132
    28        119
    29        168
    30         73
    31         68
    37          3
    38          9
    39         76
    40         21
    41        448
    42         56
    43        153
    44         64
    45         46
    46         12
    47         12
    49          3
    50         39
    51        121
    52         12
    53         20
    54         19
    55        230
    56        613
    57        157
    58          8
    59          8
    60          4
    61          2
    62          3
    63          8
    64          2
    65         16
    66          3
    67         85
    68          7
    69         13
    70         25
    71         15
    72          3
    73         79
    74        109
    75         14
    76         24
    77        445
    78         37
    79          5
    81         17
    82          3
    83         26
    84         87
    85        838
    86         45
    87          6
    88          9
    89          5
    90          2
    91         27
    92          4
    93         33
    94          6
    95          3
    97          4
    98          4
    99         26
   100         11
   101        171
   102         27
   103         32
   104         19
   105        999
   106         78
   107          6
   115          8
   116          2
   117         15
   118          2
   119         12
   120          8
   121          9
   122         22
   123         29
   128         29
   129          3
   130         18
   131         22
   132        121
   133        245
   134         26
   135          2
   141          2
   146         27
   147          6
   148          3
   149         31
   150          4
   158          5
   160         10
   161          2
   168          1
   174         12
   175         10
   176          2
   177          2
   178         44
   179          5
   188          1
   221          2
   232          1
   278          1