##TITLE=Library Entry 14842
##JCAMP-DX=Revision 4.10 
##DATA TYPE=MASS SPECTRUM
##SAMPLE DESCRIPTION=Chemical Concepts
##NAMES=HP
##CAS NAME=2,2'-Thiobis(6-tert.-butyl-1-hydroxy-4-methylphenyl), diacetate
##MOLFORM=C26H34O4S
##CAS REGISTRY NO=96073-85-7
##MP= -300
##BP= -300
##MW= 442
##$RETENTION INDEX=0
##$CONDENSED SPECTRUM=NO
##NPOINTS= 226
##XYDATA=(XY..XY) 1 
    34          2
    36          3
    37          1
    38          3
    39         35
    41        175
    43        999
    45         22
    47          3
    50          2
    51         13
    53         25
    55         32
    57        246
    59         42
    60          2
    61          2
    63          7
    65         21
    66          4
    67         12
    69         13
    70          3
    71          5
    73         20
    74          2
    75          3
    77         43
    78         13
    79         23
    80          3
    81          4
    83          8
    84          2
    85          4
    87          3
    89          3
    91         77
    92          9
    93         13
    94          3
    95          3
    97          4
    99          2
   100          1
   102          4
   103         17
   105         60
   106          7
   107         16
   108         10
   109          9
   110          5
   111          8
   113          4
   115         28
   116         10
   117         28
   118         13
   119         52
   121         68
   122         15
   123         15
   124          2
   125          4
   127          7
   128         11
   129         10
   130          6
   131         18
   132          9
   133         44
   134         23
   135         22
   136          8
   137         11
   138          8
   139         17
   140          3
   141          3
   142          2
   143          4
   145         44
   146         89
   147         48
   148         34
   149        145
   150         17
   151         12
   152          5
   153         11
   154          2
   155          8
   156          1
   157          1
   158          2
   159          5
   160         23
   161         42
   162         44
   164        256
   165         33
   166          4
   167          4
   171          3
   173          2
   174          1
   175          3
   176          1
   177          6
   178          7
   179         23
   180          7
   181          8
   182          2
   183          1
   184          1
   185          1
   186          1
   187          1
   188          1
   189          2
   190          1
   191          6
   192          4
   193         18
   195         41
   196          9
   197          4
   198          1
   199          1
   200          1
   201          1
   202          1
   203          2
   204          1
   205          9
   206          4
   207          9
   208          2
   209          2
   210          1
   211          2
   212          1
   213          1
   214          1
   215          1
   217          1
   219          1
   220          1
   221          4
   222          1
   223          3
   224          1
   225          2
   226          1
   227          3
   228          2
   229          2
   230          3
   231          1
   233          1
   235          2
   236          1
   237          1
   238          1
   239          1
   240          1
   241          2
   242          1
   243          2
   244          2
   245         13
   246          3
   247          1
   249          1
   251          1
   253          1
   255          2
   257          3
   267          1
   269          1
   270          1
   271          3
   272          1
   281          1
   283          2
   284          1
   285          2
   286          2
   287          6
   288          1
   298          2
   299          2
   300          2
   301         30
   302         17
   303          5
   304          1
   313          1
   340          2
   341          2
   342          3
   343          5
   344          1
   353          1
   354          9
   356          7
   358        307
   359         74
   360         22
   361          4
   367          1
   396          2
   397          3
   398          3
   400        154
   401         35
   402         10
   403          2
   439          1
   440          1
   442         63
   443         20
   444          6
   445          1