##TITLE=Library Entry 63236
##JCAMP-DX=Revision 4.10 
##DATA TYPE=MASS SPECTRUM
##SAMPLE DESCRIPTION=LAC, NIDDK, NIH, Bethesda, MD 20892
##NAMES=HP
##CAS NAME=Benzyl urocanate
##MOLFORM=C13H12N2O2
##CAS REGISTRY NO=96144-13-7
##MP= -300
##BP= -300
##MW= 228
##$RETENTION INDEX=0
##$CONDENSED SPECTRUM=NO
##NPOINTS= 118
##XYDATA=(XY..XY) 1 
    41         18
    42          1
    43          8
    44          8
    45          4
    47          3
    49          8
    50         23
    51         54
    52         22
    53          9
    54          5
    55          4
    56          2
    57          2
    60          2
    61          2
    62          8
    63         33
    64          6
    65        166
    66         90
    67         13
    68         13
    69          5
    70          1
    71          1
    73          1
    74          4
    75          3
    77         81
    78         19
    79         27
    80          5
    81          9
    82         25
    83          1
    84          9
    85          1
    86          6
    87          2
    89         48
    91        999
    92         91
    93        163
    94        331
    95         31
    96          2
    97          2
    98          1
    99          1
   101          0
   102          0
   103          2
   104          3
   105         22
   106          6
   107         14
   108          1
   109         12
   110          2
   111          0
   114          2
   115         16
   116          3
   117          1
   119          0
   120         20
   121        488
   122        128
   123          8
   124          2
   127          2
   128          2
   129         10
   130          3
   131          1
   133          2
   136          2
   137          5
   138          3
   139          2
   140          2
   141          1
   142          5
   143          1
   147          0
   149          3
   150          0
   151          3
   154          6
   155          6
   156         17
   157          8
   158          2
   160          1
   163          1
   167          1
   168          9
   169         12
   170          2
   171          1
   173          0
   175          0
   181         10
   182         26
   183        535
   184        122
   185         12
   186          0
   187          0
   209          7
   210         65
   211         11
   227          6
   228        261
   229         48
   230          5