##TITLE=Library Entry 32413
##JCAMP-DX=Revision 4.10 
##DATA TYPE=MASS SPECTRUM
##SAMPLE DESCRIPTION=Chemical Concepts
##NAMES=HP
##CAS NAME=1,6,11-Dodecatriene, (Z)-
##MOLFORM=C12H20
##CAS REGISTRY NO=96165-45-6
##MP= -300
##BP= -300
##MW= 164
##$RETENTION INDEX=0
##$CONDENSED SPECTRUM=NO
##NPOINTS= 81
##XYDATA=(XY..XY) 1 
    23          2
    24          0
    26         14
    27        310
    28         14
    29        389
    30          9
    31          1
    36          0
    37          3
    38         10
    39        397
    40         39
    41        962
    42         56
    43         87
    45          0
    49          0
    50          8
    51         33
    52         18
    53        219
    54        575
    55        789
    56         45
    57         15
    58          1
    62          1
    63          9
    64          3
    65         52
    66         59
    67        999
    68        317
    69        142
    70          6
    71          1
    73          9
    74          1
    75          2
    76          1
    77         52
    78         27
    79        231
    80        239
    81        673
    82        256
    83         76
    84          4
    89          1
    91         31
    92          7
    93        147
    94        109
    95        125
    96         43
    97         25
    98          1
   103          0
   105          5
   107        113
   108         37
   109         60
   110          9
   115          1
   117          1
   119          1
   120          1
   121         46
   122         44
   123         20
   124          1
   128          1
   130          0
   133          0
   135         36
   136          8
   149         10
   150          1
   162          1
   164          4