##TITLE=Library Entry 28580
##JCAMP-DX=Revision 4.10 
##DATA TYPE=MASS SPECTRUM
##SAMPLE DESCRIPTION=Chemical Concepts
##NAMES=HP
##CAS NAME=2-Aminobutanoic acid, TMS derivative
##MOLFORM=C7H17NO2Si
##CAS REGISTRY NO=96188-39-5
##MP= -300
##BP= -300
##MW= 175
##$RETENTION INDEX=0
##$CONDENSED SPECTRUM=NO
##NPOINTS= 81
##XYDATA=(XY..XY) 1 
    38          0
    39          5
    40          2
    41        128
    42         14
    43         40
    44         12
    45         62
    46          5
    47         42
    48          1
    49          1
    51          0
    52          0
    53          1
    54          3
    55          4
    56         31
    57         25
    58        999
    59         75
    60          8
    61         24
    62          2
    63          0
    65          3
    66          1
    68          0
    69          2
    70          2
    71          0
    72          4
    73        156
    74        114
    75        226
    76         19
    77          9
    78          0
    83          0
    84          1
    85          1
    86          3
    87          5
    88          1
    89          1
    91          4
    92          0
    98          1
    99          7
   100          3
   101          1
   102          3
   103         73
   104          6
   105          2
   114         26
   115          8
   116          2
   117          2
   118          2
   119          0
   126          0
   128          0
   129          0
   130         28
   131          4
   132          6
   133          1
   142         96
   143         22
   144          6
   145          1
   146         37
   147          4
   148          1
   158          0
   160         58
   161          8
   162          2
   175          1
   176          4