##TITLE=Library Entry 72002
##JCAMP-DX=Revision 4.10 
##DATA TYPE=MASS SPECTRUM
##SAMPLE DESCRIPTION=John Halket,Royal Holloway, University of London, UK
##NAMES=HP
##CAS NAME=Spiro(1,3-dioxolane)-2,3'-(5'-androsten-16'-ol)
##MOLFORM=C21H32O3
##CAS REGISTRY NO=96191-80-9
##MP= -300
##BP= -300
##MW= 332
##$RETENTION INDEX=0
##$CONDENSED SPECTRUM=NO
##NPOINTS= 193
##XYDATA=(XY..XY) 1 
    15          2
    19          1
    26          1
    27         11
    28          9
    29         23
    30          2
    31          5
    39         14
    40          5
    41         51
    42         22
    43         37
    44         18
    45         16
    50          1
    51          4
    52          3
    53         25
    55        132
    56         11
    57         36
    58          7
    59          1
    63          1
    65         17
    66          7
    67         34
    68          6
    69         10
    70          1
    71          5
    72          2
    73          9
    74          1
    77         46
    78         13
    79         59
    80          9
    81         24
    82          3
    83          5
    84          2
    86         43
    87          6
    88          1
    89          2
    91         88
    92         14
    93         36
    94          7
    95         17
    96          3
    97          6
    99        999
   100        100
   101         11
   102          3
   103         12
   104          7
   105         56
   106         11
   107         23
   108          6
   109          8
   110          2
   111          2
   112          1
   113          2
   115         20
   116          9
   117         26
   118          9
   119         31
   120          9
   121         10
   122          3
   123          5
   124          2
   125          3
   126          1
   127          5
   128         16
   129         19
   130          7
   131         23
   132          7
   133         13
   134          3
   135          6
   136          3
   137          2
   138          1
   139          2
   140          1
   141          9
   142          7
   143         14
   144          5
   145         16
   146          4
   147          6
   148          1
   149          2
   150          1
   151          2
   152          2
   153          4
   154          2
   155          6
   156          3
   157         11
   158          4
   159         14
   160          3
   161          5
   162          1
   163          2
   164          1
   165          4
   166          1
   167          2
   168          1
   169          3
   170          1
   171          6
   172          2
   173          7
   174          3
   175          3
   176          1
   177          3
   178          1
   179          2
   180          2
   181          2
   182          1
   183          2
   184          1
   185          4
   186          1
   187          3
   188          1
   189          2
   190          1
   191          1
   193          1
   195          1
   196          1
   197          2
   198          1
   199          3
   200          1
   201          1
   202          1
   203          1
   205          1
   209          1
   211          2
   212          1
   213          2
   214          1
   215          2
   216          1
   217          1
   218          1
   219          1
   225          1
   227          1
   229          2
   230          1
   231          1
   232          3
   233          1
   237          1
   243          1
   244          1
   245          1
   255          2
   269          1
   270          1
   271          1
   273          1
   287          1
   288          1
   289          1
   302          2
   303          2
   304          1
   317          2
   332         41
   333          9
   334          1