##TITLE=Library Entry 81038
##JCAMP-DX=Revision 4.10 
##DATA TYPE=MASS SPECTRUM
##SAMPLE DESCRIPTION=A.A.Kutin, Moscow, Russia
##NAMES=HP
##CAS NAME=Propanamide, 3-oxo-3-phenyl-N-(4-chlorophenyl)-
##MOLFORM=C15H12ClNO2
##CAS REGISTRY NO=962-08-3
##MP= -300
##BP= -300
##MW= 273
##$RETENTION INDEX=0
##$CONDENSED SPECTRUM=NO
##NPOINTS= 147
##XYDATA=(XY..XY) 1 
    33          1
    34          1
    35          3
    36         10
    37          9
    38         25
    39         64
    40         21
    41         22
    42         20
    43         28
    44         12
    45          8
    47          1
    48          0
    49          8
    50         67
    51        212
    52         29
    53          8
    54          1
    55          6
    56          2
    57          5
    58          0
    59          1
    60          2
    62         25
    63         68
    64         35
    65         75
    66          8
    67          2
    68          4
    69        129
    70          7
    71          7
    72          4
    73         33
    74         20
    75         52
    76         52
    77        723
    78        126
    79         10
    80          1
    81          1
    82          1
    83          4
    84          2
    85          6
    86          2
    87          4
    88          4
    89         17
    90         32
    91         62
    92         39
    93          8
    94          0
    95          2
    97          3
    98          6
    99         62
   100         19
   101         23
   102         12
   103          9
   105        999
   106         77
   107          5
   108          0
   109          1
   110          2
   111         19
   112          4
   113          7
   114          2
   115          2
   116          1
   117          1
   120        573
   121         53
   122          4
   123          1
   125         25
   127        969
   128         80
   129        304
   130         21
   131          1
   132          1
   133          4
   134          1
   135          0
   137          0
   138          3
   139          2
   140          8
   141          1
   142          3
   145          1
   146         10
   147         48
   148          6
   149         14
   150          2
   151          2
   152          2
   153         19
   154          3
   155          6
   156          0
   161          0
   165          0
   166          1
   167          2
   168          2
   170          1
   171          1
   176          1
   177          3
   178          0
   180          1
   181          0
   193          1
   194          0
   195          0
   209          0
   219          0
   220          0
   222          0
   228          0
   230          0
   231          0
   238          0
   244          0
   249          0
   250          0
   254          0
   265          0
   267          0
   273        241
   274         47
   275         83
   276         13
   277          1