##TITLE=Library Entry 53278
##JCAMP-DX=Revision 4.10 
##DATA TYPE=MASS SPECTRUM
##SAMPLE DESCRIPTION=Japan AIST/NIMC Database- Spectrum MS-IW-6797
##NAMES=HP
##CAS NAME=4-Hydroxy-3,5-dimethyl-6-(4-(2-methyl-3-(p-nitrophenyl)-2-propeny
lidene)tetrahydro-2-furyl)-2-pyranone
##MOLFORM=C21H21NO6
##CAS REGISTRY NO=96265-34-8
##MP= -300
##BP= -300
##MW= 383
##$RETENTION INDEX=0
##$CONDENSED SPECTRUM=NO
##NPOINTS= 325
##XYDATA=(XY..XY) 1 
    15          6
    16         10
    17         26
    18         55
    25          9
    26         50
    27        141
    28        769
    29         69
    30         75
    31         23
    32          5
    36          8
    38         10
    39        106
    40         25
    41        126
    42         19
    43        297
    44        244
    45         20
    46          5
    50         24
    51         59
    52         32
    53         90
    54         31
    55        202
    56         71
    57         65
    58          6
    60         11
    61          6
    62          9
    63         41
    64         22
    65         92
    66         46
    67         82
    68         21
    69         73
    70         21
    71         27
    72          7
    73         19
    74         11
    75         16
    76         25
    77        160
    78        109
    79        101
    80         34
    81         66
    82         52
    83        999
    84         66
    85         48
    86          8
    87          9
    88          7
    89         71
    90         90
    91        165
    92         42
    93         86
    94         35
    95        139
    96         34
    97         38
    98         21
    99         22
   100          7
   101         38
   102         30
   103         42
   104         34
   105         45
   106        455
   107        120
   108         61
   109         87
   110         30
   111        354
   112         59
   113         20
   114         13
   115        186
   116         66
   117         46
   118         23
   119         37
   120         62
   121         76
   122         35
   123         31
   124         34
   125         84
   126        104
   127         73
   128        173
   129        123
   130         92
   131         44
   132         25
   133         37
   134         20
   135         86
   136         89
   137        154
   138        387
   139        691
   140         97
   141        207
   142         95
   143         60
   144         50
   145         54
   146         38
   147         47
   148         22
   149         57
   150         42
   151         50
   152        104
   153        192
   154        919
   155        226
   156        135
   157         53
   158         54
   159         54
   160         42
   161         39
   162         40
   163        102
   164         31
   165        106
   166        803
   167        723
   168        177
   169        138
   170        113
   171         71
   172         54
   173         51
   174         51
   175         55
   176         26
   177         40
   178         34
   179         40
   180         44
   181         50
   182         70
   183        111
   184        308
   185        112
   186         42
   187         49
   188         28
   189         45
   190         34
   191         97
   192         32
   193         27
   194         32
   195         44
   196        128
   197         62
   198         56
   199         42
   200        153
   201         81
   202        132
   203         49
   204         36
   205         40
   206         23
   207         26
   208         26
   209         23
   210         60
   211         43
   212        189
   213        109
   214         97
   215         89
   216         51
   217        249
   218         69
   219         79
   220         27
   221         20
   222         18
   223         13
   224         27
   225         17
   226         40
   227         32
   228         46
   229         48
   230        241
   231        125
   232         27
   233         15
   234         16
   235         17
   236         31
   237         17
   238         21
   239         10
   240         21
   241         12
   242         33
   243         31
   244         50
   245         45
   246         39
   247        548
   248        103
   249         25
   250         17
   251         11
   252         21
   253         21
   254         32
   255         10
   256         15
   257         16
   258         11
   259         11
   260         11
   261         13
   262         17
   263         19
   264         44
   265         27
   266         33
   267         12
   268         20
   269          7
   270         17
   271         10
   272          9
   273          6
   274         11
   275         14
   276         15
   277         11
   278         14
   279          9
   280         23
   281         28
   282         57
   283         19
   284         12
   287          7
   288          8
   289          8
   290         15
   291         17
   292         40
   293         16
   294         21
   295         11
   296          9
   298         25
   299         23
   300         10
   301          7
   302         11
   303          8
   304         12
   305          8
   306         14
   307         11
   308         24
   309         29
   310         82
   311         22
   312          9
   317          5
   318         20
   319         23
   320         47
   321         19
   322         23
   323          9
   324          9
   325          5
   326          8
   327          8
   330          8
   331          6
   332          8
   333          6
   334          7
   335         14
   336         64
   337         47
   338         49
   339         17
   340         17
   348        196
   349         62
   350         33
   351         17
   352          9
   353         72
   354        116
   355         35
   356          7
   364         19
   365        226
   366        325
   367         78
   368         19
   369          7
   379          8
   381         40
   382         10
   383        874
   384        214
   385         39
   386          5