##TITLE=Library Entry 54503
##JCAMP-DX=Revision 4.10 
##DATA TYPE=MASS SPECTRUM
##SAMPLE DESCRIPTION=Japan AIST/NIMC Database- Spectrum MS-IW-6690
##NAMES=HP
##CAS NAME=2-Hydroxy-3-isopropyl-5,7-bis(piperidinomethyl)-2,4,6-cycloheptat
rien-1-one
##MOLFORM=C22H34N2O2
##CAS REGISTRY NO=96267-08-2
##MP= -300
##BP= -300
##MW= 358
##$RETENTION INDEX=0
##$CONDENSED SPECTRUM=NO
##NPOINTS= 186
##XYDATA=(XY..XY) 1 
    15          3
    17          3
    18          8
    26          2
    27         15
    28         34
    29         35
    30         38
    38          1
    39         17
    40          3
    41         64
    42         61
    43         41
    44         57
    45          1
    50          2
    51          5
    52          3
    53          9
    54          8
    55         66
    56         67
    57         47
    58          3
    63          2
    64          1
    65          9
    66          2
    67         10
    68          6
    69         20
    70         30
    71          3
    72          1
    73          1
    77         14
    78          5
    79         10
    80          6
    81          3
    82         16
    83         22
    84        999
    85        163
    86         82
    87          5
    89          3
    90          1
    91         29
    92          5
    93          7
    94          4
    95          3
    96          9
    97         12
    98        278
    99         19
   100          2
   101          1
   102          1
   103          7
   104          3
   105         16
   106          4
   107          9
   108          6
   109          4
   110          4
   111          1
   112          3
   114          2
   115         10
   116          4
   117         12
   118          6
   119         19
   120          7
   121         13
   122          5
   123          2
   124          2
   127          2
   128          5
   129          7
   130          4
   131          9
   132          6
   133         10
   134         11
   135          5
   136          6
   137         12
   138          8
   139          1
   141          1
   142          1
   143          3
   144          3
   145          9
   146          7
   147         28
   148         11
   149         10
   150          8
   151          2
   152          1
   156          2
   157          2
   158          3
   159          8
   160          7
   161         11
   162         15
   163         10
   164          3
   165          1
   170          1
   171          1
   172          3
   173          4
   174         16
   175         12
   176          6
   177         14
   178          4
   179          2
   184          1
   185          1
   186          3
   187          2
   188          6
   189          7
   190         70
   191         15
   192         80
   193         10
   194          1
   200          2
   201          1
   202         42
   203          9
   204          6
   205          1
   206          3
   212          1
   213          1
   214          2
   215          1
   216         10
   217         20
   218          7
   219          2
   228          4
   229          1
   230         33
   231          7
   232         39
   233          9
   234          1
   240          1
   242          1
   244          9
   245         16
   246         14
   247          3
   248          1
   255          1
   256          5
   257          1
   258          9
   259          2
   260          5
   261          1
   272         11
   273         87
   274         42
   275        412
   276         78
   277          9
   289          1
   330          1
   357          1
   358         60
   359         20
   360          3