##TITLE=Library Entry 72603
##JCAMP-DX=Revision 4.10 
##DATA TYPE=MASS SPECTRUM
##SAMPLE DESCRIPTION=V.G.Zaikin, TIPS, Russian Acad. Sci.
##NAMES=HP
##CAS NAME=8-Methyl-7-thiabicyclo[4.2.1]nonane
##MOLFORM=C9H16S
##CAS REGISTRY NO=96334-01-9
##MP= -300
##BP= -300
##MW= 156
##$RETENTION INDEX=0
##$CONDENSED SPECTRUM=NO
##NPOINTS= 63
##XYDATA=(XY..XY) 1 
    51         30
    52         10
    53        180
    54        160
    55        340
    56         30
    57         30
    58         30
    59        140
    60         90
    61        110
    63         10
    65        110
    66         50
    67        450
    68        170
    69         40
    71         40
    73         50
    74        110
    75         40
    77         90
    78         40
    79        270
    80         80
    81        370
    85        110
    86         50
    87        120
    88         20
    91         50
    92         20
    93        270
    94        200
    95        350
    96        120
    97         50
    98         30
    99        999
   100        140
   101        150
   102         30
   107        120
   109         40
   111         20
   113        140
   114         40
   115         50
   121         10
   122        140
   123         70
   124         10
   127        110
   128         40
   129         10
   141        350
   142         30
   143         20
   155         40
   156        530
   157         58
   158         26
   159          2