##TITLE=Library Entry 44268
##JCAMP-DX=Revision 4.10 
##DATA TYPE=MASS SPECTRUM
##SAMPLE DESCRIPTION=J.M. Halket, Trace Anal. Unit (TAU), London, UK
##NAMES=HP
##CAS NAME=L-Asparagine, 3TBDMS derivative
##MOLFORM=C22H50N2O3Si3
##CAS REGISTRY NO=96381-41-8
##MP= -300
##BP= -300
##MW= 474
##$RETENTION INDEX=2159
##$CONDENSED SPECTRUM=NO
##NPOINTS= 167
##XYDATA=(XY..XY) 1 
    39         14
    40          1
    41         60
    42          9
    43         18
    44         13
    45         48
    46          6
    47         16
    53          1
    54          3
    55         10
    56         14
    57         62
    58         26
    59         84
    60         13
    61          9
    69          3
    70          6
    71          4
    73        999
    74        132
    75        220
    76         16
    77          6
    83          1
    84          4
    85          9
    86         10
    87          7
    88          3
    97          2
    98          7
    99         17
   100         48
   101         11
   102         14
   103         15
   104          2
   105          1
   112          1
   113          3
   115         69
   116        103
   117         28
   118         11
   119          7
   125          6
   126          3
   127          4
   128         39
   129         11
   130         30
   131         18
   132         37
   133         58
   134         12
   135          6
   142         13
   143          8
   144         25
   145          6
   147        165
   148         36
   149         41
   150          5
   151          2
   155          1
   156         23
   157          1
   158         97
   159         18
   160         18
   161          4
   162          3
   170          1
   171          2
   172          9
   173         11
   174         84
   175         14
   176          7
   177          3
   183         14
   184          5
   185          2
   186          4
   187          2
   188         12
   189         32
   190          9
   191          3
   199          4
   200          3
   201          5
   202         11
   203          4
   204         14
   205          5
   206          4
   207          4
   211          2
   216          3
   217          4
   218          3
   221          1
   227          1
   228          2
   229          1
   230         26
   231          7
   232         42
   233          9
   234          3
   244         61
   245         30
   246         11
   247          3
   248          5
   257         32
   258         16
   259         10
   260          4
   262          4
   270          2
   272         15
   273          3
   274          2
   283          5
   284          1
   285         23
   286         19
   287          8
   288          4
   297          3
   300          3
   302         92
   303         25
   304          9
   305          2
   315         33
   316         11
   317          5
   326         11
   327          9
   328          3
   342          4
   343          7
   344          2
   346          2
   376          2
   389          1
   400         38
   401         14
   402          6
   403          2
   417        386
   418        137
   419         61
   420         15
   421          3
   459         10
   460          4
   461          1
   474          4
   475          1