##TITLE=Library Entry 44308
##JCAMP-DX=Revision 4.10 
##DATA TYPE=MASS SPECTRUM
##SAMPLE DESCRIPTION=NIST Mass Spectrometry Data Center
##NAMES=HP
##CAS NAME=L-Glutamine, 3TBDMS derivative
##MOLFORM=C23H52N2O3Si3
##CAS REGISTRY NO=96381-42-9
##MP= -300
##BP= -300
##MW= 488
##$RETENTION INDEX=2419
##$CONDENSED SPECTRUM=NO
##NPOINTS= 289
##XYDATA=(XY..XY) 1 
    26          1
    27          4
    29         16
    30          1
    31          2
    36          1
    37          1
    38          1
    39         13
    40          3
    41         44
    42          7
    43         14
    44          4
    45         48
    46          5
    47         23
    48          1
    49          1
    50          1
    51          1
    52          1
    53          3
    54          7
    55         16
    56         46
    57         60
    58         28
    59        109
    60         17
    61         16
    62          1
    63          1
    65          1
    66          2
    67          2
    68          3
    69          2
    70          4
    71          2
    72         17
    73        999
    74        131
    75        397
    76         28
    77         16
    78          1
    79          1
    80          1
    81          1
    82          2
    83         37
    84         22
    85         17
    86          9
    87          6
    88          4
    89          2
    92          1
    93          5
    94          3
    95          3
    96          2
    97          3
    98         11
    99         26
   100         65
   101         19
   102         12
   103         25
   104          4
   105          3
   107          2
   108          1
   109          1
   110          2
   111          4
   112         11
   113          6
   114         26
   115         90
   116         27
   117         50
   118         11
   119         10
   120          1
   121          2
   124          3
   125          1
   126          3
   127          3
   128         70
   129         17
   130         21
   131         24
   132         55
   133         98
   134         18
   135         10
   136          1
   137          1
   138          1
   139         32
   140         12
   141          8
   142        114
   143         18
   144         15
   145          5
   146         17
   147        283
   148         72
   149         97
   150         15
   151          7
   152          2
   153          1
   154          2
   155          5
   156         14
   157         13
   158         19
   159          9
   160         19
   161          4
   162          3
   163          1
   165          1
   167          6
   168         28
   169          6
   170         33
   171          7
   172         10
   173         14
   174         20
   175          8
   176          3
   177          2
   178          1
   181          4
   182          4
   183          1
   184          7
   185          6
   186          8
   187          6
   188          7
   189         23
   190          9
   191          4
   192          1
   193          1
   195          1
   197        105
   198        137
   199         24
   200          9
   201          3
   202          5
   203          2
   204          1
   205          2
   206          2
   207          3
   208          1
   209          1
   210          1
   212          1
   213          4
   214         15
   215          6
   216          5
   217          1
   218          2
   219          1
   221          3
   222          1
   223          1
   225          2
   226          1
   227          1
   228          1
   229          1
   230         21
   231          9
   232          5
   233          1
   234          1
   235          1
   241          4
   242          5
   243          2
   244          4
   245         12
   246          9
   247          3
   248          1
   253          3
   254          1
   255          3
   256          3
   257          1
   258         24
   259         12
   260          5
   261          1
   271        154
   272         61
   273         22
   274          7
   275          1
   281          2
   282          1
   283          2
   284          2
   285          1
   287          1
   288          1
   289          1
   290          3
   291          1
   297          1
   299         85
   300         30
   301         13
   302         14
   303          8
   304          2
   305          1
   311         12
   312          4
   313          5
   314          2
   315          1
   316          9
   317          4
   318          1
   327          3
   329        133
   330         37
   331         14
   332          4
   333          1
   339          3
   340          2
   341         13
   342          7
   343          2
   344          1
   345          1
   355          1
   356          3
   357         84
   358         25
   359         10
   360          3
   361          1
   373          1
   374          1
   385         42
   386         16
   387          7
   388          2
   403          2
   404          1
   413         10
   414          3
   415          4
   416          1
   417          1
   429          1
   431        500
   432        187
   433         85
   434         20
   435          5
   436          1
   455          2
   456          1
   470          1
   471          1
   473         21
   474          8
   475          4
   476          1
   488         11
   489          4
   490          2