##TITLE=Library Entry 8550
##JCAMP-DX=Revision 4.10 
##DATA TYPE=MASS SPECTRUM
##SAMPLE DESCRIPTION=LAC, NIDDK, NIH, Bethesda, MD 20892
##NAMES=HP
##CAS NAME=5,6-Dihydroergosterol
##MOLFORM=C28H46O
##CAS REGISTRY NO=96391-64-9
##MP= -300
##BP= -300
##MW= 398
##$RETENTION INDEX=0
##$CONDENSED SPECTRUM=NO
##NPOINTS= 171
##XYDATA=(XY..XY) 1 
    41        402
    43        999
    45         66
    53         95
    55        669
    57        187
    59        111
    65         26
    67        304
    69        851
    71        193
    74         19
    77        114
    78         20
    79        356
    81        670
    82         70
    83        222
    85         61
    87         35
    91        318
    93        304
    94         76
    95        378
    96         58
    97        118
    98         56
    99         99
   101         17
   103         20
   105        389
   107        650
   109        302
   111         77
   113         28
   115         68
   116         13
   117        141
   118         34
   119        184
   120         63
   121        194
   122          8
   123        161
   124         73
   125        194
   127         19
   128         26
   129         61
   130         27
   131        170
   132         59
   133        261
   134         67
   135        225
   137         60
   138          6
   141         46
   142         26
   143        101
   144         28
   145        199
   146         53
   147        254
   148         25
   149        145
   150         33
   151         76
   152         33
   153          8
   154          9
   155         31
   157         82
   158         31
   159        204
   161        286
   162         28
   163         58
   164         22
   165         21
   169         27
   170          8
   171         74
   172         10
   173         96
   174          7
   175        104
   176         21
   177         35
   179         28
   183         28
   185         70
   186         14
   187         91
   188         20
   189         47
   191          7
   197         36
   199         60
   200          8
   201         68
   202         23
   203         35
   211         43
   212          7
   213        166
   214         36
   215         73
   216          7
   217         21
   218          9
   219         20
   225         21
   227         56
   228         44
   229        178
   230         45
   231        121
   232         43
   233         24
   239         37
   240          7
   241         49
   243         33
   244          9
   245         35
   246        184
   247         68
   249          7
   253         63
   255        289
   256         75
   257        114
   258         56
   259         50
   260         16
   267         18
   269         93
   270         43
   271        624
   272        165
   273        265
   274         64
   283         32
   285         70
   286         41
   287         34
   298          7
   299         56
   300        130
   301         59
   302         14
   313         20
   314         16
   327         20
   337         32
   341          7
   355         62
   356         41
   360          9
   363          7
   365         22
   371         21
   381          8
   383        182
   384         56
   396         39
   397          7
   398        392
   399        117
   400         25