##TITLE=Library Entry 30278
##JCAMP-DX=Revision 4.10 
##DATA TYPE=MASS SPECTRUM
##SAMPLE DESCRIPTION=Chemical Concepts
##NAMES=HP
##CAS NAME=3-[4-(2-Methoxy-ethoxymethoxy)-phenyl]-acrylic acid
##MOLFORM=C13H16O5
##CAS REGISTRY NO=96400-72-5
##MP= -300
##BP= -300
##MW= 252
##$RETENTION INDEX=0
##$CONDENSED SPECTRUM=NO
##NPOINTS= 196
##XYDATA=(XY..XY) 1 
    26          5
    27         28
    28         12
    29        208
    30          9
    31        222
    33          6
    35          0
    36          3
    37          1
    38          8
    39         38
    40          5
    41         40
    42         10
    43         71
    44         49
    45        108
    46          3
    47          1
    50         19
    51         39
    52         12
    53         16
    54          5
    55         31
    56         10
    57         39
    58         15
    59        999
    60         65
    61          8
    62         13
    63         42
    64         15
    65         45
    66          8
    67          9
    68          6
    69         24
    70          8
    71         16
    72          3
    73          9
    74          8
    75         17
    76         22
    77         50
    78          9
    79         22
    80         17
    81         12
    82          6
    83         12
    84          6
    85         10
    86          2
    87          5
    88          3
    89        867
    90         67
    91         99
    92         13
    93          7
    94          6
    95          9
    96          5
    97         11
    98          6
    99          5
   100          1
   101         19
   102         41
   103         23
   104          5
   105         11
   106          3
   107         17
   108          4
   109          5
   110          4
   111          6
   112          3
   113          4
   114          1
   115          4
   116          2
   117          9
   118         27
   119         30
   120          8
   121          8
   122          5
   123          6
   124          4
   125          4
   126          2
   127          5
   128          2
   129          8
   130          3
   131         10
   132          4
   133          5
   134          2
   135          6
   136          5
   137          4
   138          3
   139          2
   140          2
   141          2
   142          0
   143          1
   144          1
   145          2
   146         10
   147         79
   148          9
   149         25
   150          3
   151          2
   152          1
   153          1
   154          1
   155          2
   156          1
   157          1
   158          1
   159          2
   160          2
   161          6
   162          3
   163         33
   164         75
   165          8
   166          1
   167          2
   168          1
   169          1
   170          1
   171          1
   172          0
   173          1
   174          1
   175          1
   176          2
   177         88
   178         16
   179          2
   180          1
   181          1
   182          1
   183          1
   185          2
   186          1
   189          1
   190          1
   191          1
   192          1
   193          1
   194          1
   195          1
   196          0
   197          1
   198          0
   199          0
   200          0
   201          0
   203          1
   204          1
   205          2
   206          1
   207          2
   208          2
   209          1
   210          1
   211          1
   213          1
   214          1
   215          2
   219          1
   220          1
   221          2
   222          2
   223          2
   235          9
   236          2
   237          3
   238          1
   239          1
   252        110
   253         17
   254          2
   255          1
   256          2