##TITLE=Library Entry 91052
##JCAMP-DX=Revision 4.10 
##DATA TYPE=MASS SPECTRUM
##SAMPLE DESCRIPTION=ASES Database, Dalian Institute, P.R. China
##NAMES=HP
##CAS NAME=Bis-but-2,3-diyl bis(3-oxa-pentanedioate
##MOLFORM=C16H24O10
##CAS REGISTRY NO=96424-19-0
##MP= -300
##BP= -300
##MW= 376
##$RETENTION INDEX=0
##$CONDENSED SPECTRUM=NO
##NPOINTS= 31
##XYDATA=(XY..XY) 1 
    41        158
    42        140
    43        329
    44        168
    55        337
    56        338
    57        338
    59        121
    71        251
    72        129
    73        259
    74        109
    75        267
    81        238
    82        120
    83        259
    84        247
    95        278
    96        141
    97        358
   114        999
   115        120
   116         99
   129        198
   189        249
   217         80
   231         30
   275         70
   302         79
   317         49
   376         70