##TITLE=Library Entry 60336
##JCAMP-DX=Revision 4.10 
##DATA TYPE=MASS SPECTRUM
##SAMPLE DESCRIPTION=TAT 1557
##NAMES=HP
##CAS NAME=Androstan-17-ol, 2,3-epoxy-, (2.alpha.,3.alpha.,5.alpha.,17.beta.
)-
##MOLFORM=C19H30O2
##CAS REGISTRY NO=965-66-2
##MP= -300
##BP= -300
##MW= 290
##$RETENTION INDEX=0
##$CONDENSED SPECTRUM=NO
##NPOINTS= 163
##XYDATA=(XY..XY) 1 
    41        190
    42         90
    43        350
    44        100
    45         40
    51         50
    52         30
    53         70
    54         80
    55        810
    56         60
    57        350
    58         50
    65        180
    66         90
    67        760
    68        280
    69        300
    70         60
    71        140
    72         10
    77        520
    78        130
    79        880
    80        220
    81        890
    82        630
    83        170
    84         80
    85         50
    91        999
    92        240
    93        890
    94        290
    95        670
    96        140
    97        200
    98         40
   103         80
   104         70
   105        830
   106        430
   107        720
   108        320
   109        430
   110        140
   111        120
   112         20
   115        110
   116         60
   117        240
   118        210
   119        470
   120        220
   121        410
   122        260
   123        380
   124        180
   125         50
   127         30
   128         80
   129        120
   130         60
   131        300
   132        100
   133        370
   134        150
   135        240
   136        140
   137         90
   138         30
   139         20
   141         50
   142         30
   143        160
   144         70
   145        310
   146        120
   147        360
   148        170
   149        260
   150         70
   151         80
   152         30
   153         30
   154         30
   155         30
   157        120
   158         60
   159        210
   160        100
   161        280
   162        110
   163        330
   164        150
   165         80
   166        100
   167         50
   169         30
   171         80
   172         40
   173        150
   174         90
   175        130
   176        170
   177         80
   178         50
   179         40
   183         30
   185         90
   186         40
   187        140
   188         50
   189        100
   190         60
   191         50
   192         30
   197         40
   199         90
   200         60
   201         90
   202        110
   203         70
   204         70
   205         40
   211         30
   213        280
   214         80
   215        240
   216         70
   217        110
   218        110
   219         70
   220        260
   221         60
   228         50
   229         60
   230         40
   231        510
   232        190
   233        130
   234         40
   236         50
   239         70
   244         20
   245         30
   247        160
   248         60
   249         10
   254         40
   255         30
   257        130
   258         30
   262        210
   263         40
   272        270
   273         60
   274         40
   275        190
   276         40
   290        480
   291        100
   292         10