##TITLE=Library Entry 14898
##JCAMP-DX=Revision 4.10 
##DATA TYPE=MASS SPECTRUM
##SAMPLE DESCRIPTION=Chemical Concepts
##NAMES=HP
##CAS NAME=d-Glucitol, 1-O-[2,3,4-tris(acetyloxy)-1-[1,2-bis(acetyloxy)ethyl
]butyl]-, pentaacetate, [1R-[1R*(R*),2R*,3s*]]-
##MOLFORM=C32H46O21
##CAS REGISTRY NO=96532-72-8
##MP= -300
##BP= -300
##MW= 766
##$RETENTION INDEX=0
##$CONDENSED SPECTRUM=NO
##NPOINTS= 401
##XYDATA=(XY..XY) 1 
    24          2
    25          1
    27          2
    28         19
    29          4
    30          0
    31          1
    36          0
    37          0
    38          0
    39          1
    40          0
    41          5
    42         10
    43        999
    44         23
    45          6
    47          0
    50          0
    51          0
    52          0
    53          1
    54          1
    55         12
    56          2
    57          5
    58          1
    59          0
    60          4
    61          8
    62          0
    63          0
    65          0
    66          1
    67          3
    68          6
    69         28
    70          6
    71          5
    72          0
    73         20
    74          2
    75          1
    76          0
    77          0
    78          0
    79          0
    80          1
    81         23
    82          5
    83         12
    84          2
    85         38
    86         14
    87          4
    88          0
    89          0
    91          0
    93          3
    94          3
    95          8
    96          2
    97         25
    98         10
    99         12
   100          1
   101          5
   102          3
   103         30
   104          1
   105          0
   107          0
   108          0
   109         10
   110         12
   111         57
   112         15
   113          4
   114          1
   115         65
   116          9
   117          1
   121          0
   122          0
   123          2
   124          1
   125          1
   126          1
   127         27
   128         12
   129         11
   130          1
   131          1
   132          0
   133          0
   134          0
   135          1
   136          0
   137          0
   138          0
   139         39
   140          7
   141          9
   142          2
   143          1
   144          1
   145         21
   146          1
   147          0
   148          0
   149          0
   150          0
   151          1
   152          8
   153        130
   154         18
   155          4
   156          0
   157         19
   158          4
   159          1
   160          0
   161          0
   164          0
   165          1
   166          0
   167          0
   168          0
   169         17
   170         10
   171         14
   172          1
   173          1
   174          0
   175          3
   176          0
   177          0
   178          0
   179          0
   181          0
   182          1
   183          1
   184          1
   185          0
   186          0
   187         29
   188          2
   189          1
   190          0
   191          0
   194          3
   195          2
   196          2
   197          0
   198          0
   199          3
   200          2
   201          1
   202          0
   203          0
   204          0
   207          0
   208          0
   209          0
   210          0
   211          4
   212          2
   213         17
   214          4
   215          1
   216          0
   217          9
   218          1
   219          0
   220          0
   221          0
   222          0
   224          1
   225          1
   226          0
   227          1
   228          0
   229          1
   230          0
   231          7
   232          1
   233          0
   236          0
   237          0
   238          0
   239          0
   241          0
   242          2
   243          2
   244          0
   245          0
   247          0
   249          0
   250          0
   251          0
   253          0
   254          0
   255          1
   256          2
   257          3
   258          1
   259          9
   260          1
   261          1
   262          0
   263          0
   264          0
   266          0
   267          1
   268          0
   269          0
   271          1
   272          1
   273         39
   274          5
   275          1
   279          0
   280          0
   283          0
   284          0
   285          0
   286          0
   287          0
   288          0
   289          3
   290          0
   291          2
   292          0
   293          0
   296          1
   297          0
   298          0
   301          1
   302          0
   303         10
   304          1
   305          0
   310          0
   314          0
   315          3
   316          4
   317          1
   318          0
   319          0
   322          0
   323          0
   324          0
   325          0
   327          1
   328          0
   329          0
   331         10
   332          1
   333         12
   334          2
   335          0
   339          0
   345          1
   346          0
   347          0
   348          0
   351          0
   356          0
   357          0
   358          0
   359          0
   360          0
   361         15
   362          2
   363          1
   364          0
   365          0
   366          0
   367          0
   369          0
   370          0
   371          0
   375        540
   376         91
   377         20
   378          2
   379          0
   382          0
   383          0
   387          1
   388          0
   389          0
   391          0
   393          1
   394          0
   399          0
   400          0
   401          0
   403          1
   404          0
   405          6
   406          1
   407          0
   408          0
   417          1
   418          0
   424          0
   425          0
   429          1
   430          1
   431          0
   432          0
   433          3
   434          0
   435          0
   441          0
   442          1
   443          0
   444          0
   445          1
   446          0
   447         11
   448          2
   449          0
   458          0
   459          1
   460          0
   461          0
   462          0
   463          0
   466          0
   467          0
   471          0
   472          0
   475          0
   477          1
   478          0
   479          0
   483          0
   484          3
   485          1
   486          0
   487          0
   489          7
   490          2
   491          0
   492          0
   500          0
   501          2
   502          2
   503          1
   504          0
   505          0
   506          0
   518          0
   519          6
   520          1
   521          0
   531          3
   532          0
   533          0
   542          1
   543          1
   544          2
   545          2
   546          0
   547          0
   548          0
   549         25
   550          7
   551          1
   552          0
   561          0
   562          0
   563          0
   573          0
   577          0
   578          0
   586          0
   591          7
   592          2
   593          0
   603          1
   604          2
   605          2
   606          0
   621         25
   622          8
   623          2
   624          0
   646          5
   647          2
   648          0
   649          0
   651          0
   663          0
   693          3
   694          0
   695          0
   707          1
   708          0