##TITLE=Library Entry 45287
##JCAMP-DX=Revision 4.10 
##DATA TYPE=MASS SPECTRUM
##SAMPLE DESCRIPTION=Philip J. Marriott, Australian Centre for Research on S
eparation Science, Melbourne, Australia
##NAMES=HP
##CAS NAME=3-Hydroxyestran-17-one, (3.alpha.,5.beta.)-, TMS derivative
##MOLFORM=C21H36O2Si
##CAS REGISTRY NO=96551-50-7
##MP= -300
##BP= -300
##MW= 348
##$RETENTION INDEX=0
##$CONDENSED SPECTRUM=NO
##NPOINTS= 228
##XYDATA=(XY..XY) 1 
    45        168
    46         12
    47         96
    48          4
    49          2
    50          1
    51         16
    52         10
    53        114
    54         32
    55        299
    56         22
    57         28
    58         14
    59         94
    60         22
    61        111
    62          6
    63          7
    64          3
    65         66
    66         25
    67        324
    68         39
    69         59
    70          9
    71         14
    72         20
    73        662
    74         79
    75        999
    76         73
    77        206
    78         45
    79        341
    80         55
    81        235
    82         26
    83         27
    84          5
    85         15
    86          2
    87          7
    88          4
    89         23
    90          4
    91        414
    92         91
    93        269
    94        109
    95        150
    96         23
    97        147
    98         17
    99         14
   100          2
   101         47
   102          7
   103         41
   104         38
   105        233
   106         74
   107        139
   108         57
   109         56
   110         33
   111         20
   112          3
   113         13
   114          2
   115         42
   116         32
   117        106
   118         45
   119        156
   120         66
   121         91
   122         21
   123         44
   124         20
   125          7
   126          2
   127         16
   128         21
   129        331
   130         75
   131        187
   132         39
   133        117
   134         65
   135         54
   136         66
   137         29
   138          9
   139          4
   140          1
   141         16
   142         75
   143         65
   144         47
   145        197
   146         77
   147        132
   148         65
   149         43
   150         24
   151         13
   152          5
   153          5
   154          3
   155        137
   156         29
   157         46
   158         64
   159        108
   160         68
   161         88
   162        120
   163         29
   164          9
   165          5
   166          1
   167          6
   168          3
   169         16
   170          7
   171         38
   172         22
   173         57
   174         27
   175         27
   176         13
   177          6
   178          2
   179          2
   180          1
   181          4
   182          6
   183         29
   184         10
   185         49
   186         22
   187         80
   188         28
   189         26
   190         15
   191          5
   192          1
   193          1
   194          1
   195          3
   196          2
   197         17
   198         21
   199         73
   200         55
   201        192
   202        109
   203         46
   204         15
   205          3
   207          1
   208          1
   209          2
   210          1
   211          9
   212          9
   213         21
   214         34
   215         46
   216        312
   217         62
   218          7
   219          2
   220          1
   221          2
   222          1
   223          2
   224          1
   225         16
   226          5
   227          3
   228          1
   229         20
   230         96
   231         30
   232          6
   233          1
   235          1
   237          1
   239         33
   240         44
   241         72
   242         15
   243         88
   244         24
   245          3
   246          1
   247          1
   248          1
   249          1
   250          1
   251          1
   252          1
   256          2
   257         39
   258        341
   259         78
   260         10
   261          1
   263          1
   277          5
   278          1
   287          1
   289          1
   292          2
   293          1
   304          1
   305          2
   315          1
   333         92
   334         28
   335          8
   336          1
   347          2
   348         36
   349         10
   350          2