##TITLE=Library Entry 27867
##JCAMP-DX=Revision 4.10 
##DATA TYPE=MASS SPECTRUM
##SAMPLE DESCRIPTION=Chuck Anderson, Aldrich Chemical Co.
##NAMES=HP
##CAS NAME=1,4,7-Trimethyl-1,4,7-triazacyclononane
##MOLFORM=C9H21N3
##CAS REGISTRY NO=96556-05-7
##MP= -300
##BP= -300
##MW= 171
##$RETENTION INDEX=0
##$CONDENSED SPECTRUM=NO
##NPOINTS= 70
##XYDATA=(XY..XY) 1 
    15         53
    17          0
    18          8
    26          7
    27         52
    28        131
    29         56
    30         71
    31          2
    32          3
    39          8
    40          7
    41         51
    42        691
    43        452
    44        160
    45          5
    46          4
    52          1
    54         37
    55         30
    56        142
    57        536
    58        999
    59         35
    64         24
    67          3
    68         11
    69          5
    70        530
    71        208
    72        252
    73         10
    80          0
    81          1
    82        100
    83        247
    84        252
    85         90
    86         15
    87         15
    88         13
    89        129
    90          4
    96         18
    97         52
    98         33
    99        544
   100         31
   101        441
   102         20
   111         19
   112         17
   113        156
   114         86
   115        183
   116          9
   125          5
   126          4
   127         84
   128         22
   129          1
   139          0
   140         11
   141         50
   142          4
   154         21
   155          0
   171         15
   172          0