##TITLE=Library Entry 27385
##JCAMP-DX=Revision 4.10 
##DATA TYPE=MASS SPECTRUM
##SAMPLE DESCRIPTION=Chemical Concepts
##NAMES=HP
##CAS NAME=Tin, tetrakis(2-ethylhexyl)-
##MOLFORM=C32H68Sn
##CAS REGISTRY NO=96582-33-1
##MP= -300
##BP= -300
##MW= 572
##$RETENTION INDEX=0
##$CONDENSED SPECTRUM=NO
##NPOINTS= 112
##XYDATA=(XY..XY) 1 
    26         51
    28         19
    29        152
    39         35
    41        257
    42         49
    43        371
    44         23
    53         21
    55        214
    56         76
    57        999
    58         43
    67         22
    69        169
    70        119
    71        523
    72         34
    77         16
    81         22
    83         59
    84         25
    85        266
    86         17
    91         19
    93         13
    95         17
    97         32
    98         97
    99        111
   100          9
   105         15
   107         17
   109         29
   111         51
   112         41
   113        122
   117         51
   118         44
   119         82
   120         56
   121        103
   123         32
   125         18
   127         57
   131         21
   133         37
   135         43
   139         16
   145         13
   147         24
   153         21
   155         23
   163         17
   168         19
   169         71
   173         18
   175         35
   176         13
   177         38
   179         13
   191         10
   196         29
   197        134
   198         19
   219         14
   220         12
   221         18
   227         33
   229         74
   230         49
   231        446
   232        294
   233        747
   234        311
   235        958
   236         80
   237        140
   238         13
   239        146
   240         14
   311          2
   313          4
   338         13
   341         14
   342         12
   343        192
   344        138
   345        344
   346        164
   347        435
   348         77
   349         66
   350         13
   351         74
   352         13
   380          3
   423         12
   424          5
   425         17
   427         11
   451         14
   455        206
   456        155
   457        375
   458        211
   459        471
   460        122
   461         79
   462         20
   463         83
   464         21