##TITLE=Library Entry 63594
##JCAMP-DX=Revision 4.10 
##DATA TYPE=MASS SPECTRUM
##SAMPLE DESCRIPTION=Chemical Concepts
##NAMES=HP
##CAS NAME=Cyclohexane, 1,4-bis(diphenylmethylene)-
##MOLFORM=C32H28
##CAS REGISTRY NO=96581-95-2
##MP= -300
##BP= -300
##MW= 412
##$RETENTION INDEX=0
##$CONDENSED SPECTRUM=NO
##NPOINTS= 305
##XYDATA=(XY..XY) 1 
    26          2
    27         15
    28          5
    29          3
    34          0
    35          1
    36          1
    38          2
    39         30
    40          2
    41         20
    42          1
    43          7
    44          0
    47          2
    48          1
    49          1
    50          4
    51         30
    52          5
    53         10
    54          0
    55          2
    56          0
    57          1
    58          1
    62          1
    63         15
    64          3
    65         48
    66          3
    67         10
    68          1
    69          1
    71          0
    74          2
    75          6
    76          6
    77         71
    78         19
    79          9
    80          2
    81          2
    82          1
    83          7
    84          0
    85          5
    86          1
    87          3
    88          5
    89         23
    90          5
    91        999
    92         71
    93          3
    94          0
    95          1
    96          0
    98          1
    99          1
   100          1
   101          8
   102         19
   103         47
   104          8
   105         21
   106          1
   107          1
   108          1
   109          0
   110          0
   111          0
   112          1
   113          8
   114         16
   115        260
   116         33
   117         43
   118          6
   119          1
   120          4
   121          1
   123          1
   124          1
   125          4
   126         16
   127         70
   128        163
   129        291
   130         35
   131          4
   132          1
   133          1
   135          2
   136          1
   137          2
   138          5
   139         25
   140          5
   141        103
   142         21
   143         17
   144          4
   145          5
   146          3
   147          1
   148          1
   149          1
   150          5
   151         22
   152         85
   153         30
   154         11
   155          8
   156          3
   157          2
   158          2
   159          2
   161          0
   162          2
   163         16
   164         19
   165        249
   166         60
   167        255
   168         44
   169          7
   170          1
   172          0
   173          0
   174          1
   175          4
   176         20
   177         18
   178        160
   179         84
   180         22
   181          5
   182          2
   183          1
   184          1
   185          0
   186          1
   187          5
   188         11
   189         96
   190         83
   191        245
   192        119
   193        131
   194         23
   195          4
   196          1
   197          0
   198          1
   199          2
   200          6
   201         17
   202        103
   203        170
   204        238
   205        958
   206        342
   207        407
   208         67
   209          6
   210          1
   211          1
   212          1
   213          5
   214          4
   215         59
   216         29
   217         83
   218         44
   219        224
   220         42
   221          5
   222          0
   224          1
   225          1
   226          9
   227          8
   228         22
   229         22
   230         16
   231         25
   232        102
   233         19
   234          3
   236          0
   237          1
   238          1
   239         11
   240          5
   241         13
   242          7
   243         19
   244         26
   245        278
   246         56
   247          7
   248          1
   249          0
   250          2
   251          1
   252          7
   253          5
   254          2
   255          5
   256          2
   257          2
   258          0
   263          2
   264          0
   265          4
   266          2
   267          2
   268          0
   269          1
   274          0
   275          1
   276          4
   277          3
   278          3
   279          3
   280          2
   281          5
   282          1
   285          0
   286          0
   287          1
   288          1
   289          6
   290          3
   291          6
   292          3
   293          5
   294          4
   295          2
   296          0
   298          0
   300          2
   301          1
   302          5
   303          4
   304          3
   305          5
   306          2
   307          1
   308          6
   309          1
   310          0
   312          0
   313          1
   314          1
   315          2
   316          1
   317          1
   318          1
   319          2
   320          3
   321         29
   322          7
   323          1
   324          0
   326          2
   327          1
   328          0
   329          0
   331          0
   332          0
   333          1
   334          5
   335          4
   336          1
   339          0
   350          0
   351          0
   352          0
   355          0
   358          0
   365          0
   366          0
   368          0
   369          0
   370          0
   371          0
   376          0
   382          0
   383          0
   396          0
   397          1
   398          0
   406          0
   407          0
   408          0
   409          1
   410          7
   411          6
   412        856
   413        297
   414         50
   415          6
   416          0