##TITLE=Library Entry 56879
##JCAMP-DX=Revision 4.10 
##DATA TYPE=MASS SPECTRUM
##SAMPLE DESCRIPTION=C. VERKOYEN,INST. HYG. ARBEITSMED.,KLINIK ESSEN, ESSEN,
W. GER.
##NAMES=HP
##CAS NAME=3,3,3',3'-Tetramethyl[1,1'-biazetidine]-2,2'-dithione
##MOLFORM=C10H16N2S2
##CAS REGISTRY NO=96594-27-3
##MP= -300
##BP= -300
##MW= 228
##$RETENTION INDEX=0
##$CONDENSED SPECTRUM=NO
##NPOINTS= 67
##XYDATA=(XY..XY) 1 
    39         30
    41        120
    42         50
    43         10
    45         30
    47         10
    53         30
    54         20
    55         40
    56        580
    57         40
    58         20
    59         30
    60         20
    67         20
    68         20
    69         20
    70         50
    71        150
    72         60
    73         20
    74         10
    80         20
    81         20
    82        190
    83         20
    84         40
    85         90
    86        999
    87        140
    88         60
    89         10
    99         30
   100         40
   109         50
   112         20
   113         30
   114         60
   115         20
   116        360
   117         20
   118         40
   127         40
   128         20
   129         10
   139         10
   141         50
   142         70
   143        130
   144         30
   145         10
   147         10
   154         30
   157         20
   160         10
   170         30
   172        210
   173         50
   174         20
   181         10
   182         50
   195         40
   213         10
   228        640
   229        130
   230         80
   231         20