##TITLE=Library Entry 73953
##JCAMP-DX=Revision 4.10 
##DATA TYPE=MASS SPECTRUM
##SAMPLE DESCRIPTION=L. Cohen, LC, NIDDK, NIH, Bethesda, MD 20892
##NAMES=HP
##CAS NAME=(+)-Hydroxypyrrolidine-3-carboxylic acid, 2,2,5,5,-tetramethyl-
##MOLFORM=C9H17NO3
##CAS REGISTRY NO=96623-58-4
##MP= -300
##BP= -300
##MW= 187
##$RETENTION INDEX=0
##$CONDENSED SPECTRUM=NO
##NPOINTS= 99
##XYDATA=(XY..XY) 1 
    41        449
    43        153
    44         19
    45         82
    46          6
    50          7
    51         24
    52         12
    53         81
    54         13
    55        222
    56        675
    57         83
    58         10
    59        128
    60         13
    61          3
    63          5
    64          0
    65         18
    66          7
    67         77
    68         21
    69        135
    70         29
    71         24
    72          4
    73         21
    74        232
    75          8
    77         25
    78         12
    79         23
    80          6
    81         29
    82         65
    83        174
    84         22
    85         52
    86         12
    87          3
    88         12
    89          0
    91          9
    92          2
    93         11
    94         12
    95         47
    96         17
    97         13
    98         22
    99         16
   100         53
   101        999
   102         55
   103          6
   105          2
   106          8
   107          5
   108         16
   109         53
   110         25
   111         26
   112         11
   113         17
   114         21
   115          2
   119          0
   120          1
   121          1
   122          3
   123          6
   124          9
   125          5
   126        242
   127         19
   128          1
   129          1
   136          1
   137          4
   138          5
   139          4
   140          7
   141          3
   143          1
   149          3
   151          0
   153          1
   154         12
   156         69
   157          5
   168          1
   169          1
   171        146
   172         35
   173          4
   186        229
   187         29
   188          2