##TITLE=Library Entry 66217
##JCAMP-DX=Revision 4.10 
##DATA TYPE=MASS SPECTRUM
##SAMPLE DESCRIPTION=Japan AIST/NIMC Database- Spectrum MS-IW-6252
##NAMES=HP
##CAS NAME=(2-Benzyloxymethyl-4,5-dimethyl-1,4-cyclohexadienyl)formaldehyde
 4-phenylsemicarbazone
##MOLFORM=C24H27N3O2
##CAS REGISTRY NO=96669-62-4
##MP= -300
##BP= -300
##MW= 389
##$RETENTION INDEX=0
##$CONDENSED SPECTRUM=NO
##NPOINTS= 225
##XYDATA=(XY..XY) 1 
    15          2
    16          2
    17         24
    18        135
    26          8
    27         38
    28         75
    29          9
    30          9
    31          5
    32          1
    33          1
    36          1
    37         18
    38         35
    39        105
    40         31
    41         63
    42         13
    43         50
    44         25
    45         26
    46         50
    47          4
    49          4
    50         38
    51         82
    52         42
    53         30
    54         22
    55          9
    56          4
    57          5
    58          5
    59         19
    60          4
    61         11
    62         20
    63         60
    64         92
    65        212
    66        298
    67         36
    68          3
    69          6
    70          4
    71          5
    72          3
    73          5
    74         13
    75         10
    76         18
    77        174
    78         51
    79        134
    80         16
    81          8
    82          3
    83          3
    84          1
    85          2
    86          2
    87          4
    88          3
    89         28
    90         29
    91        755
    92        199
    93        999
    94        133
    95         10
    96          3
    97          3
    98          1
    99          1
   101          3
   102          9
   103         41
   104         22
   105        109
   106         57
   107        125
   108        114
   109         12
   110          2
   111          2
   113          1
   114          3
   115         37
   116         32
   117         68
   118         44
   119        510
   120         77
   121         34
   122          8
   123          3
   124          1
   125          1
   127          3
   128          8
   129          9
   130        138
   131         80
   132        114
   133         53
   134         55
   135         42
   136         36
   137         24
   138          3
   139          1
   140          2
   141         11
   142          8
   143         10
   144         73
   145        190
   146        210
   147        190
   148         43
   149         53
   150          7
   151          3
   152          3
   153          1
   154          1
   155          4
   156         10
   157          6
   158          9
   159         45
   160         43
   161        167
   162        139
   163         39
   164          9
   165          4
   166          2
   167          1
   168          1
   169          1
   170          2
   171          1
   172          5
   173        158
   174         20
   175        108
   176         15
   177         36
   178          8
   179        342
   180         42
   181          5
   182          1
   183          1
   184          1
   186          1
   187         59
   188         41
   189         21
   190          6
   191          2
   192          1
   193          1
   194          2
   195          1
   197          1
   198          1
   199          1
   203         16
   204          3
   205         79
   206         10
   207          3
   208          2
   209          2
   210          2
   211          3
   212          5
   213          2
   214          5
   218          1
   220          2
   221          4
   222          3
   223          3
   224          2
   225          1
   226          6
   227          1
   233          1
   234          1
   235          2
   236          2
   237          4
   238          8
   239          2
   240          3
   242          1
   251          1
   252         17
   253          6
   254         49
   255          9
   256          1
   263          1
   264          1
   266         22
   267         62
   268         34
   269          7
   270          4
   278          1
   279          2
   280         20
   281        143
   282         30
   283          6
   296         19
   297          4
   298         11
   299          2
   389         17
   390          5