##TITLE=Library Entry 48832
##JCAMP-DX=Revision 4.10 
##DATA TYPE=MASS SPECTRUM
##SAMPLE DESCRIPTION=Div. of Experiment Therapeutics WRAIR, WRAMC, Washingto
n DC 20307
##NAMES=HP
##CAS NAME=2-[1-[2-pyridyl]ethylidene]hydrazinecarbothiohydrazide
##MOLFORM=C8H11N5S
##CAS REGISTRY NO=96699-87-5
##MP= -300
##BP= -300
##MW= 209
##$RETENTION INDEX=0
##$CONDENSED SPECTRUM=NO
##NPOINTS= 136
##XYDATA=(XY..XY) 1 
    42        192
    43         59
    44         17
    45         49
    46         13
    47         22
    48         24
    49         50
    50         96
    51        369
    52        249
    53         72
    54         17
    55         12
    56          9
    57         33
    58         17
    59         65
    60        129
    61         10
    62         12
    63         21
    64         15
    65         20
    66         12
    67         18
    68          3
    69          7
    70          3
    71          5
    72          3
    73          9
    74         16
    75         64
    76         30
    77         86
    78        691
    79        999
    80        168
    81          8
    82          3
    83          5
    84         22
    85          3
    86         14
    87          2
    88          4
    89          2
    90          6
    91          7
    92         23
    93         27
    94         12
    95          3
    96          3
    97          3
    99         47
   100          2
   101          4
   102          3
   103          5
   104        223
   105        179
   106        166
   107         19
   108          3
   109          2
   110          2
   111          5
   112          3
   113          0
   114          2
   115          2
   116          1
   117          3
   118          1
   119         42
   120        263
   121        184
   122         17
   123          2
   124          9
   125          0
   126          0
   128          0
   129          5
   130         38
   131        139
   132         16
   133          2
   134        121
   135         20
   136         28
   137          2
   138         31
   139          3
   140          1
   146          4
   147          1
   148          3
   149          3
   150         24
   151         35
   152         42
   153          5
   154          4
   155          1
   156          1
   157          1
   159          0
   161          2
   162          1
   163          3
   164          6
   165          2
   168          0
   169          3
   171          4
   174          0
   175          1
   176         91
   178        468
   179         44
   180         24
   181          2
   182          0
   192         20
   193         13
   194         95
   195          9
   196          4
   207          0
   209        683
   210         93
   211         38
   212          4