##TITLE=Library Entry 77906
##JCAMP-DX=Revision 4.10 
##DATA TYPE=MASS SPECTRUM
##SAMPLE DESCRIPTION=A.A.Kutin, Moscow, Russia
##NAMES=HP
##CAS NAME=Indane-1,3-dione, 2-(4-nitrobenzyl)-
##MOLFORM=C16H11NO4
##CAS REGISTRY NO=967-05-5
##MP= -300
##BP= -300
##MW= 281
##$RETENTION INDEX=0
##$CONDENSED SPECTRUM=NO
##NPOINTS= 211
##XYDATA=(XY..XY) 1 
    29         14
    30         68
    34          1
    35          0
    36          6
    37          2
    38         11
    39         50
    40         25
    41          6
    42          1
    43          4
    44          7
    45          1
    46          5
    48          0
    50        154
    51        114
    52         27
    53         16
    55         61
    56          2
    57          4
    59          0
    60          1
    61          4
    62         28
    63        114
    64         25
    65         17
    66          2
    67          1
    68          1
    69         10
    70          3
    71          2
    72          0
    73          4
    74         62
    75        121
    76        533
    77        294
    78         69
    79         11
    80          1
    81          2
    82          5
    83          4
    84          2
    85          2
    86          7
    87         16
    88         35
    89        188
    90         64
    91         19
    92          6
    93          3
    94          4
    95          2
    96          2
    97          2
    98          6
    99          5
   100          4
   101         37
   102         98
   103        194
   104        999
   105        208
   106         33
   107         36
   108          2
   109          1
   110          1
   111          4
   112          1
   113          5
   114          4
   115         16
   116          5
   117         35
   118         14
   119          6
   120          3
   121          1
   122          1
   123          1
   124          0
   125          4
   126          9
   127          8
   128          7
   129         15
   130         25
   131         51
   132         47
   133         49
   134          6
   135          2
   136          8
   137          2
   138          2
   139         14
   140          4
   141          2
   142          0
   143          0
   144          0
   145          1
   146          2
   147          4
   149          9
   150         15
   151         30
   152         42
   153          8
   154          1
   155          1
   156          0
   157          1
   159         39
   160          5
   161          1
   162          1
   163          7
   164          7
   165         29
   166          8
   167          7
   168          3
   169          0
   171          0
   172          0
   173          1
   174          3
   175          6
   176         51
   177         43
   178        154
   179         73
   180         11
   181          4
   182          1
   183          0
   184          0
   185          0
   187          4
   188          5
   189         24
   190         11
   191          6
   192          3
   193          4
   194          6
   195         12
   196          2
   197          0
   198          0
   201          0
   203          1
   205         29
   206         45
   207         45
   208         12
   209          2
   210          0
   212          0
   216          2
   217          6
   218          3
   219          2
   220          2
   221          2
   222          1
   223          7
   224          3
   225          2
   226          0
   228          0
   229          0
   230          1
   231          1
   232          5
   233         15
   234         78
   235         90
   236         28
   237          4
   238          1
   239          0
   245          0
   246          2
   247          1
   248          3
   249          1
   251          7
   252         27
   253         67
   254         12
   255          1
   264        132
   265         27
   266          4
   267          0
   279         29
   281        739
   282        119
   283         16
   284          1
   285          0