##TITLE=Library Entry 15055
##JCAMP-DX=Revision 4.10 
##DATA TYPE=MASS SPECTRUM
##SAMPLE DESCRIPTION=H.LAATSCH,INST. ORG. CHEM.,GEORG-AUGUST-UNIV. GOTTINGEN
,W.GER.
##NAMES=HP
##CAS NAME=17-Acetoxy-12-methoxy-5,6,11,18-trinaphthylenetetrone
##MOLFORM=C33H18O7
##CAS REGISTRY NO=96722-28-0
##MP= -300
##BP= -300
##MW= 526
##$RETENTION INDEX=0
##$CONDENSED SPECTRUM=NO
##NPOINTS= 32
##XYDATA=(XY..XY) 1 
    41         26
    42         98
    43        999
    44        106
    45        166
    60        126
    74         12
    76         11
    77         14
   105         15
   298         15
   300         12
   311         10
   385         10
   413         15
   453         30
   454         21
   468         16
   469        184
   470         82
   471         21
   483         15
   484        114
   485         35
   486          8
   487          1
   496          1
   497          1
   498          4
   512          2
   526          7
   527          2