##TITLE=Library Entry 94106
##JCAMP-DX=Revision 4.10 
##DATA TYPE=MASS SPECTRUM
##SAMPLE DESCRIPTION=Chemical Concepts
##NAMES=HP
##CAS NAME=3-Acetoxy-3-phenyl-2-bromopropene
##MOLFORM=C11H11BrO2
##CAS REGISTRY NO=96725-16-5
##MP= -300
##BP= -300
##MW= 254
##$RETENTION INDEX=0
##$CONDENSED SPECTRUM=NO
##NPOINTS= 69
##XYDATA=(XY..XY) 1 
    26         17
    27         36
    28         31
    29          9
    32          4
    36          3
    37          2
    38         20
    39         77
    40          5
    41          5
    42         10
    43        693
    44         16
    45          3
    50         75
    51        160
    52         22
    53          9
    55         43
    56          1
    57         26
    58         30
    61          4
    62         35
    63         90
    64         12
    65         37
    74         26
    75         22
    76         22
    77        191
    78         47
    79         71
    80          3
    85          1
    86          7
    87         16
    88         13
    89         85
    90         14
    91         12
   102          8
   103         42
   104         56
   105        130
   106          9
   107         76
   108          2
   113         12
   114         38
   115        999
   116        248
   117         16
   131         27
   132         47
   133        981
   134         91
   135          7
   136          3
   175        199
   176         20
   194          1
   195          4
   196          2
   197          3
   212         32
   213          2
   214         31