##TITLE=Library Entry 6483
##JCAMP-DX=Revision 4.10 
##DATA TYPE=MASS SPECTRUM
##SAMPLE DESCRIPTION=H.LAATSCH,INST. ORG. CHEM.,GEORG-AUGUST-UNIV. GOTTINGEN
,W.GER.
##NAMES=HP
##CAS NAME=11,18-Diacetoxy-5,6,12,17-trinaphthylenetetrone
##MOLFORM=C34H18O8
##CAS REGISTRY NO=96722-33-7
##MP= -300
##BP= -300
##MW= 554
##$RETENTION INDEX=0
##$CONDENSED SPECTRUM=NO
##NPOINTS= 124
##XYDATA=(XY..XY) 1 
    41        205
    42         26
    43        999
    44         52
    47         20
    48          9
    49          5
    50          6
    51          2
    53          2
    54          1
    55         12
    56          5
    57         13
    58          1
    59          8
    60          9
    61          6
    62          2
    63          2
    64          2
    67          2
    68          1
    69          6
    70          3
    71          8
    72          2
    73          2
    74         13
    75          1
    76          5
    77          4
    78          1
    79          2
    80          1
    81          2
    82          5
    83         43
    84          2
    85         34
    86          1
    87         11
    90          0
    91          4
    93          0
    94          1
    95          1
    96          2
    97          3
    98          2
    99          1
   101          1
   102          2
   104          5
   105          7
   107          1
   111          1
   112          1
   113          1
   115          1
   118          1
   119          2
   123          1
   124          1
   125          1
   127          2
   130          0
   137          0
   138          0
   139          0
   148          1
   149          1
   155          0
   225          1
   298          2
   299          0
   300          0
   301          0
   311          2
   312          2
   313          2
   327          1
   340          1
   341          1
   342          1
   356          1
   357          1
   358          0
   365          1
   369          1
   370          1
   384          1
   385          2
   397          2
   398          1
   412          1
   413          1
   414          0
   425          1
   426          3
   427          1
   440          3
   441          2
   452          2
   453          5
   454         31
   455         10
   456          3
   468          7
   469         10
   470         65
   471         19
   472          3
   482          0
   483          1
   484          5
   485          3
   496          8
   497          3
   512         12
   513          4
   526          0
   538          1
   554          1