##TITLE=Library Entry 18233
##JCAMP-DX=Revision 4.10 
##DATA TYPE=MASS SPECTRUM
##SAMPLE DESCRIPTION=V.A.Korolev, Moscow, Russia
##NAMES=HP
##CAS NAME=2-([1,2,3]Triazolo[4,5-c]pyridin-1-yl)pyridine
##MOLFORM=C10H7N5
##CAS REGISTRY NO=96727-98-9
##MP= -300
##BP= -300
##MW= 197
##$RETENTION INDEX=0
##$CONDENSED SPECTRUM=NO
##NPOINTS= 54
##XYDATA=(XY..XY) 1 
    37        161
    38        186
    39        182
    40        103
    41         18
    44         11
    49         81
    50        280
    51        999
    52        165
    53         40
    58         14
    61         16
    62         48
    63        175
    64        362
    65         93
    66         40
    67          7
    71         22
    73          6
    75         88
    76        171
    77         78
    78        487
    79         37
    85          5
    87         12
    88         26
    89         20
    90         29
    91         38
    92         15
   102          5
   103         33
   104         13
   105         32
   114         41
   115         62
   116         16
   117          5
   118         41
   128         11
   129         23
   130          5
   141         24
   142        123
   143         92
   144          5
   168        162
   169        628
   170         70
   197        114
   198         11