##TITLE=Library Entry 15056
##JCAMP-DX=Revision 4.10 
##DATA TYPE=MASS SPECTRUM
##SAMPLE DESCRIPTION=H.LAATSCH,INST. ORG. CHEM.,GEORG-AUGUST-UNIV. GOTTINGEN
,W.GER.
##NAMES=HP
##CAS NAME=5,6-Diacetoxy-11,12,17,18-trinaphthylenetetrone
##MOLFORM=C34H18O8
##CAS REGISTRY NO=96722-31-5
##MP= -300
##BP= -300
##MW= 554
##$RETENTION INDEX=0
##$CONDENSED SPECTRUM=NO
##NPOINTS= 128
##XYDATA=(XY..XY) 1 
    41         52
    42        147
    43        999
    44        122
    45        188
    46          4
    50          7
    51          2
    53          2
    54          2
    55         18
    56          4
    57         17
    58          3
    59          6
    60        150
    61          6
    63          2
    64          2
    65          2
    67          2
    69         11
    70          4
    71         10
    73          4
    74         28
    75          5
    76         14
    77         18
    78          2
    79          2
    81          3
    83          5
    84          3
    85          3
    87          4
    91          3
    95          3
    96          1
    97          5
    98          4
    99          2
   101          3
   104          8
   105         47
   106          8
   107          4
   109          2
   111          1
   112          1
   113          3
   123          2
   125          2
   126          1
   149          5
   150          4
   163          2
   207          4
   223          3
   224         12
   225          8
   226          2
   234          1
   253          8
   272          2
   273          1
   274          2
   281          3
   285          2
   296          2
   297          2
   298         14
   299          5
   300         14
   301          6
   309          3
   311          9
   312          3
   313          5
   314          2
   327          8
   328          6
   329         11
   330          5
   337          2
   340          1
   341          4
   342          2
   355          2
   356          8
   357         12
   358          5
   365         10
   366          2
   369          3
   370          5
   383          2
   384          6
   385         14
   386          6
   396          2
   397          6
   398          6
   399          1
   411          2
   412          9
   413         15
   414          6
   425          3
   426         12
   427          3
   440          4
   441          6
   442          2
   452          4
   453         10
   454         31
   455          7
   468         22
   469        101
   470        369
   471        121
   472         28
   473          4
   496          4
   512         72
   513         24
   514          6