##TITLE=Library Entry 48458
##JCAMP-DX=Revision 4.10 
##DATA TYPE=MASS SPECTRUM
##SAMPLE DESCRIPTION=K. BRINK, HEYMANNSTRASSE, LEVERKUSEN, W. GER.
##NAMES=HP
##CAS NAME=N-Chloro-N,O-bis(methylsulfonyl)hydroxylamine
##MOLFORM=C2H6ClNO5S2
##CAS REGISTRY NO=96733-44-7
##MP= -300
##BP= -300
##MW= 223
##$RETENTION INDEX=0
##$CONDENSED SPECTRUM=NO
##NPOINTS= 41
##XYDATA=(XY..XY) 1 
    29        440
    30        890
    31        240
    32        250
    33         60
    34         60
    35         70
    36        420
    38        140
    44        220
    45        350
    46        300
    47        120
    48        630
    49        330
    50        180
    51         70
    62         70
    63        430
    64        680
    65        330
    66        110
    78        300
    79        999
    80        680
    81        400
    82        160
    92        230
    94        270
    95        320
    96         80
    97        100
   111        190
   126        150
   127         70
   141        100
   142         70
   143        150
   158        140
   175         40
   188         90