##TITLE=Library Entry 20757
##JCAMP-DX=Revision 4.10 
##DATA TYPE=MASS SPECTRUM
##SAMPLE DESCRIPTION=NO AUTHOR
##NAMES=HP
##CAS NAME=3.beta.-Acetoxystigmasta-4,6,22-triene
##MOLFORM=C31H48O2
##CAS REGISTRY NO=96737-71-2
##MP= -300
##BP= -300
##MW= 452
##$RETENTION INDEX=0
##$CONDENSED SPECTRUM=NO
##NPOINTS= 60
##XYDATA=(XY..XY) 1 
    41        288
    43        846
    45         84
    55        999
    57        211
    67        205
    69        752
    70         51
    71        137
    79        140
    81        479
    83        923
    84         78
    91        198
    93        208
    95        267
    96         59
    97        176
   105        251
   107        193
   109        203
   117        124
   118         51
   119        241
   120        100
   121         78
   123         51
   128         68
   129        131
   131        154
   133        226
   134         54
   135        120
   139        183
   141         90
   142         73
   143        290
   144         79
   145        173
   147         99
   149         75
   155         68
   157        208
   158         72
   159        145
   161         93
   171         65
   175         51
   189         58
   197         59
   253        201
   254         65
   271        108
   273         50
   392        307
   393        123
   410        597
   411        199
   452        181
   453         65