##TITLE=Library Entry 67043
##JCAMP-DX=Revision 4.10 
##DATA TYPE=MASS SPECTRUM
##SAMPLE DESCRIPTION=A. Brossi, LC, NIDDK, NIH, Bethesda, MD 20892
##NAMES=HP
##CAS NAME=Colchicine, N-deacetyl-phenyloxycarbonyl-10-desmethoxy-methylthio
-
##MOLFORM=C27H27NO6S
##CAS REGISTRY NO=96737-27-8
##MP= -300
##BP= -300
##MW= 493
##$RETENTION INDEX=0
##$CONDENSED SPECTRUM=NO
##NPOINTS= 232
##XYDATA=(XY..XY) 1 
    41         28
    42         38
    43         46
    44         23
    45         53
    46         15
    47         80
    48         15
    49         25
    50         88
    51        100
    52         20
    53         59
    54         13
    55        131
    56         17
    57         23
    59         10
    60         16
    61         36
    62         53
    63        112
    64         35
    65        310
    66        436
    67         40
    68         21
    69         36
    70         14
    71         15
    72         11
    73         19
    74         33
    75         32
    76         31
    77         71
    78         19
    79         30
    81          9
    82         17
    83         19
    84         14
    85         18
    86         17
    87         12
    88         10
    89         20
    90         11
    91         19
    92         21
    93         35
    94        999
    95         80
    96         13
    97         19
    98         16
    99         18
   100         19
   101         11
   102         13
   103         11
   104         16
   105         14
   106         16
   107         11
   110          9
   111         17
   112         13
   113         22
   114         19
   115         26
   116          8
   117         10
   118         13
   119         17
   120         11
   121         12
   124          8
   125         15
   126         28
   127         32
   128         21
   129         11
   131          9
   132          8
   133         21
   134         10
   135         20
   137          8
   138         10
   139         41
   140         26
   141         27
   142         12
   143          7
   145          7
   146          7
   147          9
   148         11
   149         19
   150         13
   151         22
   152         72
   153         33
   154         15
   155         13
   156         15
   157         14
   158         11
   162          7
   163         16
   164         16
   165         39
   166         19
   167         21
   168         13
   169         15
   170         12
   171         17
   172          9
   176         14
   177         13
   178         20
   179         14
   180         16
   181         46
   182         14
   183         12
   184         18
   185         12
   186         10
   189          8
   190          8
   191          9
   192         12
   193         12
   194         14
   195         34
   196         15
   197         12
   198         10
   199         25
   200         11
   205         12
   206         15
   207         18
   208         23
   209         17
   210         13
   211         17
   212         11
   213         11
   214          8
   219          9
   220         10
   221         18
   222         15
   223         32
   224         21
   225         16
   226         10
   227         22
   228         10
   229          7
   234          7
   235         22
   236         18
   237         13
   238         65
   239         26
   240         15
   241         11
   242         11
   243         11
   249         11
   250         13
   251         45
   252         18
   253         15
   254         23
   255         22
   256          7
   257         10
   262          7
   265         24
   266         48
   267         31
   268         19
   269         12
   270         25
   271         12
   280          7
   281         19
   282         53
   283         20
   284         12
   285         12
   286          7
   287         12
   293         19
   294          9
   295         11
   296         16
   297         23
   298         37
   299         13
   300          9
   301         16
   309         12
   310          6
   312         34
   313         34
   314         13
   325         10
   328         26
   329         33
   330         10
   338         82
   339         18
   340          9
   342          9
   352         10
   356         14
   371        317
   372         75
   373         31
   374          8
   399        183
   400         45
   401         16
   493         24
   494          7