##TITLE=Library Entry 42106
##JCAMP-DX=Revision 4.10 
##DATA TYPE=MASS SPECTRUM
##SAMPLE DESCRIPTION=LAC, NIDDK, NIH, Bethesda, MD 20892
##NAMES=HP
##CAS NAME=Methyl 2-acetamido-2-deoxy-3,4,6-tri-O-methyl-.alpha.-d-glucopyra
noside
##MOLFORM=C12H23NO6
##CAS REGISTRY NO=96744-17-1
##MP= -300
##BP= -300
##MW= 277
##$RETENTION INDEX=0
##$CONDENSED SPECTRUM=NO
##NPOINTS= 134
##XYDATA=(XY..XY) 1 
    41        142
    42         87
    43        538
    44         33
    45        563
    46          4
    47         31
    48          0
    49          8
    50          7
    51         64
    52          2
    53         27
    54         22
    55         50
    56         49
    57         40
    58        169
    59         80
    60         26
    61         14
    65          2
    66          4
    67          7
    68         30
    69         36
    70         32
    71        224
    72         70
    73        999
    74         30
    75        583
    76         17
    77          3
    78          5
    79          0
    80         37
    81         12
    82         18
    83         19
    84         55
    85         47
    86        175
    87         31
    88        214
    89         32
    90          2
    91          0
    94          1
    95         12
    96         22
    97         10
    98         97
    99         29
   100         12
   101        141
   102         70
   103          5
   104          3
   106          1
   108         14
   109          2
   110         21
   111         50
   112         43
   113         10
   114         41
   115        708
   116         74
   117         55
   118          2
   119          3
   122          3
   123          3
   124          6
   125          3
   126         15
   127         12
   128        204
   129         20
   130         23
   131          6
   132          1
   138         15
   139          1
   140         27
   141          8
   142         12
   143         64
   144         17
   145          3
   146          2
   149          2
   150          2
   152          3
   153          3
   154          6
   155         17
   156          4
   157          1
   158         15
   159          2
   168         67
   169          4
   170          8
   171          3
   172         23
   173          3
   174          3
   176          2
   181          6
   182          5
   183          0
   184          4
   185         31
   186          6
   187          1
   198          1
   200         24
   201          2
   203        106
   204          9
   205          1
   213          2
   214         20
   215          4
   218          7
   219          4
   232          2
   245          1
   246         11
   247          1
   277          4
   278          0