##TITLE=Library Entry 79157
##JCAMP-DX=Revision 4.10 
##DATA TYPE=MASS SPECTRUM
##SAMPLE DESCRIPTION=Tox21 Consortium/NIST Mass Spectrometry Data Center, 20
12
##NAMES=HP
##CAS NAME=Butinoline
##MOLFORM=C20H21NO
##CAS REGISTRY NO=968-63-8
##MP= -300
##BP= -300
##MW= 291
##$RETENTION INDEX=0
##$CONDENSED SPECTRUM=NO
##NPOINTS= 235
##XYDATA=(XY..XY) 1 
    14          1
    15          5
    17          1
    18          5
    25          1
    26          8
    27         34
    28         40
    29         13
    30         14
    34          2
    36          1
    37         10
    38         20
    39        111
    40         29
    41        164
    42        272
    43         63
    44         11
    45          2
    46          1
    47          1
    49          3
    50         53
    51        198
    52         32
    53         33
    54         44
    55         84
    56         20
    57         13
    58          3
    59          1
    61          3
    62         12
    63         32
    64          8
    65         23
    66         69
    67         21
    68         71
    69         64
    70        261
    71         21
    72         11
    73          4
    74         26
    75         32
    76         56
    77        657
    78         89
    79         25
    80         37
    81         34
    82         24
    83         46
    84        162
    85         12
    86          7
    87         13
    88         16
    89         45
    90          7
    91         86
    92          9
    93          9
    94         13
    95          7
    96         58
    97          8
    98         10
    99          5
   100          9
   101         38
   102         27
   103         19
   105        999
   106         93
   107         17
   108        410
   109         70
   110         10
   111          3
   112          1
   113         11
   114         15
   115        375
   116         63
   117         41
   118          8
   119          1
   120          2
   121          1
   122          2
   123          2
   124          5
   125          3
   126         28
   127         56
   128         39
   129         28
   130         13
   131         19
   132          3
   133          1
   134          2
   136          7
   137          4
   138          3
   139         17
   140          4
   141          9
   142          6
   143         36
   144         49
   145         25
   146          4
   149          2
   150         13
   151         24
   152         63
   153         25
   154         22
   155          9
   156         19
   157         11
   158         17
   159          4
   160          3
   161          2
   162          3
   163         15
   164         14
   165         86
   166         20
   167         29
   168          9
   169          5
   170         10
   171          5
   172          4
   173          1
   174          4
   175          4
   176         23
   177         12
   178         80
   179         21
   180          7
   181         36
   182        183
   183        257
   184         47
   185          8
   186         56
   187         15
   188          6
   189         47
   190         24
   191         63
   192         22
   193         19
   194         13
   195          3
   196         11
   197          2
   198          3
   199          2
   200         21
   201         21
   202        111
   203         95
   204        150
   205         42
   206         16
   207         25
   208          5
   209          1
   210          1
   212          4
   213          2
   214         32
   215         11
   216          4
   217          6
   218          5
   219         19
   220         28
   221         46
   222         17
   223          2
   224          1
   227          1
   228          2
   229          1
   230          3
   231          3
   232          3
   233          3
   234          6
   235          2
   236          1
   241          1
   242          1
   243          1
   244          5
   245          3
   246          3
   247          2
   248          2
   256          1
   257          1
   258          1
   259          1
   260          1
   262          8
   263          2
   264          1
   268          1
   269          1
   270          2
   271          2
   272          8
   273          8
   274         28
   275         10
   276          2
   287          1
   289          3
   290        255
   291        216
   292         42
   293          4
   294          1