##TITLE=Library Entry 28904
##JCAMP-DX=Revision 4.10 
##DATA TYPE=MASS SPECTRUM
##SAMPLE DESCRIPTION=Tox21 Consortium/NIST Mass Spectrometry Data Center, 20
12
##NAMES=HP
##CAS NAME=Benzeneacetic acid, .alpha.-hydroxy-.alpha.-phenyl-, 2-(dimethyla
mino)ethyl ester
##MOLFORM=C18H21NO3
##CAS REGISTRY NO=968-46-7
##MP= -300
##BP= -300
##MW= 299
##$RETENTION INDEX=0
##$CONDENSED SPECTRUM=NO
##NPOINTS= 92
##XYDATA=(XY..XY) 1 
    15          2
    18          2
    26          1
    27          5
    28         13
    29          6
    30         11
    31          1
    38          1
    39          5
    40          1
    41          3
    42         52
    43         16
    44         29
    45         15
    49          1
    50         13
    51         53
    52          6
    53          2
    54          2
    55          3
    56         24
    57          7
    58        999
    59         37
    60          1
    62          2
    63          5
    64          1
    65          1
    70         12
    71        237
    72         43
    73         13
    74          6
    75          5
    76         13
    77        225
    78         21
    79          1
    82          2
    86          3
    87          3
    88          8
    89          8
    90          1
    91          2
    98          1
    99          1
   101          1
   102          3
   103          1
   105        316
   106         24
   107          2
   113          2
   114          1
   115          5
   116          2
   117          1
   125          1
   126          3
   127          3
   128          2
   129          1
   139          5
   140          1
   146          1
   150          2
   151          6
   152         19
   153          9
   154          4
   155          1
   162          1
   163          5
   164          6
   165         22
   166          6
   167          3
   168          1
   181         18
   182         59
   183         60
   184          7
   185          1
   194          2
   239          1
   255          1
   299          1