##TITLE=Library Entry 59052
##JCAMP-DX=Revision 4.10 
##DATA TYPE=MASS SPECTRUM
##SAMPLE DESCRIPTION=A.A.Kutin, Moscow, Russia
##NAMES=HP
##CAS NAME=4-Piperidinecarbonitrile, 4-(phenylamino)-1-(phenylmethyl)-
##MOLFORM=C19H21N3
##CAS REGISTRY NO=968-86-5
##MP= -300
##BP= -300
##MW= 291
##$RETENTION INDEX=0
##$CONDENSED SPECTRUM=NO
##NPOINTS= 144
##XYDATA=(XY..XY) 1 
    29         24
    30         17
    31          1
    32         15
    36          0
    38          0
    39         30
    40          5
    41         53
    42        207
    43         48
    44         17
    45          4
    50          2
    51         36
    52          5
    53         20
    54         18
    55         31
    56        130
    57         41
    58          1
    59          0
    60          6
    61          4
    62          0
    63          8
    64          4
    65        105
    66         13
    67         12
    68         12
    69         29
    70         13
    71         20
    72          0
    73          5
    74          0
    75          0
    76          3
    77        101
    78         13
    79          7
    80         23
    81         14
    82         13
    83         16
    84         11
    85          6
    87          1
    89         14
    90         28
    91        999
    92        113
    93         39
    94          8
    95          8
    96          8
    97         11
    98          7
    99          2
   101          1
   102          1
   103          6
   104         26
   105         27
   106         12
   107         34
   108          5
   109          6
   110          3
   111          7
   112          3
   113          1
   114          0
   115          6
   116         10
   117         63
   118         98
   119         37
   120         19
   121         12
   122          2
   123          4
   124          1
   125          2
   126          0
   127          6
   128          1
   129          9
   130         48
   131         19
   132         41
   133         15
   134         25
   135          4
   136          1
   137          1
   141          0
   142          3
   143         26
   144         95
   145         65
   146         63
   147          8
   151          1
   152          1
   153          1
   155          0
   156          1
   157          4
   158         11
   159          4
   160          0
   167          0
   169          0
   170          2
   171         18
   172         79
   173         36
   174          0
   185          0
   186          0
   187          6
   197         19
   198        194
   199         38
   200         13
   201          0
   208          1
   211          0
   222          0
   223          0
   234          0
   236          1
   237          0
   262          3
   263        127
   264        111
   265         17
   266          0
   291         53
   292         11
   293          0