##TITLE=Library Entry 81933
##JCAMP-DX=Revision 4.10 
##DATA TYPE=MASS SPECTRUM
##SAMPLE DESCRIPTION=Japan AIST/NIMC Database- Spectrum MS-IW-2672
##NAMES=HP
##CAS NAME=Benzene, 1,1',1''-(ethoxymethylidyne)tris-
##MOLFORM=C21H20O
##CAS REGISTRY NO=968-39-8
##MP= -300
##BP= -300
##MW= 288
##$RETENTION INDEX=0
##$CONDENSED SPECTRUM=NO
##NPOINTS= 155
##XYDATA=(XY..XY) 1 
    15          1
    26          1
    27          8
    28          4
    29         16
    31          1
    39         11
    41          1
    43          3
    44          2
    45          1
    50          9
    51         51
    52          5
    53          1
    62          3
    63         14
    64          2
    65          8
    69          1
    74          5
    75          9
    76         15
    77        422
    78         34
    79          4
    81          3
    82          2
    83          1
    86          3
    87          7
    88          9
    89          9
    90          1
    91         27
    92          1
    93          6
    94         19
    95          5
    98          2
    99          2
   100          7
   101         21
   102          6
   103          2
   104          5
   105        999
   106         95
   107         28
   108         19
   109          1
   110          1
   111          1
   112          4
   113         31
   114         21
   115         33
   116          3
   117          1
   118         15
   119         47
   120         29
   121         10
   122          6
   125          1
   126          8
   127          6
   128          5
   129          1
   130          5
   133          2
   134          4
   135         26
   136          3
   137          3
   138          2
   139         20
   140          3
   141          6
   149          1
   150          5
   151         10
   152         36
   153         17
   154         14
   155          6
   159          1
   161          1
   162          2
   163         23
   164         29
   165        457
   166         91
   167         51
   168          7
   174          1
   175          1
   176          7
   177          3
   178          5
   179          1
   181         35
   182          9
   183        408
   184         57
   185          5
   186          1
   187          6
   188          4
   189         13
   190          3
   191          1
   197          9
   198          2
   199          1
   200          7
   201          6
   202         25
   203          8
   204          1
   211        907
   212        149
   213         26
   214          6
   215         44
   216         10
   217          2
   224          3
   225          3
   226         27
   227         17
   228         51
   229         13
   230          2
   231          1
   237         11
   238          6
   239         83
   240         30
   241         86
   242         53
   243        999
   244        358
   245         51
   246          4
   257          2
   258          1
   259         44
   260         11
   261          1
   287         17
   288        814
   289        186
   290         22
   291          1