##TITLE=Library Entry 100280
##JCAMP-DX=Revision 4.10 
##DATA TYPE=MASS SPECTRUM
##SAMPLE DESCRIPTION=Drug Lab
##NAMES=HP
##CAS NAME=Testolactone
##MOLFORM=C19H24O3
##CAS REGISTRY NO=968-93-4
##MP= -300
##BP= -300
##MW= 300
##$RETENTION INDEX=0
##$CONDENSED SPECTRUM=NO
##NPOINTS= 226
##XYDATA=(XY..XY) 1 
    40         26
    41        254
    42         77
    43        612
    44         19
    45         11
    50         12
    51         66
    52         46
    53        145
    54         28
    55        391
    56         19
    57         15
    58         13
    59          2
    60          1
    61          1
    62          4
    63         26
    64         15
    65        130
    66         36
    67        129
    68         19
    69         40
    70          5
    71         34
    72          5
    74          9
    75          5
    76         11
    77        273
    78         81
    79        246
    80         47
    81         94
    82         18
    83         31
    84         14
    85         27
    86          6
    87          3
    88          2
    89         21
    90          9
    91        666
    92        147
    93        206
    94         69
    95         74
    96         18
    97         53
    98          6
    99         33
   100          4
   101          4
   102         17
   103         76
   104         33
   105        320
   106         86
   107        279
   108        374
   109        178
   110         40
   111         32
   112          6
   113          6
   115        174
   116         58
   117        133
   118         49
   119        999
   120        307
   121        877
   122        928
   123        132
   124         16
   125         23
   126          5
   127         46
   128        131
   129        130
   130         50
   131        151
   132         67
   133        334
   134        154
   135        222
   136        299
   137         60
   138          9
   139         10
   140          2
   141         62
   142         40
   143         93
   144         64
   145        166
   146         89
   147        361
   148         64
   149         17
   150          6
   151         17
   152         20
   153         27
   154         13
   155         38
   156         23
   157         90
   158         73
   159        148
   160        173
   161        187
   162         28
   163         25
   164         13
   165         33
   166         63
   167         19
   168          9
   169         24
   170         19
   171        104
   172         95
   173        121
   174         52
   175         32
   176          7
   177         12
   178         12
   179         80
   180         20
   181         15
   182          9
   183         25
   184         19
   185         90
   186         52
   187         47
   188         13
   189          4
   190          2
   191          3
   192         11
   193          9
   194          5
   195         10
   196          7
   197         30
   198         15
   199         61
   200         23
   201         18
   202          5
   203          2
   204          1
   205         13
   206          5
   207          6
   208          4
   209         28
   210          8
   211         25
   212         15
   213         36
   214         10
   215         12
   216          3
   217          1
   221         10
   222          7
   223         13
   224          7
   225         31
   226         19
   227        139
   228         28
   229          9
   230          6
   231          5
   232          3
   235          4
   236          5
   237          6
   238          5
   239         17
   240         15
   241          7
   242          2
   243          4
   244          1
   245          2
   246          1
   247          5
   248          1
   249         24
   250          4
   253          4
   254         16
   255          4
   256          1
   257         54
   258         15
   259          2
   263          2
   264         13
   265          6
   266          1
   267         20
   268          4
   271          5
   272         13
   273          2
   281          2
   282         87
   283         19
   284          3
   285         46
   286          9
   299          1
   300         60
   301         13
   302          2