##TITLE=Library Entry 97045
##JCAMP-DX=Revision 4.10 
##DATA TYPE=MASS SPECTRUM
##SAMPLE DESCRIPTION=NIST Mass Spectrometry Data Center
##NAMES=HP
##CAS NAME=Petroselinic acid, TMS derivative
##MOLFORM=C21H42O2Si
##CAS REGISTRY NO=96851-53-5
##MP= -300
##BP= -300
##MW= 354
##$RETENTION INDEX=2211
##$CONDENSED SPECTRUM=NO
##NPOINTS= 249
##XYDATA=(XY..XY) 1 
    15          1
    26          1
    27         18
    28          5
    29         54
    30          1
    31          1
    38          1
    39         27
    40          6
    41        202
    42         35
    43        241
    44         15
    45         50
    46          3
    47         26
    48          1
    49          1
    50          1
    51          2
    52          2
    53         28
    54         68
    55        289
    56         50
    57        114
    58         15
    59         17
    60          7
    61         38
    62          3
    63          2
    65         11
    66         11
    67        162
    68         65
    69        110
    70         24
    71         30
    72         35
    73        649
    74         70
    75        545
    76         40
    77         39
    78          8
    79         76
    80         47
    81        150
    82         79
    83        100
    84        211
    85         40
    86         10
    87          6
    88          7
    89         20
    90          4
    91         30
    92         10
    93         42
    94         30
    95        147
    96        218
    97        129
    98        104
    99         27
   100          3
   101         12
   102          2
   103          6
   104          1
   105         18
   106          7
   107         20
   108         16
   109         70
   110         94
   111         51
   112         19
   113          6
   114          2
   115          9
   116         93
   117        999
   118         99
   119         59
   120          9
   121         23
   122          9
   123         81
   124         36
   125         20
   126          5
   127          4
   129        438
   130         65
   131         56
   132        118
   133         45
   134         20
   135         14
   136          5
   137         38
   138         28
   139          8
   140          3
   141          6
   142         12
   143         21
   145        205
   146         26
   147         17
   148          8
   149          6
   150          4
   151         21
   152         29
   153          7
   154          3
   155         58
   156         14
   157         18
   158          7
   159         26
   160          4
   161          5
   162          2
   163          2
   164          4
   165         11
   166         21
   167          7
   168          4
   169         31
   170         10
   171         34
   172         11
   173         15
   174          4
   175          3
   176          1
   177          1
   178          1
   179          7
   180         61
   181         13
   182          2
   183         24
   184          5
   185         69
   186         17
   187         11
   188          4
   189          2
   191          1
   192          1
   193          6
   194          7
   195          2
   196          1
   197          7
   199         61
   200         11
   201         11
   202          2
   203          1
   205          1
   206          1
   207          5
   208          3
   209          3
   210          1
   211          5
   212          1
   213         12
   214          3
   215          3
   216          1
   217          1
   220         12
   221         12
   222         93
   223         18
   224          2
   225          2
   226          1
   227          9
   228          2
   229          3
   230          1
   235          7
   236         11
   237          2
   239          2
   241          7
   242          2
   243          3
   244          1
   245          1
   246          5
   247          2
   249          1
   253          1
   255          5
   256          1
   257          7
   258          3
   259          1
   263          1
   264         60
   265         12
   266          1
   267          1
   269          2
   270          1
   271          4
   272          6
   273          1
   281          1
   283          2
   285          1
   286          4
   287          1
   295          5
   296          2
   297          3
   298          1
   299          3
   300          1
   309          1
   311          7
   312          2
   313          2
   321          2
   323          1
   325          2
   326          1
   337          1
   339        249
   340         68
   341         18
   342          3
   353          1
   354         37
   355         10
   356          3
   357          1