##TITLE=Library Entry 42161
##JCAMP-DX=Revision 4.10 
##DATA TYPE=MASS SPECTRUM
##SAMPLE DESCRIPTION=NIST Mass Spectrometry Data Center
##NAMES=HP
##CAS NAME=9-Octadecenoic acid, (E)-, TMS derivative
##MOLFORM=C21H42O2Si
##CAS REGISTRY NO=96851-47-7
##MP= -300
##BP= -300
##MW= 354
##$RETENTION INDEX=2222
##$CONDENSED SPECTRUM=NO
##NPOINTS= 267
##XYDATA=(XY..XY) 1 
    15          1
    26          1
    27         27
    28          8
    29         75
    30          2
    31          1
    39         43
    40         10
    41        323
    42         60
    43        269
    44         19
    45         70
    46          5
    47         36
    48          2
    49          1
    50          1
    51          2
    52          2
    53         44
    54        126
    55        566
    56        112
    57        165
    58         24
    59         26
    60         11
    61         60
    62          4
    63          3
    65         16
    66         14
    67        245
    68         96
    69        249
    70         63
    71         37
    72         43
    73        999
    74        107
    75        945
    76         69
    77         58
    78         10
    79         84
    80         44
    81        234
    82        129
    83        196
    84        204
    85         43
    86         14
    87          9
    88          8
    89         35
    90          5
    91         40
    92         12
    93         55
    94         40
    95        195
    96        279
    97        183
    98        197
    99         42
   100          5
   101         14
   102          3
   103          7
   104          2
   105         33
   106         10
   107         35
   108         26
   109        110
   110        119
   111         80
   112         42
   113         11
   114          3
   115         11
   116        103
   117        949
   118         97
   119         72
   120         13
   121         41
   122         17
   123        102
   124         57
   125         30
   126         10
   127          6
   129        811
   130        106
   131        132
   132        179
   133         76
   134         31
   135         28
   136          9
   137         63
   138         43
   139         14
   140          5
   141          8
   142          9
   143         50
   144         12
   145        365
   146         48
   147         35
   148         14
   149         12
   150          6
   151         38
   152         41
   153         10
   154          3
   155         41
   156         13
   157         27
   158         12
   159         29
   160          5
   161         12
   162          4
   163          5
   164          6
   165         23
   166         30
   167         10
   168          7
   169         30
   170         14
   171         47
   172         21
   173         27
   174          8
   175          7
   176          2
   177          3
   178          3
   179         11
   180         73
   181         16
   182          3
   183         29
   184          7
   185         85
   186         24
   187         21
   188         10
   189          5
   190          1
   191          2
   192          1
   193         10
   194         10
   195          3
   196          1
   197          8
   198          2
   199         95
   200         18
   201         25
   202          5
   203          3
   204          1
   205          1
   206          1
   207         11
   208          6
   209          4
   210          1
   211          8
   212          2
   213         18
   214          4
   215          6
   216          1
   217          1
   218          1
   219          1
   220         19
   221         25
   222        109
   223         21
   224          2
   225          5
   226          1
   227         23
   228          5
   229          7
   230          2
   231          1
   233          1
   235         13
   236         17
   237          3
   239          4
   240          1
   241         21
   242          5
   243          6
   244          2
   245          2
   246          6
   247          1
   249          3
   250          1
   253          5
   254          1
   255         12
   256          3
   257         12
   258          6
   259          1
   263          2
   264         87
   265         18
   266          2
   267          4
   268          1
   269          6
   270          2
   271          8
   272          9
   273          2
   274          1
   281          3
   282          1
   283          4
   284          1
   285          2
   286          6
   287          1
   295         11
   296          3
   297          4
   298          1
   299          5
   300          1
   309          4
   310          1
   311         11
   312          3
   313          2
   314          1
   323          2
   324          1
   325          3
   326          1
   336          1
   337          2
   339        700
   340        187
   341         52
   342          8
   343          1
   353          4
   354         71
   355         20
   356          6
   357          1