##TITLE=Library Entry 15462
##JCAMP-DX=Revision 4.10 
##DATA TYPE=MASS SPECTRUM
##SAMPLE DESCRIPTION=K. Jacobson, LBC, NIDDK, NIH, Bethesda, MD 20892
##NAMES=HP
##CAS NAME=Xanthine, 8-[4-[(aminocarbonyl)methoxy]phenyl]-1,3-dipropyl-
##MOLFORM=C19H23N5O4
##CAS REGISTRY NO=96865-90-6
##MP= -300
##BP= -300
##MW= 385
##$RETENTION INDEX=0
##$CONDENSED SPECTRUM=NO
##NPOINTS= 86
##XYDATA=(XY..XY) 1 
    41        198
    42        100
    43        345
    44        999
    45        377
    46        288
    51         28
    53         23
    54         27
    55        137
    56         73
    57        141
    58         48
    59         41
    60        162
    61         15
    64         28
    65         19
    66          9
    67         56
    68         23
    69         86
    70         58
    71         70
    72         20
    73        114
    74         18
    77         58
    78         74
    79         30
    81         33
    82         24
    83         51
    84         36
    85         46
    87         19
    91         20
    95         32
    96         19
    97         43
    98         12
   100         10
   101          9
   105         10
   106         56
   107         21
   109          9
   111         11
   115         24
   119          9
   120         35
   121         38
   122         34
   123          9
   124         60
   126         10
   129         44
   147         41
   149         53
   151         13
   177         22
   182          9
   185          9
   213         21
   214         31
   226         19
   227         21
   228         37
   244         81
   258          9
   262          9
   271         87
   285         58
   286         10
   301        162
   302         37
   315         40
   326         10
   327         10
   328         40
   330         36
   342         11
   343         13
   368          9
   385        309
   386         75