##TITLE=Library Entry 69496
##JCAMP-DX=Revision 4.10 
##DATA TYPE=MASS SPECTRUM
##SAMPLE DESCRIPTION=A. Brossi, LC, NIDDK, NIH, Bethesda, MD 20892
##NAMES=HP
##CAS NAME=Spiro[cyclohexanone-3,6'-hexahydropyridin-2-one]
##MOLFORM=C10H15NO2
##CAS REGISTRY NO=96861-67-5
##MP= -300
##BP= -300
##MW= 181
##$RETENTION INDEX=0
##$CONDENSED SPECTRUM=NO
##NPOINTS= 135
##XYDATA=(XY..XY) 1 
    41         35
    42        244
    43         34
    44          9
    45          2
    46          0
    47          0
    48          3
    49          1
    50          3
    51          9
    52         10
    53         24
    54         36
    55        148
    56         17
    57         15
    58          4
    59          3
    60          1
    61          1
    62          1
    63          3
    64          1
    65         13
    66          9
    67         35
    68         26
    69         15
    70         14
    71         13
    72          1
    73          1
    74          0
    75          0
    76          0
    77         12
    78          7
    79         27
    80         15
    81         17
    82        269
    83        454
    84        128
    85         18
    86         12
    87          3
    88          2
    89          3
    91         53
    92         14
    93         46
    94        109
    95        108
    96        999
    97          4
    98         19
    99          6
   100          0
   101          0
   102          0
   103          0
   104          1
   105          2
   106          5
   107          4
   108         11
   109          8
   110         43
   111        417
   112        116
   113          7
   114          0
   115          0
   116          0
   117          0
   118          0
   119          1
   120          2
   121          2
   122          8
   123         20
   124        462
   125         52
   126          5
   127          0
   129          0
   131          0
   132          1
   133          0
   134          2
   135          6
   136          7
   137          1
   138        455
   139         32
   140          4
   141          0
   143          0
   144          0
   145          0
   146          0
   147          0
   148         13
   149          2
   150          2
   151          0
   152         12
   153         60
   154          5
   155          0
   156          0
   159          0
   160          1
   161          1
   162         10
   163         32
   164          8
   165          7
   166         13
   167          2
   168          0
   171          0
   173          0
   174          0
   175          0
   176          0
   177          0
   178          0
   179          0
   180         17
   181        436
   182         67
   183          6
   184          0