##TITLE=Library Entry 72318
##JCAMP-DX=Revision 4.10 
##DATA TYPE=MASS SPECTRUM
##SAMPLE DESCRIPTION=Chemical Concepts
##NAMES=HP
##CAS NAME=1,4-Dioxaspiro[4.5]decane-7-carboxylic acid, 8-hydroxy-, ethyl es
ter
##MOLFORM=C11H18O5
##CAS REGISTRY NO=96893-99-1
##MP= -300
##BP= -300
##MW= 230
##$RETENTION INDEX=0
##$CONDENSED SPECTRUM=NO
##NPOINTS= 130
##XYDATA=(XY..XY) 1 
    26         22
    27        187
    28         67
    29        253
    30         11
    31        117
    38          5
    39         74
    40         18
    41        141
    42        128
    43        150
    44         21
    45        127
    46          3
    47          6
    48          2
    50          6
    51         19
    52         10
    53         42
    54         15
    55        233
    56         41
    57        111
    58         10
    59         42
    60         35
    61          4
    62          2
    63          9
    64          2
    65         39
    66         12
    67        141
    68         21
    69         17
    70         11
    71         70
    72          7
    73         64
    74         39
    75          3
    77         26
    78         13
    79         36
    80          6
    81         19
    82         19
    83         27
    84         12
    85         71
    86        718
    87         52
    88          6
    89         18
    90          3
    91        124
    92         65
    93         10
    94         11
    95        105
    96         18
    97         16
    98         24
    99        999
   100        120
   101         28
   102          8
   103          5
   104          3
   105          2
   107          5
   108          6
   109         42
   110          5
   111         18
   112         12
   113         45
   114          7
   115          4
   117          2
   119          6
   121          8
   122         31
   123         26
   124          4
   125         10
   126        124
   127         51
   128         24
   129        118
   130         14
   131          8
   136          2
   137          4
   138          6
   139        126
   140         19
   141         28
   142          3
   143        273
   144         21
   145          4
   153          3
   154          2
   155         11
   156          3
   157         55
   158          6
   166          5
   167          4
   168          4
   169          2
   170          3
   171        170
   172        312
   173         31
   174          3
   182          2
   183          9
   184          5
   185        130
   186         14
   187          3
   200          3
   201          5
   212         95
   213         13
   230          2