##TITLE=Library Entry 33598
##JCAMP-DX=Revision 4.10 
##DATA TYPE=MASS SPECTRUM
##SAMPLE DESCRIPTION=OGDEN BioServices Corp., NCI, Rockville, MD 20852
##NAMES=HP
##CAS NAME=Sulfamic acid, 1,7-heptanediyl ester
##MOLFORM=C7H18N2O6S2
##CAS REGISTRY NO=96892-57-8
##MP= -300
##BP= -300
##MW= 290
##$RETENTION INDEX=0
##$CONDENSED SPECTRUM=NO
##NPOINTS= 94
##XYDATA=(XY..XY) 1 
    41        488
    42        174
    43        135
    44         28
    45         54
    46         28
    47          9
    48         91
    49          8
    50         20
    51         26
    52         15
    53        139
    54        415
    55        656
    56        151
    57         50
    58          3
    59         18
    61          6
    62          6
    64        126
    65         63
    66         52
    67        527
    68        999
    69         92
    70         12
    71         29
    72          3
    73          4
    75          1
    77         23
    79        274
    80        682
    81        471
    82         66
    83         16
    84         36
    85          6
    86          3
    88          1
    91         21
    92         12
    93          7
    94         12
    95        108
    96        449
    97        127
    98         44
    99          2
   100          1
   104          1
   105          0
   107          1
   110        106
   112         15
   113         14
   114          1
   115          1
   121          4
   122          1
   123          2
   124          3
   125          2
   127          1
   128          0
   129          0
   130          0
   133          1
   135          3
   136          7
   137          1
   138          4
   140          0
   141          0
   147          0
   148          0
   149          3
   150          6
   151          2
   152          2
   159          0
   164          2
   165         14
   166          0
   167          0
   176          3
   177          2
   192          0
   193          2
   194          3
   195          0
   290          2