##TITLE=Library Entry 77037
##JCAMP-DX=Revision 4.10 
##DATA TYPE=MASS SPECTRUM
##SAMPLE DESCRIPTION=R. MARTIN, PHARM. BIOL., UNIV. HEIDELBERG, W. GER.
##NAMES=HP
##CAS NAME=N-(2-Phenylethyl)-cis-2,3-epoxynona-6,8-diynamide
##MOLFORM=C17H17NO2
##CAS REGISTRY NO=96917-25-8
##MP= -300
##BP= -300
##MW= 267
##$RETENTION INDEX=0
##$CONDENSED SPECTRUM=NO
##NPOINTS= 168
##XYDATA=(XY..XY) 1 
    40         16
    41         86
    42         24
    43         56
    44         55
    45          7
    50         37
    51        136
    52         31
    53         31
    54         14
    55         77
    56         22
    57         52
    58         12
    59          4
    60          3
    61          9
    62         55
    63        532
    64         59
    65        377
    66         37
    67         20
    68         20
    69         28
    70         10
    71         25
    72          9
    74         19
    75         24
    76         21
    77        306
    78         85
    79        159
    80         23
    81         34
    82         10
    83         13
    84          9
    85          5
    86         28
    87         11
    89         74
    90         33
    91        664
    92        105
    93         21
    94         37
    95         25
    96          8
    97          5
    98          7
    99         11
   100         11
   101         12
   102         19
   103        141
   104        999
   105        622
   106         68
   107         18
   109         11
   110          6
   111          5
   112          4
   115         20
   116         12
   117         27
   118         38
   119        137
   120         73
   121         18
   122          6
   123          4
   124         10
   125          4
   127         36
   128         30
   129         27
   130         20
   131         23
   132         21
   133         17
   134         18
   135         10
   137          6
   139          3
   141         13
   142          8
   143         18
   144         22
   145          7
   146         12
   147         30
   148         34
   149         22
   150          4
   151          4
   152         15
   153         14
   154         13
   155         15
   156         19
   157         27
   158          9
   159          6
   160          7
   161          4
   162          9
   163         32
   164          6
   165         41
   166         24
   167         37
   168         19
   169         12
   170          9
   171          3
   172         10
   176         44
   177          6
   178         40
   179         18
   180         22
   181         28
   182         35
   183         31
   184          7
   185          5
   186          9
   190         37
   191         17
   192          9
   193         16
   194         14
   195         18
   196         30
   197         33
   198         10
   203          5
   204          7
   205          8
   206          4
   207          4
   208          5
   209         53
   210         95
   211         46
   212          9
   220         11
   221         11
   222         19
   223         15
   224         13
   225          4
   229          6
   237         11
   238        129
   239         33
   240          5
   248         17
   249          4
   250         38
   251          8
   266         73
   267         76
   268         14