##TITLE=Library Entry 98736
##JCAMP-DX=Revision 4.10 
##DATA TYPE=MASS SPECTRUM
##SAMPLE DESCRIPTION=K. Kirk, LC, NIDDK, NIH, Bethesda, MD 20892
##NAMES=HP
##CAS NAME=Oxazolid-2-one, 4-methyl-3-acetyl-.alpha.,5-diphenyl-
##MOLFORM=C18H17NO3
##CAS REGISTRY NO=96930-16-4
##MP= -300
##BP= -300
##MW= 295
##$RETENTION INDEX=0
##$CONDENSED SPECTRUM=NO
##NPOINTS= 93
##XYDATA=(XY..XY) 1 
    41         27
    42         55
    43          9
    44         15
    45          5
    49          7
    50         17
    51         47
    52         12
    53          4
    54          6
    55          3
    56          6
    57          3
    61          1
    62          8
    63         35
    64         16
    65        109
    66          6
    70         55
    71          4
    74          3
    75          4
    76          3
    77         64
    78         17
    79         31
    80          2
    82          1
    84          4
    86          4
    87          1
    89         76
    90        142
    91        418
    92         44
    93          3
   102          2
   103         10
   104          2
   105         48
   106          7
   107         29
   108          3
   115         51
   116         20
   117         63
   118        999
   119         87
   120          6
   128          1
   130          6
   131          1
   132         13
   133         11
   134         69
   135         10
   136          1
   140          1
   142         13
   143          1
   144          2
   145          6
   146          1
   159         19
   160         21
   161          3
   162          1
   165          3
   166          1
   167          4
   176          3
   177         93
   178         56
   179         10
   180          5
   181         18
   182          3
   193          1
   207          1
   208          1
   218          1
   232          2
   234         13
   235          1
   251          3
   253          1
   262          1
   295        988
   296        184
   297         24
   298          1