##TITLE=Library Entry 100889
##JCAMP-DX=Revision 4.10 
##DATA TYPE=MASS SPECTRUM
##SAMPLE DESCRIPTION=Zaikin V.G., TIPS RAS, Moscow, Russia
##NAMES=HP
##CAS NAME=3-Methyl-N-naphthalen-1-yl-benzamide
##MOLFORM=C18H15NO
##CAS REGISTRY NO=96963-49-4
##MP= -300
##BP= -300
##MW= 261
##$RETENTION INDEX=2603
##$CONDENSED SPECTRUM=NO
##NPOINTS= 34
##XYDATA=(XY..XY) 1 
    28          1
    39          9
    41          4
    50          3
    51          5
    63         10
    64          3
    65         54
    66          3
    77          3
    88          3
    89         20
    90         15
    91        292
    92         24
   113          5
   114          9
   115         72
   116         14
   118          4
   119        999
   120         72
   121          4
   127          4
   140         11
   141          7
   142          6
   143         34
   144         19
   217          3
   260          3
   261        460
   262         82
   263          8