##TITLE=Library Entry 25198
##JCAMP-DX=Revision 4.10 
##DATA TYPE=MASS SPECTRUM
##SAMPLE DESCRIPTION=V.Zaikin,Topchiev Inst.Petrochem.Synth.,Moscow
##NAMES=HP
##CAS NAME=Dichloroacetic acid, 2-octyl ester
##MOLFORM=C10H18Cl2O2
##CAS REGISTRY NO=96980-53-9
##MP= -300
##BP= -300
##MW= 240
##$RETENTION INDEX=0
##$CONDENSED SPECTRUM=NO
##NPOINTS= 91
##XYDATA=(XY..XY) 1 
    26         11
    27        107
    28          5
    29        193
    30          4
    31          2
    35          9
    36         63
    37          2
    38         21
    39        113
    40         26
    41        508
    42        233
    43        610
    44         44
    45         41
    46          1
    47          7
    48         30
    49         10
    50         12
    51         10
    52         11
    53         37
    54         35
    55        582
    56        502
    57        999
    58         50
    59          5
    63         30
    65         11
    66          3
    67         42
    68         56
    69        311
    70        838
    71        821
    72         47
    73          3
    75          1
    76        140
    77         13
    78         43
    79         16
    80          2
    81         16
    82         94
    83        499
    84        307
    85        227
    86          5
    87         34
    91          5
    92          4
    93          6
    94          5
    95          7
    96          2
    97        162
    98         12
   104          2
   105          2
   108          2
   110          9
   111         89
   112        268
   113        103
   114          6
   115          7
   120          3
   121          5
   122          2
   123          2
   126          1
   127        141
   128          5
   129        101
   130          3
   131         23
   133          2
   154          7
   155        270
   156         17
   157        171
   158          9
   159         31
   183          5
   185          3
   205          5