##TITLE=Library Entry 47386
##JCAMP-DX=Revision 4.10 
##DATA TYPE=MASS SPECTRUM
##SAMPLE DESCRIPTION=S.M. Lee, CA Export Lab. Services, CA, USA
##NAMES=HP
##CAS NAME=Phenol, 2,4-dichloro-, benzenesulfonate
##MOLFORM=C12H8Cl2O3S
##CAS REGISTRY NO=97-16-5
##MP= -300
##BP= -300
##MW= 302
##$RETENTION INDEX=2071
##$CONDENSED SPECTRUM=NO
##NPOINTS= 115
##XYDATA=(XY..XY) 1 
    51        328
    52         17
    53         14
    54          1
    57          2
    58          1
    59          1
    60          5
    61         31
    62         70
    63        162
    64         14
    65         13
    66          2
    67          1
    68          1
    69          8
    70          2
    71          7
    72         29
    73        108
    74         44
    75         58
    76         28
    77        999
    78         67
    79          4
    80          1
    81          3
    82          3
    83         37
    84          4
    85         26
    86          3
    87          6
    88          1
    89          4
    90          1
    91          2
    92          1
    93          1
    94          1
    95          3
    96          7
    97         73
    98         26
    99         21
   100          9
   101          2
   102          1
   106          3
   107         30
   108          5
   109         28
   110          4
   111          6
   112          2
   113          2
   114          3
   115          4
   116          1
   125         22
   126          8
   127          2
   128          2
   129          1
   133        231
   134         14
   135        143
   136          9
   137         24
   138          4
   139         35
   141        687
   142         51
   143         35
   144          2
   145          2
   146          1
   147          2
   148          1
   149          9
   150          1
   151          3
   152          1
   153          1
   161         82
   162         18
   163         54
   164         10
   165         10
   166          2
   167          3
   168         50
   169          7
   170          1
   173          2
   175         24
   176          3
   177          7
   178          1
   179          1
   202          8
   203          2
   204          3
   205          1
   206          1
   302        212
   303         31
   304        146
   305         21
   306         29
   307          4
   308          1
   309          1