##TITLE=Library Entry 87674
##JCAMP-DX=Revision 4.10 
##DATA TYPE=MASS SPECTRUM
##SAMPLE DESCRIPTION=Japan AIST/NIMC Database- Spectrum MS-NW-8272
##NAMES=HP
##CAS NAME=1,3-Benzenediol, 4,4'-thiobis-
##MOLFORM=C12H10O4S
##CAS REGISTRY NO=97-29-0
##MP= -300
##BP= -300
##MW= 250
##$RETENTION INDEX=0
##$CONDENSED SPECTRUM=NO
##NPOINTS= 159
##XYDATA=(XY..XY) 1 
    14          1
    15          1
    17          9
    18         47
    26          4
    27         28
    28         20
    29          9
    31          2
    32          3
    34          1
    37          4
    38          9
    39         57
    40          6
    41         14
    42          8
    43         11
    44          3
    45         39
    46          1
    47          2
    49          1
    50         11
    51         37
    52         21
    53         45
    54         13
    55         51
    56          2
    57          2
    58         11
    59          4
    60          1
    61          4
    62          7
    63         18
    64         10
    65          8
    66          5
    67          4
    68          9
    69         81
    70         11
    71         15
    72          3
    73          4
    74          4
    75          2
    76          1
    77          8
    78          3
    79         30
    80         12
    81         42
    82         49
    83         15
    84         17
    85         30
    86          5
    87          5
    88          2
    89          3
    90          1
    91          5
    92          3
    93          5
    94          3
    95         14
    96          5
    97          8
    98          3
    99          1
   100          3
   101          2
   102         11
   103          4
   104          1
   105          2
   107          8
   108          9
   109         11
   110        999
   111         82
   112         63
   113         94
   114         11
   115          9
   116          6
   117          1
   118          1
   119          2
   121          3
   122          1
   123          5
   124          3
   125         19
   126          2
   127          2
   131          8
   132          2
   133          2
   134          3
   135          2
   137          8
   138          1
   139          3
   140          5
   141        184
   142         45
   143         12
   144          7
   145          1
   146          2
   147         12
   148          5
   149          3
   150          1
   151          2
   153          8
   154          1
   155          1
   156          2
   158          1
   159          1
   160          4
   161          3
   163          3
   165          1
   166          4
   171          3
   174          1
   175          3
   176          1
   177          1
   178          1
   179          7
   180          1
   181          3
   187          3
   188          2
   189          3
   192          1
   193          3
   199          4
   200          2
   203         10
   204          2
   205          1
   216          5
   217          6
   218          1
   219          1
   221          3
   249         20
   250        490
   251         69
   252         29
   253          3