##TITLE=Library Entry 83974
##JCAMP-DX=Revision 4.10 
##DATA TYPE=MASS SPECTRUM
##SAMPLE DESCRIPTION=NIST Mass Spectrometry Data Center, 1998.
##NAMES=HP
##CAS NAME=Guanidine, N,N'-bis(2-methylphenyl)-
##MOLFORM=C15H17N3
##CAS REGISTRY NO=97-39-2
##MP= -300
##BP= -300
##MW= 239
##$RETENTION INDEX=0
##$CONDENSED SPECTRUM=NO
##NPOINTS= 123
##XYDATA=(XY..XY) 1 
    26          1
    27          9
    28         11
    29          2
    30          9
    37          1
    38          5
    39         55
    40          6
    41         19
    42          5
    43         17
    50         15
    51         50
    52         28
    53         20
    54          6
    55          2
    60          4
    61          1
    62          6
    63         35
    64         16
    65        182
    66         16
    67          4
    68          1
    74          2
    75          5
    76          9
    77        108
    78         54
    79         51
    80         13
    81          2
    86          1
    87          1
    88          2
    89         53
    90         29
    91        192
    92         21
    93          8
    94          3
    97          1
    98          1
    99          1
   102          4
   103          5
   104         60
   105         17
   106        396
   107        999
   108         87
   109          4
   110          1
   111          3
   112          1
   114          1
   115          3
   116         79
   117         20
   121          2
   127          1
   128          1
   129          2
   130          3
   131         40
   132         38
   133        123
   134         15
   135          1
   139          1
   141          1
   145          1
   146         12
   147          5
   148         11
   149          1
   151          1
   152          2
   153          1
   154          1
   165          2
   166          1
   167          2
   168          1
   169          1
   177          1
   178          2
   179          2
   180         10
   181          4
   182          3
   183          1
   192          1
   193          1
   194          4
   195          2
   196          2
   197          2
   198          1
   204          1
   205          4
   206          4
   207          7
   208          4
   209          1
   214          1
   219          2
   220          3
   221          8
   222         12
   223          6
   224        140
   225         23
   226          2
   236          2
   237          2
   238         59
   239        309
   240         54
   241          4