##TITLE=Library Entry 30985
##JCAMP-DX=Revision 4.10 
##DATA TYPE=MASS SPECTRUM
##SAMPLE DESCRIPTION=Japan AIST/NIMC Database- Spectrum MS-NW- 635
##NAMES=HP
##CAS NAME=.alpha.-D-Glucopyranoside, methyl
##MOLFORM=C7H14O6
##CAS REGISTRY NO=97-30-3
##MP= -300
##BP= -300
##MW= 194
##$RETENTION INDEX=0
##$CONDENSED SPECTRUM=NO
##NPOINTS= 102
##XYDATA=(XY..XY) 1 
    12          1
    13          1
    14         11
    15        125
    16          2
    17         10
    18         45
    19         10
    26         12
    27         86
    28         66
    29        167
    30         22
    31        245
    32         12
    33         91
    37          1
    38          4
    39         34
    40          8
    41         76
    42         80
    43        179
    44         73
    45        195
    46          8
    47         14
    49          1
    50          2
    51          3
    52          2
    53         11
    54         13
    55         77
    56        123
    57        432
    58         23
    59         90
    60        999
    61        416
    62         15
    63          2
    67          2
    68          9
    69         90
    70         73
    71        185
    72         30
    73        512
    74        671
    75        119
    76          6
    77          2
    78          3
    79          3
    80          2
    81          8
    82          2
    83          8
    84          5
    85         87
    86         24
    87         83
    88          8
    89         11
    90          1
    91         13
    94          1
    95          1
    96          2
    97         58
    98         77
    99         22
   100          3
   101         10
   102          3
   103         29
   104         25
   105          4
   109          3
   113          3
   114          3
   115          6
   116         55
   117          8
   120          4
   121         17
   122          1
   126          2
   127         15
   128          1
   129          1
   130          5
   131         46
   132          3
   133          8
   134          2
   144         35
   145         43
   146          3
   163         14
   164          1