##TITLE=Library Entry 9766
##JCAMP-DX=Revision 4.10 
##DATA TYPE=MASS SPECTRUM
##SAMPLE DESCRIPTION=Japan AIST/NIMC Database- Spectrum MS-NW-7462
##NAMES=HP
##CAS NAME=2-Cyclohexen-1-ol, 2-methyl-5-(1-methylethenyl)-, acetate
##MOLFORM=C12H18O2
##CAS REGISTRY NO=97-42-7
##MP= -300
##BP= -300
##MW= 194
##$RETENTION INDEX=1336
##$CONDENSED SPECTRUM=NO
##NPOINTS= 131
##XYDATA=(XY..XY) 1 
    12          1
    13          3
    14         18
    15         68
    16          5
    18          2
    24          1
    25          1
    26          7
    27        129
    28         55
    29        101
    30          3
    31          6
    32          3
    35          1
    36          9
    37          3
    38         12
    39        234
    40         44
    41        360
    42         41
    43        999
    44         30
    45         56
    46          1
    49          1
    50         18
    51         70
    52         33
    53        127
    54         33
    55        220
    56         42
    57         12
    58          9
    59          9
    60         38
    61         10
    62          9
    63         29
    64         11
    65         89
    66         35
    67        107
    68         76
    69         64
    70          7
    71         15
    72         13
    73          2
    74          5
    75          6
    76          6
    77        219
    78         67
    79        213
    80        128
    81        107
    82         56
    83         90
    84        912
    85         57
    86          6
    87          3
    88          1
    89         11
    90          5
    91        500
    92        311
    93        349
    94         80
    95         57
    96         46
    97         41
    98          5
    99          1
   100          1
   101          2
   102          7
   103         39
   104         25
   105        252
   106        115
   107        112
   108        101
   109        568
   110         62
   111         13
   112          2
   113          3
   114          2
   115         32
   116         11
   117         76
   118         16
   119        878
   120         97
   121         19
   122         12
   123         42
   124         18
   125          5
   126         37
   127          5
   128          4
   129          3
   130          2
   131          9
   132         17
   133         58
   134        470
   135         71
   136         13
   137         55
   138          7
   139          1
   143          1
   145          1
   147          1
   149          1
   150         12
   151         83
   152        525
   153         62
   154          7
   161          1
   179          1
   194          4
   195          1