##TITLE=Library Entry 23160
##JCAMP-DX=Revision 4.10 
##DATA TYPE=MASS SPECTRUM
##SAMPLE DESCRIPTION=NIST Mass Spectrometry Data Center, 1992
##NAMES=HP
##CAS NAME=2-Cyclohexen-1-ol, 2-methyl-5-(1-methylethenyl)-, propanoate
##MOLFORM=C13H20O2
##CAS REGISTRY NO=97-45-0
##MP= -300
##BP= -300
##MW= 208
##$RETENTION INDEX=1440
##$CONDENSED SPECTRUM=NO
##NPOINTS= 118
##XYDATA=(XY..XY) 1 
    12          0
    13          1
    14          3
    15         14
    16          0
    17          5
    18         27
    19          1
    26         27
    27        243
    28        104
    29        605
    30         18
    31          6
    37          2
    39        238
    40         48
    41        288
    42         29
    43         85
    44          4
    45         15
    46          1
    47          0
    50         14
    51         60
    52         31
    53        131
    54         33
    55        169
    56          0
    57        999
    58         34
    59          7
    60          0
    61          1
    62          5
    63         21
    64          0
    65         84
    66         30
    67         97
    68         44
    69         38
    70          3
    71          9
    72          4
    73          6
    74         11
    75         14
    76          0
    77        192
    78         59
    79        184
    80         73
    81         64
    82         38
    83         44
    84        226
    85         13
    86          3
    87          1
    89         12
    91        435
    92        207
    93        215
    94         46
    95         40
    96         42
    97         28
    98          3
    99          0
   100          2
   102          7
   103         25
   105        186
   106         86
   107        110
   108        115
   109        499
   110         48
   111         10
   112          2
   115         27
   116         10
   117         61
   118          2
   119        578
   120         56
   121          9
   122         10
   123         35
   124         15
   125          2
   126          0
   127          1
   128          2
   129          1
   131          4
   132          9
   133         39
   134        228
   135         33
   136          0
   137         39
   138          5
   139          6
   140         15
   141          1
   152        325
   153         32
   154          2
   164         17
   165         71
   166          8
   167          1
   179          1
   208          1