##TITLE=Library Entry 83201
##JCAMP-DX=Revision 4.10 
##DATA TYPE=MASS SPECTRUM
##SAMPLE DESCRIPTION=Japan AIST/NIMC Database- Spectrum MS-NW-5853
##NAMES=HP
##CAS NAME=Benzenamine, 2-methyl-4-[(2-methylphenyl)azo]-
##MOLFORM=C14H15N3
##CAS REGISTRY NO=97-56-3
##MP= -300
##BP= -300
##MW= 225
##$RETENTION INDEX=0
##$CONDENSED SPECTRUM=NO
##NPOINTS= 119
##XYDATA=(XY..XY) 1 
    15          1
    17          2
    18         10
    26          2
    27         10
    28         23
    29          3
    30         10
    31          3
    32          2
    37          1
    38          6
    39         51
    40          5
    41         18
    42          9
    43          1
    50          9
    51         31
    52         24
    53         23
    54         13
    55          3
    56          1
    59          1
    61          1
    62          4
    63         19
    64          8
    65         83
    66         19
    67          6
    68          3
    74          2
    75          4
    76          6
    77        118
    78         35
    79        134
    80         18
    81          2
    84          1
    88          1
    89         13
    90          7
    91        195
    92         19
    93          8
    94          5
   102          2
   103          3
   104         28
   105         21
   106        999
   107         98
   108          6
   112         13
   113          3
   115          4
   116          1
   117          2
   118          3
   119         14
   120          6
   121          9
   122          6
   127          2
   128          4
   129          3
   130          3
   131          2
   132          2
   133          2
   134        222
   135         20
   136          1
   139          1
   141          4
   142          1
   143          2
   144          2
   152          3
   153          4
   154          3
   155          2
   156          2
   164          1
   165         10
   166          4
   167          9
   168          3
   169          2
   170          2
   178          5
   179          6
   180         16
   181         17
   182         12
   183          3
   184          2
   192          1
   193          1
   194          3
   195          3
   196          9
   197          6
   198          1
   206          1
   207          3
   208          6
   209         24
   210         19
   211          3
   222          1
   223          3
   224         73
   225        661
   226        110
   227          9