##TITLE=Library Entry 34063
##JCAMP-DX=Revision 4.10 
##DATA TYPE=MASS SPECTRUM
##SAMPLE DESCRIPTION=NIST Mass Spectrometry Data Center, 2011
##NAMES=HP
##CAS NAME=Methacrylic acid, ethyl ester
##MOLFORM=C6H10O2
##CAS REGISTRY NO=97-63-2
##MP= -300
##BP= -300
##MW= 114
##$RETENTION INDEX=814
##$CONDENSED SPECTRUM=NO
##NPOINTS= 46
##XYDATA=(XY..XY) 1 
    14          1
    15          8
    19          1
    25          1
    26         16
    27         68
    28         10
    29        146
    36          1
    37         12
    38         32
    39        278
    40         72
    41        582
    42         57
    43         31
    45         70
    50          1
    53         12
    54          3
    55         28
    56          3
    57         13
    58         33
    59          6
    60          3
    66          1
    67          4
    68         71
    69        999
    70         81
    71         29
    81          3
    85         19
    86        170
    87         22
    88          2
    95          3
    96         32
    97          5
    99        213
   100         12
   101          1
   113         20
   114         59
   115          5