##TITLE=Library Entry 8741
##JCAMP-DX=Revision 4.10 
##DATA TYPE=MASS SPECTRUM
##SAMPLE DESCRIPTION=Japan AIST/NIMC Database- Spectrum MS-NW- 444
##NAMES=HP
##CAS NAME=Propanoic acid, 2-methyl-, ethyl ester
##MOLFORM=C6H12O2
##CAS REGISTRY NO=97-62-1
##MP= -300
##BP= -300
##MW= 116
##$RETENTION INDEX=755
##$CONDENSED SPECTRUM=NO
##NPOINTS= 61
##XYDATA=(XY..XY) 1 
    14          3
    15         21
    17          1
    18          3
    25          2
    26         32
    27        194
    28         40
    29        413
    30          9
    31         13
    37          3
    38          7
    39         55
    40         13
    41        214
    42        130
    43        999
    44         32
    45         97
    46          3
    47          5
    50          3
    51          7
    52         11
    53         12
    54          2
    55          4
    56          8
    57         16
    58          2
    59          6
    60          4
    63          1
    65          2
    67          2
    68          1
    69          2
    70          7
    71        430
    72         19
    73         72
    74          3
    75          1
    77          2
    78          8
    84          4
    85          2
    86          1
    87          4
    88         89
    89         59
    90          3
    97          8
    98          8
    99          2
   100          1
   101         19
   102          1
   116        140
   117          9