##TITLE=Library Entry 8986
##JCAMP-DX=Revision 4.10 
##DATA TYPE=MASS SPECTRUM
##SAMPLE DESCRIPTION=Japan AIST/NIMC Database- Spectrum MS-NW- 232
##NAMES=HP
##CAS NAME=Butanedioic acid, hydroxy-, (S)-
##MOLFORM=C4H6O5
##CAS REGISTRY NO=97-67-6
##MP= -300
##BP= -300
##MW= 134
##$RETENTION INDEX=0
##$CONDENSED SPECTRUM=NO
##NPOINTS= 62
##XYDATA=(XY..XY) 1 
    12          4
    13          8
    14         43
    15        131
    16          9
    17         13
    18         38
    19          3
    24          2
    25         17
    26         81
    27        241
    28         48
    29        323
    30         20
    31         35
    32          3
    36          4
    37          4
    38          2
    39          3
    40          6
    41         32
    42        308
    43        999
    44        233
    45        373
    46         28
    47        108
    52          2
    53         30
    54         18
    55         94
    56          5
    58          3
    60        122
    61          5
    63          5
    67          4
    69         27
    70          8
    71        716
    72        186
    73         17
    74          6
    75          3
    81          4
    87          7
    88         36
    89        545
    90         57
    91          7
    98          4
    99         13
   101          4
   105          3
   106          3
   116          4
   117          8
   119          2
   134          1
   135          2