##TITLE=Library Entry 57845
##JCAMP-DX=Revision 4.10 
##DATA TYPE=MASS SPECTRUM
##SAMPLE DESCRIPTION=Tox21 Consortium/NIST Mass Spectrometry Data Center, 20
12
##NAMES=HP
##CAS NAME=Bis(dimethylthiocarbamyl) sulfide
##MOLFORM=C6H12N2S3
##CAS REGISTRY NO=97-74-5
##MP= -300
##BP= -300
##MW= 208
##$RETENTION INDEX=0
##$CONDENSED SPECTRUM=NO
##NPOINTS= 60
##XYDATA=(XY..XY) 1 
    14          1
    15          9
    18          5
    26          1
    27          3
    28         13
    29          3
    30          4
    32          2
    33          1
    38          1
    39          1
    40          5
    41          7
    42         96
    43         18
    44         68
    45         29
    46          6
    47         28
    48          1
    49          1
    52          1
    54          2
    55          2
    56         40
    57          3
    58          3
    59          4
    60          1
    61         14
    63          1
    64         10
    66          1
    70          3
    71          2
    72         47
    73        110
    74         13
    75          5
    76         22
    77         40
    78          4
    79          4
    88        999
    89         54
    90         47
    91          3
   104          9
   105          4
   120         19
   121          3
   122          1
   152          1
   178          1
   208         85
   209          8
   210         11
   211          1
   212          1