##TITLE=Library Entry 96517
##JCAMP-DX=Revision 4.10 
##DATA TYPE=MASS SPECTRUM
##SAMPLE DESCRIPTION=Japan AIST/NIMC Database- Spectrum MS-NW- 179
##NAMES=HP
##CAS NAME=Disulfiram
##MOLFORM=C10H20N2S4
##CAS REGISTRY NO=97-77-8
##MP= -300
##BP= -300
##MW= 296
##$RETENTION INDEX=2138
##$CONDENSED SPECTRUM=NO
##NPOINTS= 89
##XYDATA=(XY..XY) 1 
    15          9
    18         29
    26          8
    27        110
    28         71
    29        242
    30         13
    32          5
    35          5
    39          2
    40          3
    41          9
    42         63
    43          5
    44        311
    45         17
    46          3
    47          2
    52          1
    54          9
    55          4
    56         49
    57          6
    58          9
    59         47
    60        359
    61         32
    62         14
    63          1
    64         20
    65          4
    66          2
    69          2
    70          9
    71          3
    72        157
    73          9
    76         20
    77         84
    78          5
    79          8
    84          2
    86         51
    87          9
    88        550
    89         23
    90         23
    91         18
    92         12
    93          4
   104          7
   105          1
   109          2
   114          3
   116        999
   117         68
   118         47
   119          5
   120          3
   122          4
   124          2
   134          2
   139          1
   146          3
   147          4
   148        241
   149         44
   150         23
   151          4
   152          2
   178          2
   180         12
   181          1
   182          2
   204          3
   205          5
   206          2
   207          2
   210          1
   211          7
   212          9
   213          4
   214          4
   264          8
   266          2
   296        178
   297         25
   298         33
   299          5