##TITLE=Library Entry 38320
##JCAMP-DX=Revision 4.10 
##DATA TYPE=MASS SPECTRUM
##SAMPLE DESCRIPTION=Japan AIST/NIMC Database- Spectrum MS-NW- 926
##NAMES=HP
##CAS NAME=Propanoic acid, 2-methyl-, anhydride
##MOLFORM=C8H14O3
##CAS REGISTRY NO=97-72-3
##MP= -300
##BP= -300
##MW= 158
##$RETENTION INDEX=0
##$CONDENSED SPECTRUM=NO
##NPOINTS= 32
##XYDATA=(XY..XY) 1 
    14          1
    15         14
    17          1
    18          2
    25          1
    26         14
    27        145
    28         28
    29          8
    31          1
    32          1
    37          5
    38          9
    39         78
    40         21
    41        208
    42         53
    43        879
    44         28
    45          8
    53          2
    55          9
    56          3
    57          7
    59          1
    60          1
    68          1
    69          1
    70         31
    71        999
    72         44
    73         16