##TITLE=Library Entry 8985
##JCAMP-DX=Revision 4.10 
##DATA TYPE=MASS SPECTRUM
##SAMPLE DESCRIPTION=Exported from NIST MS Search
##NAMES=HP
##CAS NAME=Propanoic acid, 2-methyl-, butyl ester
##MOLFORM=C8H16O2
##CAS REGISTRY NO=97-87-0
##MP= -300
##BP= -300
##MW= 144
##$RETENTION INDEX=898
##$CONDENSED SPECTRUM=NO
##NPOINTS= 54
##XYDATA=(XY..XY) 1 
    14          3
    15         19
    16          1
    17          1
    18          1
    19          2
    26         25
    27        255
    28        123
    29        342
    30         13
    31         33
    32          3
    33          1
    36          1
    37          4
    38          8
    39        128
    40         26
    41        498
    42         96
    43        999
    44         41
    45         17
    46          1
    50          2
    51          3
    52          1
    53          8
    54          5
    55         94
    56        455
    57        461
    58         21
    59          7
    60          1
    68          1
    69          5
    70         12
    71        829
    72          3
    73         57
    74          3
    75         10
    87          8
    88         28
    89        550
    90         26
    91          3
   101         46
   102          3
   113          2
   114          5
   115          1