##TITLE=Library Entry 39868
##JCAMP-DX=Revision 4.10 
##DATA TYPE=MASS SPECTRUM
##SAMPLE DESCRIPTION=NIST Mass Spectrometry Data Center, 1998.
##NAMES=HP
##CAS NAME=1,3-Butanediamine, N,N,N',N'-tetramethyl-
##MOLFORM=C8H20N2
##CAS REGISTRY NO=97-84-7
##MP= -300
##BP= -300
##MW= 144
##$RETENTION INDEX=0
##$CONDENSED SPECTRUM=NO
##NPOINTS= 60
##XYDATA=(XY..XY) 1 
    15         11
    26          2
    27         14
    28          5
    29         21
    30         30
    31          1
    38          1
    39         16
    40          5
    41         31
    42        231
    43         51
    44        120
    45         20
    46          5
    50          1
    51          2
    52          2
    53          7
    54         12
    55         32
    56        144
    57         86
    58        786
    59         34
    60          1
    63          1
    64          1
    66          1
    67          2
    68         12
    69          3
    70         94
    71        115
    72        999
    73         52
    74          1
    80          2
    81          2
    82          9
    83          1
    84        568
    85         46
    86         41
    87          3
    94          1
    95          1
    96          2
    97          1
    98         97
    99        556
   100         44
   101          6
   113          1
   127         10
   128          1
   129          4
   144         37
   145          4