##TITLE=Library Entry 6218
##JCAMP-DX=Revision 4.10 
##DATA TYPE=MASS SPECTRUM
##SAMPLE DESCRIPTION=NIST Mass Spectrometry Data Center, 1990.
##NAMES=HP
##CAS NAME=Butanal, 2-ethyl-
##MOLFORM=C6H12O
##CAS REGISTRY NO=97-96-1
##MP= -300
##BP= -300
##MW= 100
##$RETENTION INDEX=762
##$CONDENSED SPECTRUM=NO
##NPOINTS= 38
##XYDATA=(XY..XY) 1 
    14          6
    15         22
    16          4
    18          1
    25          3
    26         29
    27        252
    28         36
    29        254
    30          9
    31          9
    32          0
    37          5
    38         25
    39        180
    40         33
    41        323
    42         65
    43        999
    44         44
    50         14
    51         17
    53         29
    54         15
    55        119
    56         19
    57        117
    58         23
    67          9
    69         10
    70         24
    71        216
    72        297
    73         14
    82         38
    83          5
    85          7
   100         29