##TITLE=Library Entry 8638
##JCAMP-DX=Revision 4.10 
##DATA TYPE=MASS SPECTRUM
##SAMPLE DESCRIPTION=NIST Mass Spectrometry Data Center, 1990.
##NAMES=HP
##CAS NAME=1-Butanol, 2-ethyl-
##MOLFORM=C6H14O
##CAS REGISTRY NO=97-95-0
##MP= -300
##BP= -300
##MW= 102
##$RETENTION INDEX=808
##$CONDENSED SPECTRUM=NO
##NPOINTS= 38
##XYDATA=(XY..XY) 1 
    14          4
    15         15
    16          0
    18         10
    19          8
    26         27
    27        244
    28         91
    29        268
    30          0
    31        185
    32         15
    37          4
    38         14
    39        176
    40         32
    41        362
    42        164
    43        999
    44         47
    45         29
    50          9
    51         20
    52          6
    53         41
    54          4
    55        344
    56        162
    57         47
    59         12
    65          4
    67          8
    69        149
    70        382
    71        274
    72         23
    84         98
    85          7