##TITLE=Library Entry 23042
##JCAMP-DX=Revision 4.10 
##DATA TYPE=MASS SPECTRUM
##SAMPLE DESCRIPTION=D.HENNEBERG, MAX-PLANCK INSTITUTE, MULHEIM, WEST GERMAN
Y
##NAMES=HP
##CAS NAME=Aluminum, triethyl-
##MOLFORM=C6H15Al
##CAS REGISTRY NO=97-93-8
##MP= -300
##BP= -300
##MW= 114
##$RETENTION INDEX=0
##$CONDENSED SPECTRUM=NO
##NPOINTS= 77
##XYDATA=(XY..XY) 1 
    26        506
    27        598
    28        964
    29        184
    30        116
    31          0
    36          0
    37          7
    38          6
    39         29
    40         24
    41        104
    42         20
    43         42
    45          0
    46          1
    47          2
    48          0
    49          1
    50          3
    51          2
    52          5
    53         13
    54          4
    55         75
    56         51
    57        999
    58         23
    59          5
    60          0
    61          0
    62          0
    64          4
    65          0
    66          2
    67          2
    68         12
    69         44
    70          4
    71         23
    72          1
    73          1
    75          5
    77          1
    78          1
    79          0
    80          0
    81          1
    82          0
    83          5
    84          2
    85        681
    86         32
    87          1
    88          0
    89          1
    91          1
    92          0
    93          8
    95          4
    96          1
    97          3
    98          2
    99          9
   100          2
   101          3
   103          0
   104          1
   105          0
   106          0
   107          0
   110          0
   111          0
   112          0
   113         44
   114        144
   115          9