##TITLE=Library Entry 3330
##JCAMP-DX=Revision 4.10 
##DATA TYPE=MASS SPECTRUM
##SAMPLE DESCRIPTION=CCC 0014
##NAMES=HP
##CAS NAME=Borane, triethyl-
##MOLFORM=C6H15B
##CAS REGISTRY NO=97-94-9
##MP= -300
##BP= -300
##MW= 98
##$RETENTION INDEX=0
##$CONDENSED SPECTRUM=NO
##NPOINTS= 73
##XYDATA=(XY..XY) 1 
     2          3
    10          3
    11         12
    12          8
    13         28
    14          4
    15         22
    16          1
    23          1
    24          2
    25          9
    26         78
    27        227
    28         21
    29         27
    30          1
    31          1
    32          1
    34          1
    35          2
    36         32
    37        116
    38         65
    39        212
    40        314
    41        999
    42         23
    43          1
    44          1
    45          1
    47          1
    48          3
    49         13
    50         25
    51         27
    52         19
    53         56
    54         14
    55         11
    56          1
    57          2
    58          1
    59          1
    60          3
    61          7
    62          2
    63          5
    64          3
    65          5
    66          4
    67         11
    68        172
    69        682
    70         23
    71          1
    72          1
    73          1
    74          1
    75          1
    76          1
    77          1
    79          1
    80          1
    81          1
    82          1
    83          1
    84          1
    85          1
    96          1
    97          9
    98         37
    99          2
   100          1