##TITLE=Library Entry 47584
##JCAMP-DX=Revision 4.10 
##DATA TYPE=MASS SPECTRUM
##SAMPLE DESCRIPTION=Humboldt-Universitat zu Berlin, Department of Chemistry
, Analytical Group
##NAMES=HP
##CAS NAME=1,1-Diphenyl-2-benzoyl-hydrazin
##MOLFORM=C19H16N2O
##CAS REGISTRY NO=970-31-0
##MP= -300
##BP= -300
##MW= 288
##$RETENTION INDEX=0
##$CONDENSED SPECTRUM=NO
##NPOINTS= 115
##XYDATA=(XY..XY) 1 
    15          0
    17          2
    18          6
    26          3
    27         25
    28         12
    29          6
    32          1
    37          2
    38          9
    39         60
    40          4
    41          6
    42          1
    43          4
    44          1
    49          1
    50         57
    51        323
    52         33
    53         17
    54          1
    55          1
    56          0
    57          2
    61          1
    62          4
    63         21
    64         18
    65         40
    66          7
    67          1
    69          1
    70          2
    71          1
    73          1
    74          9
    75         13
    76         30
    77        999
    78         83
    79          5
    80         41
    81          3
    84          5
    85          0
    86          1
    87          1
    88          2
    89         10
    90          4
    91         17
    92          9
    93          3
    94          0
    97          0
    99          0
   100          0
   101          3
   102          5
   103          6
   105        454
   106         37
   107          4
   113          3
   114          3
   115         23
   116          6
   117          5
   118          1
   121          1
   125          0
   126          3
   127          8
   128         14
   129          7
   130          3
   131          0
   138          1
   139         18
   140         17
   141          6
   142          1
   143          1
   150          1
   151          4
   152         17
   153         12
   154          9
   155          3
   156          5
   157          0
   164          1
   165          2
   166         34
   167         70
   168         30
   169         10
   170          1
   179          0
   181         13
   182         11
   183        705
   184         95
   185          7
   186          0
   193          0
   194          3
   195          0
   241          0
   244          0
   288        178
   289         39
   290          4
   291          0