##TITLE=Library Entry 78401
##JCAMP-DX=Revision 4.10 
##DATA TYPE=MASS SPECTRUM
##SAMPLE DESCRIPTION=Chemical Concepts
##NAMES=HP
##CAS NAME=2-Benzoylaminomalonic acid, monomethyl ester
##MOLFORM=C11H11NO5
##CAS REGISTRY NO=97045-23-3
##MP= -300
##BP= -300
##MW= 237
##$RETENTION INDEX=0
##$CONDENSED SPECTRUM=NO
##NPOINTS= 111
##XYDATA=(XY..XY) 1 
    25          1
    27         11
    28         33
    29         11
    30          4
    31          6
    33          2
    34          0
    37          1
    38          4
    39         11
    40          1
    41          3
    42          4
    43          5
    44        364
    45          7
    46          1
    49          1
    50         49
    51        160
    52         11
    53          2
    54          0
    55          2
    56         10
    57          5
    58          0
    59          9
    60          1
    61          0
    62          1
    63          3
    64          1
    65          2
    66          0
    67          1
    68          0
    69          2
    70          0
    71          1
    73          1
    74         12
    75         12
    76         25
    77        431
    78         30
    79          2
    81          1
    83          0
    84          0
    85          0
    86          0
    87          0
    88          2
    89          1
    90          0
    91          3
    92          1
    93          0
    94          0
    95          0
    97          0
    98          0
    99          2
   100          0
   102          0
   103          2
   104          8
   105        999
   106         80
   107          5
   108          0
   109          0
   110          0
   111          0
   112          0
   113          0
   115          0
   116          0
   117          3
   118          1
   120          0
   121          0
   122          0
   123          0
   132          2
   133          4
   134        213
   135         19
   136          1
   139          0
   141          1
   142          0
   148          0
   161         66
   162         23
   163          2
   164          1
   165          2
   166          2
   167          0
   168          2
   169          2
   170          3
   171          0
   179          1
   189          1
   193        159
   194         18
   195          2