##TITLE=Library Entry 34874
##JCAMP-DX=Revision 4.10 
##DATA TYPE=MASS SPECTRUM
##SAMPLE DESCRIPTION=Chemical Concepts
##NAMES=HP
##CAS NAME=Crotonic acid, 1-buten-4-yl ester
##MOLFORM=C8H12O2
##CAS REGISTRY NO=97056-84-3
##MP= -300
##BP= -300
##MW= 140
##$RETENTION INDEX=0
##$CONDENSED SPECTRUM=NO
##NPOINTS= 75
##XYDATA=(XY..XY) 1 
    24          0
    25          1
    26         18
    27         70
    28         28
    29         49
    30          1
    31          5
    33          0
    34          0
    35          0
    36          1
    37          5
    38         14
    39        209
    40         32
    41        346
    42         23
    43         10
    44          1
    45          1
    46          0
    47          0
    48          0
    49          1
    50          4
    51          6
    52          4
    53         23
    54        552
    55         83
    56          2
    57          0
    58          0
    59          1
    61          0
    62          0
    63          3
    64          0
    65          0
    67          2
    68         12
    69        999
    70         45
    71          4
    72          0
    73          0
    74          0
    75          0
    76          0
    77         35
    78          0
    79         11
    80          0
    81          1
    82          0
    83          0
    85          1
    86          2
    87          4
    89          0
    90          0
    91          0
    92          0
    93          0
    94          2
    95          3
    96          0
    97          1
    98          2
    99        118
   100          7
   101          1
   103          0
   104          0