##TITLE=Library Entry 63798
##JCAMP-DX=Revision 4.10 
##DATA TYPE=MASS SPECTRUM
##SAMPLE DESCRIPTION=LAC, NIDDK, NIH, Bethesda, MD 20892
##NAMES=HP
##CAS NAME=N-p-toluenesulfonyl-O-[(p-nitrophenyl)sulfonyl]-4-hydroxy-l-proli
ne methyl ester
##MOLFORM=C19H20N2O9S2
##CAS REGISTRY NO=97078-51-8
##MP= -300
##BP= -300
##MW= 484
##$RETENTION INDEX=0
##$CONDENSED SPECTRUM=NO
##NPOINTS= 78
##XYDATA=(XY..XY) 1 
    41        149
    42         55
    43         43
    44         34
    45         39
    47         20
    48         22
    49         74
    50         71
    51         78
    52         21
    53         21
    54         17
    55         40
    56         43
    57         16
    59         69
    61          7
    62         23
    63         86
    64         49
    65        290
    66         40
    67         78
    68        160
    69         27
    70          3
    71         21
    74         21
    75         40
    76         47
    77         57
    78         19
    79         46
    80         14
    81         12
    82         23
    83          3
    84         71
    86         35
    89         80
    90         47
    91        999
    92        112
    93         23
    94         31
    95          3
   107         38
   108         22
   109          3
   111          3
   122         38
   123         17
   125         18
   126         32
   130          3
   139         38
   143          3
   155        400
   156         45
   157         29
   158          7
   171          3
   172         21
   186         27
   217          9
   221         17
   222        482
   223         65
   224         28
   240          7
   253         25
   262          3
   281         16
   329         10
   425         83
   426         16
   484         11