##TITLE=Library Entry 53803
##JCAMP-DX=Revision 4.10 
##DATA TYPE=MASS SPECTRUM
##SAMPLE DESCRIPTION=T.Hofmann ET AL.J.Agr.Food Chem.,46,616(1998)
##NAMES=HP
##CAS NAME=2-Acetylpiperidine
##MOLFORM=C7H13NO
##CAS REGISTRY NO=97073-22-8
##MP= -300
##BP= -300
##MW= 127
##$RETENTION INDEX=1571
##$CONDENSED SPECTRUM=NO
##NPOINTS= 25
##XYDATA=(XY..XY) 1 
    39         38
    40          5
    41         77
    42        116
    43        118
    44         19
    53          7
    54         46
    55        159
    56        580
    57         48
    58          8
    67         56
    68         38
    69          7
    78          2
    82         85
    83         36
    84        999
    85         78
    98          7
   110          3
   125          5
   126          5
   127          5