##TITLE=Library Entry 81911
##JCAMP-DX=Revision 4.10 
##DATA TYPE=MASS SPECTRUM
##SAMPLE DESCRIPTION=Japan AIST/NIMC Database- Spectrum MS-IW-3112
##NAMES=HP
##CAS NAME=Alpha-ethoxycarbonyl-alpha-ethylbenzyl benzoate
##MOLFORM=C19H20O4
##CAS REGISTRY NO=97080-45-0
##MP= -300
##BP= -300
##MW= 312
##$RETENTION INDEX=0
##$CONDENSED SPECTRUM=NO
##NPOINTS= 52
##XYDATA=(XY..XY) 1 
    27          5
    28          2
    29         14
    39          2
    41          1
    43          1
    45          1
    50          4
    51         22
    52          2
    57          2
    63          1
    65          2
    73          1
    75          1
    76          7
    77        154
    78         11
    79          1
    89          1
    91          9
   102          1
   103          3
   104          3
   105        999
   106         78
   107          5
   115          9
   116          3
   117         15
   118          5
   119          2
   133          1
   134          1
   135          3
   144          4
   145          1
   146         10
   147          1
   161          1
   162          1
   190          4
   191          1
   207          1
   211          1
   239        176
   240         32
   241          3
   267          6
   268          1
   312         16
   313          3