##TITLE=Library Entry 60063
##JCAMP-DX=Revision 4.10 
##DATA TYPE=MASS SPECTRUM
##SAMPLE DESCRIPTION=A. Brossi, LC, NIDDK, NIH, Bethesda, MD 20892
##NAMES=HP
##CAS NAME=4'-Methylphenyl-1C-sulfonyl-.beta.-d-galactoside
##MOLFORM=C13H18O7S
##CAS REGISTRY NO=97133-58-9
##MP= -300
##BP= -300
##MW= 318
##$RETENTION INDEX=0
##$CONDENSED SPECTRUM=NO
##NPOINTS= 113
##XYDATA=(XY..XY) 1 
    42        270
    43        389
    44         77
    45        302
    46         11
    47         29
    48          8
    49          7
    50         21
    51         43
    52         16
    53         43
    54         11
    55        106
    56         42
    57        250
    58         23
    59         49
    60        190
    61        209
    62         20
    63         66
    64         27
    65        277
    66         17
    67         15
    68          9
    69        149
    70         21
    71        120
    72         14
    73        516
    74         36
    75         23
    76          6
    77         53
    78         20
    79         18
    80          8
    81         39
    82          5
    83         19
    84          8
    85        281
    86         23
    87         63
    88          8
    89         97
    90         39
    91        999
    92        240
    93         52
    94          4
    95          6
    97        149
    98         14
    99         49
   100          3
   101         60
   102          7
   103         67
   104          3
   105          9
   106          3
   107         32
   108         19
   109         27
   110          3
   111         11
   113          7
   114          2
   115         45
   116          4
   117          4
   119          6
   121         16
   122          5
   123          8
   124          4
   125          1
   127         99
   128          7
   129          3
   131          3
   133          5
   134          1
   138          1
   139        163
   140         37
   141         10
   143          1
   144          5
   145        224
   146         15
   147          3
   149          1
   150          1
   152          1
   154          1
   155         33
   156         15
   157         75
   158          5
   159          4
   162          4
   163        194
   164         13
   165          3
   173          1
   205          1
   282          3
   301          7
   318          1