##TITLE=Library Entry 48259
##JCAMP-DX=Revision 4.10 
##DATA TYPE=MASS SPECTRUM
##SAMPLE DESCRIPTION=Japan AIST/NIMC Database- Spectrum MS-IW-2486
##NAMES=HP
##CAS NAME=4-(2-Pyridylcarbonyl)quinoline N,N'-dioxide
##MOLFORM=C15H10N2O3
##CAS REGISTRY NO=97174-50-0
##MP= -300
##BP= -300
##MW= 266
##$RETENTION INDEX=0
##$CONDENSED SPECTRUM=NO
##NPOINTS= 151
##XYDATA=(XY..XY) 1 
    26          2
    27         13
    28         13
    29          1
    30          1
    37          1
    38          6
    39         23
    40          2
    41          1
    44          7
    49          1
    50         19
    51        101
    52         25
    53          9
    54          1
    55          1
    61          3
    62         18
    63         34
    64          9
    65          5
    66          2
    67          1
    68          1
    69          1
    73          1
    74         18
    75         40
    76         29
    77         39
    78        999
    79         78
    80          4
    81          1
    82          2
    83          2
    85          2
    86          7
    87         10
    88         30
    89         57
    90         12
    91          2
    92          2
    95          4
    96          1
    97          1
    98          4
    99          6
   100          8
   101         37
   102         11
   103          4
   104         21
   105          8
   106        434
   107         29
   108          2
   110          2
   111          3
   112          1
   113         18
   114         44
   115          9
   116         37
   117          8
   118          1
   125          4
   126          4
   127         12
   128         31
   129          5
   130          2
   132         12
   133          1
   134          1
   137          1
   138          3
   139          5
   140          5
   141          2
   142          1
   143          2
   144          9
   145          5
   150          4
   151          6
   152          5
   153          3
   154          4
   155          2
   156          4
   160         19
   161          2
   162          1
   163          4
   164          5
   165          4
   166          7
   167          5
   168          2
   171          1
   172         40
   173          8
   174          1
   176          2
   177          5
   178          6
   179          4
   180          3
   181          4
   182          2
   188          4
   189          2
   190          4
   191          5
   192          9
   193          9
   194          5
   195          1
   196          2
   203          5
   204         14
   205         59
   206         16
   207          4
   208          2
   209          4
   210          2
   219          1
   220          5
   221         48
   222         13
   223          2
   232          4
   233         23
   234         18
   235          3
   236          1
   237          3
   238          1
   248          1
   249         27
   250         62
   251          9
   252          1
   266        105
   267         17
   268          2