##TITLE=Library Entry 85754
##JCAMP-DX=Revision 4.10 
##DATA TYPE=MASS SPECTRUM
##SAMPLE DESCRIPTION=NIST Mass Spectrometry Data Center, 2010
##NAMES=HP
##CAS NAME=Cyclohexane, 1,4-bis[[(trimethylsilyl)oxy]methyl]-
##MOLFORM=C14H32O2Si2
##CAS REGISTRY NO=97173-40-5
##MP= -300
##BP= -300
##MW= 288
##$RETENTION INDEX=0
##$CONDENSED SPECTRUM=NO
##NPOINTS= 133
##XYDATA=(XY..XY) 1 
    27          2
    28          1
    29          5
    31          1
    39          4
    41         17
    42          2
    43         25
    44          6
    45         31
    46          2
    47         15
    48          1
    53          7
    54          4
    55         39
    56          2
    57          4
    58         13
    59         46
    60          6
    61         27
    62          2
    63          1
    65          5
    67        335
    68         21
    69          6
    70          2
    71          4
    73        318
    74         33
    75        240
    76         17
    77         20
    78          9
    79         81
    80         25
    81         89
    82          7
    83          2
    85          5
    86          1
    87          4
    88          9
    89         42
    90          4
    91         26
    92          5
    93         58
    94         41
    95         52
    96          4
    97          4
    98          1
    99          7
   100          1
   101          7
   103        199
   104         19
   105         23
   106          4
   107         59
   108        199
   109        999
   110         90
   111          6
   112          1
   113          4
   114          1
   115          6
   116          7
   117          7
   118          1
   119          6
   120          1
   121          1
   123          1
   125          4
   126          1
   127          5
   129         74
   131         12
   132          2
   133         28
   134          3
   135          4
   137          2
   139          3
   140          1
   141          3
   142          2
   143          3
   144          1
   145          1
   147        279
   148         45
   149         79
   150         11
   151          6
   152          1
   153          3
   154          1
   155         13
   156          3
   157          1
   161          1
   163          8
   164          1
   165          3
   167          2
   168          2
   169         10
   170          2
   171          1
   177         59
   178         10
   179          5
   180          1
   181          2
   182          1
   183         13
   184          3
   185         16
   186          2
   187          1
   196          1
   198         97
   199         17
   200          5
   273          8
   274          2
   275          1