##TITLE=Library Entry 23164
##JCAMP-DX=Revision 4.10 
##DATA TYPE=MASS SPECTRUM
##SAMPLE DESCRIPTION=Chemical Concepts
##NAMES=HP
##CAS NAME=Butanoic acid, 2-methyl-, 4-methoxy-2-(3-methyloxiranyl)phenyl es
ter
##MOLFORM=C15H20O4
##CAS REGISTRY NO=97180-28-4
##MP= -300
##BP= -300
##MW= 264
##$RETENTION INDEX=1892
##$CONDENSED SPECTRUM=NO
##NPOINTS= 141
##XYDATA=(XY..XY) 1 
    26         26
    27        114
    28         48
    29        327
    30          7
    31          2
    36          2
    37          4
    38         19
    39        114
    40         10
    41        275
    42         15
    43        196
    44          6
    45          9
    49          1
    50         25
    51         52
    52         23
    53         34
    54         24
    55         54
    56         14
    57        999
    58         39
    59          3
    61          2
    62          9
    63         34
    64         38
    65         74
    66         21
    67          8
    68          2
    69         15
    70          0
    71          0
    72          0
    73          3
    74         26
    75         10
    76         14
    77         92
    78         35
    79         42
    80          5
    81          7
    82          9
    83          4
    84          4
    85         61
    86          3
    87          7
    88          1
    89         10
    90         10
    91         67
    92         54
    93         16
    94         11
    95         14
    96          0
   101          1
   102          5
   103         29
   104          6
   105         33
   106          7
   107         26
   108         24
   109         25
   110          3
   111          1
   112          0
   113          0
   115          4
   116          1
   117          2
   118         11
   119         25
   120         14
   121         17
   122          3
   123         24
   124          3
   125          0
   127          0
   128          0
   130          0
   131         11
   132          6
   133         18
   134          5
   135         60
   136         29
   137        295
   138         72
   139          7
   144          0
   145          1
   146          2
   147         29
   148         11
   149         70
   150         12
   151        114
   152         18
   153          1
   159          0
   160          2
   161         17
   162        134
   163        140
   164        268
   165         34
   166          3
   174          2
   175          3
   176          1
   177          0
   178          3
   179         14
   180        194
   181         22
   182          2
   188          0
   189          9
   190          0
   191          1
   204          0
   207          0
   217          3
   222          1
   246          2
   247          0
   248          7
   249          0
   262          0
   264         29
   265          4