##TITLE=Library Entry 46251
##JCAMP-DX=Revision 4.10 
##DATA TYPE=MASS SPECTRUM
##SAMPLE DESCRIPTION=A.A.Kutin, Moscow, Russia
##NAMES=HP
##CAS NAME=1,2,4-Oxadiazol-5(4H)-one, 4-(3-nitrophenyl)-3-phenyl-
##MOLFORM=C14H9N3O4
##CAS REGISTRY NO=97193-57-2
##MP= -300
##BP= -300
##MW= 283
##$RETENTION INDEX=0
##$CONDENSED SPECTRUM=NO
##NPOINTS= 108
##XYDATA=(XY..XY) 1 
    37         74
    38        172
    39        427
    40         37
    41         24
    43          9
    45        339
    46        296
    47          1
    48         11
    50        807
    51        703
    52        171
    53         33
    54          5
    55          6
    56          0
    57          2
    60          0
    61         61
    62        242
    63        720
    64        388
    65         95
    66         15
    67          4
    68          2
    69          6
    71          1
    73         28
    74        293
    75        423
    76        999
    77        794
    78         60
    79          6
    80          5
    82          0
    83          4
    85          4
    87         21
    88        107
    90        720
    91        130
    92         19
    93          3
    95          2
    99         12
   100         10
   101         12
   103        457
   104         33
   106         19
   112          0
   113          5
   114          6
   116        106
   118         34
   119         70
   120          7
   122          1
   123          1
   125          1
   126          2
   127          7
   128          5
   129          2
   134          0
   136          0
   138         15
   139         23
   140         17
   141          2
   142          1
   149          7
   150          1
   151          3
   152          8
   154         11
   155          1
   163          2
   164         26
   165         16
   166         52
   167         17
   177          2
   178          2
   179         28
   181         63
   182          6
   191         20
   192        104
   193        346
   194         44
   195          3
   208          0
   209          5
   210          0
   225          4
   236          0
   238          0
   239        245
   240         41
   241          3
   253          5
   283        394
   284         64
   285          7