##TITLE=Library Entry 61248
##JCAMP-DX=Revision 4.10 
##DATA TYPE=MASS SPECTRUM
##SAMPLE DESCRIPTION=LAC, NIDDK, NIH, Bethesda, MD 20892
##NAMES=HP
##CAS NAME=p-Toluenesulfonyl-tyrosyl-S-carboxymethylcystine, diethyl ester
##MOLFORM=C25H32N2O8S2
##CAS REGISTRY NO=97191-78-1
##MP= -300
##BP= -300
##MW= 552
##$RETENTION INDEX=0
##$CONDENSED SPECTRUM=NO
##NPOINTS= 129
##XYDATA=(XY..XY) 1 
    42        247
    43        165
    44         79
    45        143
    46         92
    47        178
    48         57
    49         23
    50         29
    51         51
    52         22
    53         30
    55         70
    56         25
    57         44
    59         68
    60         43
    61         62
    62         22
    63         66
    64         52
    65        212
    66         17
    67         20
    68         13
    69         42
    70         42
    71         35
    72          5
    73         71
    74        113
    75         32
    76         14
    77        218
    78         46
    79         50
    80         12
    81         11
    82         19
    83         19
    84          9
    85         49
    86         34
    87         31
    88         88
    89         70
    90         70
    91        999
    92        170
    93         13
    95          5
    97         71
    98          5
    99          9
   100         22
   101         18
   102         47
   103         19
   105         95
   106         25
   107        824
   108        120
   109         16
   111         18
   114         31
   115         11
   116         38
   117         28
   118          6
   119         24
   120         52
   125         29
   126         21
   128         22
   131         26
   132         19
   133         39
   134        144
   135        100
   136         61
   139         61
   143         36
   144         23
   145          6
   146          5
   147        247
   148         31
   149          5
   153         17
   154         13
   155        317
   156         58
   157         26
   160         41
   161          9
   162        265
   163        272
   164         56
   165         12
   171         47
   172         34
   173         29
   188         37
   189         41
   190         20
   200         30
   215          5
   216         16
   217         33
   219         49
   227         11
   228         19
   233         14
   234          5
   245          5
   251          5
   261         16
   262         27
   290        199
   291        212
   292         38
   293         10
   294        102
   295         13
   371         11
   372          6
   381        117
   382         22
   445         10