##TITLE=Library Entry 71420
##JCAMP-DX=Revision 4.10 
##DATA TYPE=MASS SPECTRUM
##SAMPLE DESCRIPTION=Patti Price, Georgia Bureau of Investigation, Decatur,
 Georgia
##NAMES=HP
##CAS NAME=Diphenidol
##MOLFORM=C21H27NO
##CAS REGISTRY NO=972-02-1
##MP= -300
##BP= -300
##MW= 309
##$RETENTION INDEX=2384
##$CONDENSED SPECTRUM=NO
##NPOINTS= 101
##XYDATA=(XY..XY) 1 
    41         75
    42         71
    43         21
    44         30
    49          2
    50          3
    51         23
    52          3
    53          3
    54          7
    55         53
    56         21
    57          7
    58          1
    63          1
    65          3
    67          4
    68          8
    69         20
    70         32
    71          2
    72          1
    75          1
    76          3
    77         99
    78         12
    79          3
    80          2
    81          1
    82          7
    83          7
    84         44
    85         10
    86          4
    89          1
    91         22
    92          1
    94          1
    95          1
    96         32
    97          8
    98        999
    99         74
   100          2
   102          1
   103          4
   104          1
   105        115
   106          8
   107          1
   110          5
   111         30
   112          2
   113          2
   114          3
   115          9
   116          2
   117          1
   122          1
   124          4
   125          1
   126          3
   127         63
   128         11
   129         16
   130          1
   131          1
   133          1
   139          1
   147         25
   148          2
   151          1
   152          6
   153          3
   154          1
   155          1
   163          1
   164          1
   165          8
   166          1
   167          1
   177          1
   178          6
   179          3
   180          1
   181          3
   182          1
   183          6
   184          1
   192          1
   193          3
   194          4
   231          3
   232         23
   233          3
   290          1
   292          1
   307          2
   308          2
   309          8
   310          1