##TITLE=Library Entry 60011
##JCAMP-DX=Revision 4.10 
##DATA TYPE=MASS SPECTRUM
##SAMPLE DESCRIPTION=Chemical Concepts
##NAMES=HP
##CAS NAME=1-[1-(Hydroxy-phenyl-methyl)-cyclopentyl]-2-phenyl-ethanone
##MOLFORM=C20H22O2
##CAS REGISTRY NO=97234-37-2
##MP= -300
##BP= -300
##MW= 294
##$RETENTION INDEX=0
##$CONDENSED SPECTRUM=NO
##NPOINTS= 179
##XYDATA=(XY..XY) 1 
    25          2
    26         19
    27        129
    28         15
    29         60
    30          1
    31         12
    36          3
    37         26
    38         46
    39        332
    40        104
    41        549
    42         38
    43         53
    44          3
    45          5
    46          2
    48          3
    49         24
    50        179
    51        349
    52         93
    53         83
    54         15
    55        119
    56         11
    57         35
    58          3
    59          1
    60          4
    61         14
    62         31
    63        101
    64         33
    65        332
    66         62
    67        227
    68        150
    69        956
    70         64
    71         16
    72          1
    73         17
    74         59
    75         38
    76         38
    77        580
    78        146
    79        445
    80         35
    81         25
    82          7
    83         15
    84          4
    85         11
    86          5
    87          6
    88          4
    89         77
    90         60
    91        999
    92        293
    93         26
    94          7
    95         79
    96         98
    97        740
    98         55
    99          5
   100          0
   101          3
   102         12
   103         25
   104         14
   105        330
   106        251
   107        355
   108         29
   109          8
   110         30
   111          8
   112          1
   113          3
   114          5
   115         78
   116         24
   117         48
   118         16
   119         16
   120          9
   121          3
   122          1
   123          3
   124          1
   125         20
   126          4
   127         24
   128         41
   129         69
   130         15
   131         28
   132          4
   133          6
   134          0
   135          5
   136          0
   137          2
   138          0
   139          4
   140          1
   141         28
   142         24
   143          9
   144          5
   145         33
   146          6
   147          5
   148          0
   149         10
   150          1
   151          1
   152          4
   153          4
   154          2
   155          8
   156          2
   157        181
   158         37
   159         13
   160          6
   161          1
   162          0
   163          0
   164          0
   165          3
   166          1
   167          4
   168          0
   169          5
   170          3
   171          2
   172          0
   173          3
   174          1
   175         98
   176         13
   177          1
   178          0
   179          1
   180          2
   181          1
   182          0
   183          0
   184          0
   185         18
   186          3
   187          5
   188        342
   189         58
   190          5
   191          1
   192          0
   193          0
   194          0
   195          0
   196          1
   197          0
   203        140
   204         21
   205          2
   206          0
   207          0
   208          0
   275          0
   276          6
   277          3
   278          0
   279          0