##TITLE=Library Entry 52510
##JCAMP-DX=Revision 4.10 
##DATA TYPE=MASS SPECTRUM
##SAMPLE DESCRIPTION=Chemical Concepts
##NAMES=HP
##CAS NAME=1-[1-(1-Hydroxybutyl)cyclohexyl]-2-phenylethanone
##MOLFORM=C18H26O2
##CAS REGISTRY NO=97234-34-9
##MP= -300
##BP= -300
##MW= 274
##$RETENTION INDEX=0
##$CONDENSED SPECTRUM=NO
##NPOINTS= 116
##XYDATA=(XY..XY) 1 
    25          9
    27        112
    28         14
    29        116
    30          3
    31         37
    37          3
    38          8
    39        110
    40         18
    41        312
    42         26
    43        186
    44         90
    45         21
    50          7
    51         26
    52         10
    53         54
    54         46
    55        656
    56         33
    57         51
    58          2
    59          5
    62          4
    63         21
    64          9
    65        108
    66         16
    67        275
    68         23
    69         69
    70          8
    71         33
    72         69
    73        264
    74         12
    75          3
    76          3
    77         37
    78         10
    79         39
    80         10
    81        319
    82         40
    83        999
    84         65
    85         12
    87         12
    89         24
    90         26
    91        518
    92        161
    93         47
    94          6
    95        187
    96         26
    97         22
    98          2
    99         85
   100          6
   101          2
   102          2
   103          6
   104          3
   105         21
   106          2
   107          4
   108          2
   109         39
   110         48
   111        475
   112         40
   113          5
   115         13
   116          4
   117          9
   118         11
   119         13
   120          3
   121          3
   123          3
   124         11
   125          4
   127          5
   128          9
   129          9
   130          4
   131          4
   137        120
   138         19
   139          2
   141         10
   142          4
   143          3
   145          7
   154          3
   155        622
   156         67
   157          6
   159          2
   165         12
   169          2
   173          2
   183        274
   185          3
   201          3
   202        137
   203         24
   204          2
   213         16
   214          2
   231          2
   256          1
   274          1