##TITLE=Library Entry 20831
##JCAMP-DX=Revision 4.10 
##DATA TYPE=MASS SPECTRUM
##SAMPLE DESCRIPTION=Chemical Concepts
##NAMES=HP
##CAS NAME=1-Ethanone, 2-phenyl-1-[1-(1-hydroxybutyl)cyclobutyl]
##MOLFORM=C16H22O2
##CAS REGISTRY NO=97234-40-7
##MP= -300
##BP= -300
##MW= 246
##$RETENTION INDEX=0
##$CONDENSED SPECTRUM=NO
##NPOINTS= 62
##XYDATA=(XY..XY) 1 
    26         17
    27        174
    28         41
    29        149
    30          3
    31          3
    33          1
    38          5
    39         12
    40        123
    41         10
    42        120
    43         16
    44        119
    45        143
    46          5
    50         12
    51         27
    52          7
    53         26
    54         11
    55        999
    56         41
    57         36
    61          1
    62          6
    63         27
    64          9
    65        107
    66          6
    69          2
    71          9
    72         94
    73          4
    74          2
    75         11
    76          2
    77          6
    78          2
    79          1
    82          6
    83        555
    84         29
    85          7
    87          1
    89         22
    90         14
    91        313
    92         33
    97          3
   103          3
   104          8
   105          6
   115          6
   117          6
   118          7
   119         31
   120          3
   146          2
   151          2
   174         41
   175          5