##TITLE=Library Entry 35419
##JCAMP-DX=Revision 4.10 
##DATA TYPE=MASS SPECTRUM
##SAMPLE DESCRIPTION=NIST Mass Spectrometry Data Center
##NAMES=HP
##CAS NAME=1,6,10,14,18,22-Tetracosahexaen-3-ol, 2,6,10,15,19,23-hexamethyl-
, (all-E)-(.+/-.)-
##MOLFORM=C30H50O
##CAS REGISTRY NO=97232-74-1
##MP= -300
##BP= -300
##MW= 426
##$RETENTION INDEX=3031
##$CONDENSED SPECTRUM=NO
##NPOINTS= 137
##XYDATA=(XY..XY) 1 
    27         11
    29         20
    39         25
    40         12
    41        277
    42         16
    43        171
    45          4
    51          3
    52          4
    53         61
    54          7
    55        183
    56         11
    57         39
    59          7
    65         18
    66          9
    67        200
    68        176
    69        999
    70         58
    71         93
    72          9
    77         53
    78          8
    79        145
    80         40
    81        562
    82         79
    83         54
    84         16
    85          9
    91         73
    92         27
    93        339
    94         77
    95        204
    96         23
    97         54
    98          7
   103          5
   104          2
   105         70
   106         19
   107        297
   108         52
   109        184
   110         26
   111         31
   112          4
   117         10
   118          3
   119         78
   120         29
   121        157
   122         48
   123        113
   124         22
   125         52
   126          6
   127          9
   131          9
   132          8
   133         50
   134         45
   135        154
   136        112
   137        106
   138         12
   139          5
   145         15
   146          6
   147         63
   148         22
   149         65
   150         13
   151         10
   152          3
   153         12
   157          3
   159         13
   160          6
   161         31
   162         11
   163         20
   164          4
   165          4
   173         11
   174          4
   175         23
   176          7
   177         15
   178          3
   187         10
   188          3
   189         22
   190          8
   191         17
   192         12
   193          3
   199          2
   201         14
   202          4
   203         26
   204          8
   205         10
   215          9
   216          6
   217          8
   218          5
   219          4
   227          2
   229          9
   230          2
   231          9
   247          3
   257          5
   259          3
   269          2
   271         10
   272          3
   273          5
   297          3
   299          6
   300          2
   339          4
   340          2
   341          3
   357          7
   358          2
   365          2
   383          3
   408          4
   409          1
   426          3
   427          1