##TITLE=Library Entry 79359
##JCAMP-DX=Revision 4.10 
##DATA TYPE=MASS SPECTRUM
##SAMPLE DESCRIPTION=Chemical Concepts
##NAMES=HP
##CAS NAME=[1-(Hydroxy-phenyl-methyl)-cyclopropyl]-phenyl-methanone
##MOLFORM=C17H16O2
##CAS REGISTRY NO=97234-43-0
##MP= -300
##BP= -300
##MW= 252
##$RETENTION INDEX=0
##$CONDENSED SPECTRUM=NO
##NPOINTS= 153
##XYDATA=(XY..XY) 1 
    26          2
    27         25
    28         10
    29         21
    31         12
    38          4
    39         45
    40         13
    41         56
    42         12
    43         23
    45          7
    50         26
    51        143
    52         20
    53         13
    54          1
    55         10
    56          4
    57         28
    58          2
    59          6
    62          3
    63         15
    64          3
    65         14
    67          2
    68          4
    69         56
    70          4
    71          5
    72          4
    73          2
    74          7
    75         11
    76         18
    77        703
    78         69
    79        154
    80          8
    81          2
    83          6
    85          2
    86          3
    87          2
    88          2
    89         12
    90          6
    91         56
    92          6
    93          2
    95          2
    97          7
    98          1
    99          1
   100          1
   101          3
   102         11
   103         17
   104          8
   105        999
   106         90
   107         99
   108          6
   109          2
   111          2
   112          1
   113          2
   114          2
   115         43
   116         18
   117         35
   118         10
   119         10
   120          6
   121          1
   126          2
   127         18
   128         47
   129        140
   130         19
   131        102
   132         12
   133          4
   141          4
   142          2
   143          2
   144          3
   145        232
   146        105
   147         66
   148          6
   151          3
   155          4
   157         40
   158          6
   159          5
   161          3
   165          5
   166          1
   167          2
   171          1
   173          7
   174          2
   175         59
   176          8
   177          2
   178          9
   179          3
   181          2
   182          1
   185          1
   190          1
   191          5
   195          1
   196          1
   199          1
   200          1
   201          1
   202          2
   203          2
   204          3
   205         18
   206          7
   207          3
   208          1
   209          1
   210          1
   211          1
   212          1
   213          1
   214          1
   215          9
   216          6
   217          5
   218          4
   219          4
   221          2
   223         30
   224          7
   225          1
   230          1
   231          3
   233        101
   234         75
   235         17
   236          3
   237         22
   238          3
   251        225
   252        198
   253         29
   254          3