##TITLE=Library Entry 38566
##JCAMP-DX=Revision 4.10 
##DATA TYPE=MASS SPECTRUM
##SAMPLE DESCRIPTION=Chemical Concepts
##NAMES=HP
##CAS NAME=3-(Hydroxyphenylmethyl)-3,4-dimethyl-1-phenylpentan-2-one
##MOLFORM=C20H24O2
##CAS REGISTRY NO=97234-51-0
##MP= -300
##BP= -300
##MW= 296
##$RETENTION INDEX=0
##$CONDENSED SPECTRUM=NO
##NPOINTS= 94
##XYDATA=(XY..XY) 1 
    25          1
    26          8
    27         55
    28         10
    29         58
    30          1
    36          1
    37         11
    38         17
    39         69
    40          6
    41         85
    42         10
    43        648
    44         24
    45          1
    47          0
    48          1
    49          9
    50         74
    51        159
    52         43
    53         13
    54          2
    55         57
    56         20
    57          8
    60          1
    61          5
    62          9
    63         26
    64          7
    65         81
    66          5
    67          2
    69          7
    70         14
    71        999
    72         60
    73          6
    74         27
    75         16
    76         18
    77        384
    78         67
    79          6
    80          0
    81          0
    83         11
    84          4
    85          1
    86          3
    87          1
    88          1
    89         19
    90         16
    91        239
    92         55
    93          4
    97          3
    98         25
    99        471
   100         32
   101          2
   102          0
   103          2
   104          3
   105        391
   106        416
   107         34
   108          2
   115          4
   116          1
   117          2
   118          3
   119         18
   120          2
   127          1
   128          2
   129          2
   130          2
   131          1
   133          2
   135          1
   141          2
   142          0
   147          1
   148         13
   149          2
   150          1
   151          1
   175          1
   190         39
   191          6