##TITLE=Library Entry 44698
##JCAMP-DX=Revision 4.10 
##DATA TYPE=MASS SPECTRUM
##SAMPLE DESCRIPTION=A. VAN LANGENHOVE, HARVARD SCH. PUBLIC HEALTH, BOSTON,
 USA
##NAMES=HP
##CAS NAME=1,5-Anhydro-3,6-di-O-acetyl-2,4-di-O-methyl-D-glucitol
##MOLFORM=C12H20O7
##CAS REGISTRY NO=97275-53-1
##MP= -300
##BP= -300
##MW= 276
##$RETENTION INDEX=1739
##$CONDENSED SPECTRUM=NO
##NPOINTS= 72
##XYDATA=(XY..XY) 1 
    71        431
    72         31
    73         81
    74        999
    75        940
    76         47
    78         16
    79         12
    81         55
    82         31
    83        188
    84        230
    85        217
    86        138
    87        512
    88         68
    89         25
    91         15
    93         23
    94         16
    95         88
    96         32
    97        293
    98         51
    99        157
   100        143
   101        882
   102         49
   103         23
   104         31
   105         11
   109         14
   110         38
   111        223
   112        114
   113         91
   114        190
   115        116
   116        172
   117        381
   118         22
   119         16
   124         39
   125        406
   126        148
   127        184
   128         43
   129        123
   130        202
   131         29
   138         12
   139         49
   141        107
   142         55
   143        165
   144         16
   152         18
   153         41
   154         98
   155         25
   156        432
   157         54
   158         14
   159         40
   170         57
   171         18
   184         26
   185         40
   186         73
   212         14
   217         14
   245         15