##TITLE=Library Entry 100130
##JCAMP-DX=Revision 4.10 
##DATA TYPE=MASS SPECTRUM
##SAMPLE DESCRIPTION=Chemical Concepts
##NAMES=HP
##CAS NAME=Cyclohexanone, 5-methyl-2-(1-methyl-1-phenylethyl)-
##MOLFORM=C16H22O
##CAS REGISTRY NO=97275-48-4
##MP= -300
##BP= -300
##MW= 230
##$RETENTION INDEX=0
##$CONDENSED SPECTRUM=NO
##NPOINTS= 105
##XYDATA=(XY..XY) 1 
    26          1
    27         25
    29         16
    38          0
    39         33
    41        104
    42          6
    43         10
    44          0
    45          0
    50          3
    51         15
    52          4
    53         12
    54          1
    55         18
    56          2
    57          0
    58          3
    59          0
    62          1
    63          5
    64          1
    65         15
    66          1
    67          6
    68          2
    69         10
    70         27
    71          2
    72          0
    73          0
    74          1
    75          1
    76          2
    77         32
    78         12
    79         41
    80          2
    81          4
    82          0
    83          5
    84         22
    85          1
    87          0
    89          3
    90          0
    91        278
    92         22
    93          2
    94          2
    95          2
    96          0
    97         20
    98          1
   101          1
   102          4
   103         19
   104          6
   105         25
   106          2
   107          0
   108          0
   109          1
   110          1
   111         45
   112        282
   113         20
   114          1
   115         30
   116         11
   117         31
   118         25
   119        999
   120         73
   121          4
   126          0
   127          2
   128         11
   129         14
   130          4
   131         21
   132          3
   133          0
   137          0
   141          2
   142          1
   143          5
   144          2
   145          6
   146          1
   153          0
   154          0
   155          2
   156          1
   157          1
   159          1
   169          1
   171          2
   197          2
   212          0
   215          1
   230         72
   231         13
   232          1