##TITLE=Library Entry 45413
##JCAMP-DX=Revision 4.10 
##DATA TYPE=MASS SPECTRUM
##SAMPLE DESCRIPTION=A. VAN LANGENHOVE, HARVARD SCH. PUBLIC HEALTH, BOSTON,
 USA
##NAMES=HP
##CAS NAME=1,5-Anhydro-3-O-acetyl-2,4,6-tri-O-methyl-D-glucitol
##MOLFORM=C11H20O6
##CAS REGISTRY NO=97275-51-9
##MP= -300
##BP= -300
##MW= 248
##$RETENTION INDEX=1566
##$CONDENSED SPECTRUM=NO
##NPOINTS= 60
##XYDATA=(XY..XY) 1 
    71        504
    72         83
    73         76
    74        678
    75        999
    76         38
    77         22
    79         18
    81         38
    82         26
    83        182
    84         47
    85        168
    86         28
    87        150
    88         40
    89         71
    95         29
    96         11
    97        109
    98         43
    99         89
   100         54
   101        613
   102         80
   103         37
   107         12
   109         16
   111        129
   112         66
   113         38
   114        212
   115        236
   116         98
   117         71
   124         10
   125        180
   126         39
   127        178
   128         39
   129        167
   130         18
   131         15
   139         80
   140         13
   141         85
   142         36
   143        435
   144         46
   145         16
   156         80
   157         71
   158        159
   159         29
   161         14
   171         76
   172         10
   184         10
   188         43
   203         21