##TITLE=Library Entry 37813
##JCAMP-DX=Revision 4.10 
##DATA TYPE=MASS SPECTRUM
##SAMPLE DESCRIPTION=Association of Official Racing Chemists
##NAMES=HP
##CAS NAME=Captopril di-methyl derivative
##MOLFORM=C11H19NO3S
##CAS REGISTRY NO=97293-62-4
##MP= -300
##BP= -300
##MW= 245
##$RETENTION INDEX=1836
##$CONDENSED SPECTRUM=NO
##NPOINTS= 88
##XYDATA=(XY..XY) 1 
    46         30
    47         44
    48         17
    49         41
    52         11
    53         10
    54         22
    55         71
    56         33
    57         14
    58          8
    59         59
    61        265
    62         10
    63         13
    66          6
    67         16
    68         75
    69        167
    70        999
    71         71
    72         11
    73         57
    74         14
    75         10
    82         22
    83          7
    84         16
    85          8
    87         17
    88        185
    89        346
    90         33
    91         20
    93          8
    96         27
    97         24
    98         12
   101         87
   102         11
   103          8
   110          8
   111         23
   112         12
   113         15
   114         22
   115          8
   116         12
   117         71
   119          8
   124         21
   125         10
   126         11
   128        586
   129         48
   130        228
   131         16
   137          8
   138         83
   139         12
   140         11
   142          8
   144         11
   152         46
   156         12
   166         16
   167         40
   168         10
   170         81
   171         16
   172          8
   184         12
   186        125
   187         12
   188          8
   198        142
   199         29
   200          5
   203        159
   204         17
   205         11
   213         30
   214         14
   230         68
   231          8
   245        296
   246         38
   247         14