##TITLE=Library Entry 13660
##JCAMP-DX=Revision 4.10 
##DATA TYPE=MASS SPECTRUM
##SAMPLE DESCRIPTION=MASS SPECTROMETRY CENTER, UNIV. OF UTAH. EPA-PTSEL 2540
##NAMES=HP
##CAS NAME=Dinobuton
##MOLFORM=C14H18N2O7
##CAS REGISTRY NO=973-21-7
##MP= -300
##BP= -300
##MW= 326
##$RETENTION INDEX=2076
##$CONDENSED SPECTRUM=NO
##NPOINTS= 100
##XYDATA=(XY..XY) 1 
    15          4
    26          0
    27         87
    28         21
    29         38
    30         22
    39         38
    40          7
    41        147
    42         25
    43        999
    44         51
    45          6
    50          4
    51         20
    52          9
    53         26
    54          0
    55         25
    57          5
    59          2
    61          0
    62          3
    63         22
    64          7
    65         19
    66          3
    67          1
    68          0
    69          1
    74          0
    75         12
    76          6
    77         28
    78         12
    79         11
    80          3
    83          8
    89         23
    90         11
    91         22
    92          3
   101          3
   102          4
   103         13
   104          6
   105         10
   106          1
   115          8
   116          8
   117         34
   118         17
   119         10
   120          0
   128          0
   129          0
   130          7
   131          7
   132          1
   133          5
   135          0
   145          5
   146         13
   147         59
   148         11
   149          0
   150          0
   158          1
   159          3
   160          9
   161          2
   163         86
   164          9
   165          0
   175         15
   176         18
   177         27
   178          0
   181          1
   191          1
   193         19
   194         13
   195          2
   197          1
   205         55
   206          7
   207          1
   208          0
   210         24
   211        452
   212         50
   213          6
   222         13
   223         39
   224          6
   225         19
   240         60
   241         13
   267         21
   268          0