##TITLE=Library Entry 71895
##JCAMP-DX=Revision 4.10 
##DATA TYPE=MASS SPECTRUM
##SAMPLE DESCRIPTION=Chemical Concepts
##NAMES=HP
##CAS NAME=1,5-Heptadien-4-ol, 4,6-dimethyl-1-(methylthio)-, (E)-
##MOLFORM=C10H18OS
##CAS REGISTRY NO=97369-75-0
##MP= -300
##BP= -300
##MW= 186
##$RETENTION INDEX=0
##$CONDENSED SPECTRUM=NO
##NPOINTS= 134
##XYDATA=(XY..XY) 1 
    26          2
    27         46
    29         51
    30          2
    31          5
    33          1
    34          2
    35          3
    37          2
    38          4
    39         93
    40         13
    41        139
    42          8
    43        379
    44         11
    45         78
    46          9
    47         29
    48          4
    49          4
    50          6
    51         20
    52         10
    53        105
    54         10
    55         90
    56          7
    57         12
    58          9
    59         22
    60          3
    61         30
    62          7
    63         11
    64          4
    65         38
    66         17
    67         28
    68          4
    69         21
    70          6
    71         28
    72         30
    73         36
    74          9
    75          8
    76          3
    77         76
    78         21
    79        153
    80         21
    81        248
    82         21
    83         52
    84          7
    85         16
    86          3
    87         89
    88        224
    89         46
    90         16
    91         84
    92         17
    93         62
    94         14
    95         23
    96          8
    97         25
    98          6
    99        999
   100         75
   101          6
   102          3
   103         16
   104          7
   105        146
   106         64
   107        116
   108         12
   109          6
   110          4
   111         20
   112          5
   113          8
   114          2
   115          5
   116          2
   117          6
   118          2
   119         41
   120         36
   121        173
   122         21
   123         10
   124          3
   125          8
   126          3
   127          3
   128          2
   129          2
   130          2
   131          3
   133          2
   134          2
   135          3
   136          2
   137         11
   138         11
   139          6
   140          2
   141          3
   145          1
   147          2
   149         11
   150          3
   151          2
   152          1
   153         40
   154          5
   155          4
   165          3
   167          2
   168         86
   169         12
   170          6
   171          2
   180          2
   181          2
   186          5
   187          2
   193          1
   194          1
   195          2