##TITLE=Library Entry 74221
##JCAMP-DX=Revision 4.10 
##DATA TYPE=MASS SPECTRUM
##SAMPLE DESCRIPTION=Chemical Concepts
##NAMES=HP
##CAS NAME=Benzonitrile, 4-[1-hydroxy-2-methyl-3-(methylthio)-3-butenyl]-
##MOLFORM=C13H15NOS
##CAS REGISTRY NO=97369-93-2
##MP= -300
##BP= -300
##MW= 233
##$RETENTION INDEX=0
##$CONDENSED SPECTRUM=NO
##NPOINTS= 103
##XYDATA=(XY..XY) 1 
    26          2
    27         41
    28          4
    29         30
    31          3
    35          6
    37          2
    38          4
    39         46
    40          4
    41         44
    42          3
    43         17
    44          2
    45         78
    46          9
    47         30
    48          3
    49         11
    50         16
    51         41
    52         11
    53         98
    54         27
    55         79
    56         16
    57         23
    58          6
    59        204
    60          7
    61        103
    62          6
    63         12
    64          4
    65         11
    67        143
    68          9
    69          4
    70          2
    71         35
    72          6
    73         20
    74          6
    75         21
    76         23
    77         92
    78         11
    79          3
    83          2
    84         23
    85         41
    86         24
    87         70
    88          9
    89         11
    90          3
    91          5
    97          2
    99         12
   100          4
   101        999
   102        194
   103         70
   104        106
   105         11
   113          2
   114          2
   115          5
   116         16
   117          3
   125          2
   126          2
   127          6
   128          5
   129          5
   130         50
   131         10
   132         67
   133          9
   135          2
   139          2
   140          9
   141          5
   142          2
   152          2
   153          7
   154          6
   156          4
   166          8
   167          5
   168          4
   169          2
   170          2
   184          2
   185          3
   186          2
   200         10
   201          2
   215          5
   216          2
   233         54
   234          9
   235          3