##TITLE=Library Entry 11584
##JCAMP-DX=Revision 4.10 
##DATA TYPE=MASS SPECTRUM
##SAMPLE DESCRIPTION=Chemical Concepts
##NAMES=HP
##CAS NAME=5-(Methylthio)-2-phenylpent-4-en-2-ol
##MOLFORM=C12H16OS
##CAS REGISTRY NO=97369-72-7
##MP= -300
##BP= -300
##MW= 208
##$RETENTION INDEX=0
##$CONDENSED SPECTRUM=NO
##NPOINTS= 120
##XYDATA=(XY..XY) 1 
    26          2
    27         15
    29          8
    31          3
    35          4
    38          4
    39         51
    40          5
    41         36
    42          4
    43        999
    44         31
    45         78
    46         10
    47         27
    48          6
    49          3
    50         13
    51         52
    52         13
    53         25
    54          6
    55         13
    56          2
    57          6
    58          7
    59         14
    60          4
    61         16
    62          4
    63         11
    64          3
    65         20
    66          3
    67          4
    68          3
    69          5
    70          3
    71         26
    72         37
    73         90
    74         11
    75         12
    76         10
    77        143
    78         45
    79         17
    81          4
    82          2
    83          7
    84          2
    85          8
    86          3
    87         73
    88        641
    89         56
    90         41
    91         70
    92          8
    93          3
    95          3
    97          4
    98          2
    99          4
   101          5
   102          9
   103         25
   104          6
   105         94
   106         14
   107          7
   113          3
   114          4
   115         44
   116         13
   117         21
   118          9
   119          7
   120         10
   121        959
   122        114
   123          9
   126          3
   127         12
   128         37
   129         18
   130         12
   131         29
   132          4
   133          5
   134          4
   135          2
   139          3
   141         16
   142         15
   143         54
   144         12
   145         13
   146          3
   147          4
   148          4
   149          7
   159         17
   160          7
   161         47
   162          8
   163          4
   165          3
   168          2
   173          3
   175          4
   177         10
   178          4
   190         10
   191          6
   192          3
   193          2
   206          6
   207          3
   208          3