##TITLE=Library Entry 61850
##JCAMP-DX=Revision 4.10 
##DATA TYPE=MASS SPECTRUM
##SAMPLE DESCRIPTION=Chemical Concepts
##NAMES=HP
##CAS NAME=1,5-Hexadien-3-ol, 1-methoxy-3-methyl-6-(methylthio)-, (E,E)-
##MOLFORM=C9H16O2S
##CAS REGISTRY NO=97369-76-1
##MP= -300
##BP= -300
##MW= 188
##$RETENTION INDEX=0
##$CONDENSED SPECTRUM=NO
##NPOINTS= 137
##XYDATA=(XY..XY) 1 
    25         12
    27        145
    29        152
    30         20
    31        256
    33         14
    34          4
    35         12
    37          9
    38         34
    39        333
    40         46
    41        222
    42         22
    43        633
    44         22
    45        327
    46         38
    47         99
    48         22
    49         18
    50         46
    51        123
    52         51
    53        233
    54         45
    55        162
    56         16
    57         25
    58         41
    59         93
    60          9
    61        118
    62         25
    63         75
    64         18
    65        151
    66         44
    67        102
    68         29
    69         44
    70         25
    71         78
    72         48
    73         45
    74         71
    75        326
    76         22
    77        396
    78         95
    79        719
    80        168
    81        145
    82        191
    83        254
    84         30
    85        113
    86         12
    87        207
    88         90
    89         68
    90         21
    91        999
    92        138
    93         91
    94         27
    95        247
    96         31
    97        149
    98         40
    99         35
   100          6
   101        378
   102         24
   103         13
   104         11
   105         29
   106          8
   108        261
   109        166
   110        156
   111        131
   112         43
   113         72
   114         10
   115         28
   116          5
   117         10
   118          3
   119          4
   120          3
   121         66
   122        139
   123        824
   124        106
   125         67
   126         17
   127        129
   128         32
   129         15
   130         57
   131         55
   132          8
   133        122
   134         10
   135          6
   136          3
   137         31
   138        134
   139         65
   140         55
   141         51
   142          8
   143          6
   145          2
   146          2
   147          3
   152          4
   153          6
   154         10
   155         92
   156        221
   157         39
   158         15
   159          3
   160          2
   161          2
   163          2
   165          2
   167          3
   168          3
   169          5
   170        658
   171         82
   172         40
   173         13
   174          2