##TITLE=Library Entry 11091
##JCAMP-DX=Revision 4.10 
##DATA TYPE=MASS SPECTRUM
##SAMPLE DESCRIPTION=Chemical Concepts
##NAMES=HP
##CAS NAME=4,6,10,10-Tetramethyl-5-oxatricyclo[4.4.0.0(1,4)]dec-2-en-7-ol
##MOLFORM=C13H20O2
##CAS REGISTRY NO=97371-50-1
##MP= -300
##BP= -300
##MW= 208
##$RETENTION INDEX=0
##$CONDENSED SPECTRUM=NO
##NPOINTS= 156
##XYDATA=(XY..XY) 1 
    27        114
    28         80
    29         52
    30          4
    31         20
    37          1
    38          7
    39        178
    40         27
    41        313
    42         18
    43        999
    44         29
    45         33
    46          1
    50         12
    51         60
    52         26
    53        129
    54         12
    55        170
    56         20
    57         50
    58          6
    59         13
    60          2
    61          4
    62          5
    63         28
    64         12
    65        113
    66         31
    67        112
    68         13
    69         99
    70          8
    71         40
    72          3
    73          5
    74          8
    75          6
    76          4
    77        164
    78         36
    79        172
    80         27
    81        134
    82         18
    83         29
    84          6
    85         14
    86          2
    87          7
    88          1
    89         11
    90          5
    91        301
    92         48
    93        167
    94         34
    95        157
    96         25
    97         51
    98          8
    99          7
   100          3
   101          3
   102          4
   103         25
   104         10
   105        199
   106         58
   107        206
   108         75
   109        527
   110         70
   111         49
   112          7
   113          2
   114          1
   115         32
   116         17
   117         37
   118         10
   119        193
   120         35
   121        205
   122        112
   123        182
   124         25
   125         12
   126          4
   127          7
   128          9
   129         13
   130          6
   131         43
   132         18
   133        111
   134        158
   135        187
   136         38
   137        144
   138         53
   139        143
   140         13
   141          8
   142         18
   143          5
   144          2
   145         18
   146          6
   147        114
   148         22
   149        138
   150         31
   151        195
   152         48
   153          6
   154          1
   155          1
   156          1
   157         24
   158          5
   159          7
   160         11
   161         15
   162          6
   163         51
   164         12
   165         91
   166         14
   167          2
   168          1
   172          0
   173          2
   174          1
   175         97
   176         13
   177          8
   178          6
   179         10
   180          3
   181          1
   189          4
   190         23
   191         10
   192          2
   193        414
   194         50
   195          4
   206          1
   207         10
   208         91
   209         13
   210          1