##TITLE=Library Entry 57408
##JCAMP-DX=Revision 4.10 
##DATA TYPE=MASS SPECTRUM
##SAMPLE DESCRIPTION=Chemical Concepts
##NAMES=HP
##CAS NAME=1-[4-(1-Hydroxy-4-methylthiobut-3-enyl)phenyl]-4-methylthiobut-3-
en-1-ol
##MOLFORM=C16H22O2S2
##CAS REGISTRY NO=97370-37-1
##MP= -300
##BP= -300
##MW= 310
##$RETENTION INDEX=0
##$CONDENSED SPECTRUM=NO
##NPOINTS= 161
##XYDATA=(XY..XY) 1 
    27         11
    28          3
    29          9
    31          2
    35          4
    38          2
    39         48
    40          3
    41         54
    42          3
    43         12
    44          3
    45        163
    46          9
    47         40
    48          4
    49          3
    50          3
    51         14
    52          5
    53         38
    54          4
    55         11
    56          3
    57          7
    58          4
    59         22
    60          4
    61         42
    62          2
    63          6
    64          2
    65          7
    66          2
    67          5
    68          3
    69          9
    70          3
    71         21
    72         35
    73         67
    74          7
    75          9
    76          4
    77         78
    78         17
    79        135
    80         10
    81          5
    82          2
    83          4
    84          2
    85         13
    86          3
    87        999
    88        729
    89        104
    90         42
    91         31
    92          3
    93          2
    95          2
    96          2
    97          3
    98          2
    99          2
   101          5
   102          4
   103         13
   104          4
   105         19
   106         16
   107         63
   108          6
   109          2
   111          2
   113          8
   114          3
   115         19
   116          7
   117         12
   118          2
   119          7
   120          9
   121          3
   123          2
   126          2
   127         10
   128         20
   129        183
   130         21
   131          7
   132          2
   133         16
   134          7
   135         44
   136        271
   137         23
   138          3
   141          5
   142          2
   143          2
   145          5
   146          4
   147         10
   148          2
   149         16
   150          3
   151          2
   152          3
   153          2
   155          3
   157         26
   158          5
   159          6
   160          6
   161          3
   162          5
   163          2
   165          3
   166          2
   167          4
   168          2
   169          6
   171          2
   173          5
   174          3
   175         21
   176          4
   177          8
   178          3
   179          5
   181          2
   183          2
   185          2
   189          4
   191          3
   193          2
   197          4
   204          2
   205        102
   206         14
   207          6
   209          2
   215          2
   221          3
   222        114
   223        219
   224         34
   225         12
   226          2
   231          2
   239          3
   245          4
   262          5
   263          6
   264          2
   274          2
   293          4
   310          4
   311          2