##TITLE=Library Entry 7137
##JCAMP-DX=Revision 4.10 
##DATA TYPE=MASS SPECTRUM
##SAMPLE DESCRIPTION=LAC, NIDDK, NIH, Bethesda, MD 20892
##NAMES=HP
##CAS NAME=2,2-Dibromocholestanone
##MOLFORM=C27H44Br2O
##CAS REGISTRY NO=97370-79-1
##MP= -300
##BP= -300
##MW= 542
##$RETENTION INDEX=0
##$CONDENSED SPECTRUM=NO
##NPOINTS= 142
##XYDATA=(XY..XY) 1 
    41        522
    42         22
    43        999
    44         31
    47         21
    49        110
    51         56
    53         99
    55        737
    57        510
    58         10
    60          7
    65         37
    67        278
    68        137
    69        276
    70         35
    71        210
    72          8
    77         79
    79        210
    80         86
    81        433
    82        123
    83        236
    84         93
    85         36
    86         69
    88         10
    91        151
    93        277
    95        447
    96         31
    97        143
    98          7
    99          8
   103          7
   105        183
   107        242
   108         39
   109        161
   110          8
   111        113
   112         13
   113          9
   115         10
   116          4
   117         30
   119         78
   121        172
   122         52
   123        165
   124         22
   125         28
   126         23
   127         15
   129         11
   131         41
   133        103
   134         20
   135        106
   136         14
   137         47
   139          4
   140         14
   141          3
   143         20
   145         46
   146          4
   147         74
   148          5
   149         44
   151         23
   155          5
   157         18
   159         36
   160          9
   161         83
   162         25
   163         39
   165         13
   167          9
   171         14
   173         37
   175         66
   176         22
   177         16
   179          7
   185         35
   187         52
   189         37
   193          8
   199         44
   200         17
   201         47
   202         22
   203         39
   204          4
   211         13
   212          3
   213         20
   214         12
   215         18
   217         16
   225         12
   227         22
   229         19
   231         14
   239         11
   241         14
   243         18
   245         12
   250          8
   253          7
   255          3
   263         12
   269          3
   295         19
   297         14
   300         15
   301          4
   307          8
   309         49
   310         29
   311         33
   312         21
   315         18
   316         32
   317          4
   323          7
   326          3
   463         52
   464         19
   465         51
   466         17
   541         12
   542         32
   543         17
   544         64
   545         16
   546         31
   547          6