##TITLE=Library Entry 79541
##JCAMP-DX=Revision 4.10 
##DATA TYPE=MASS SPECTRUM
##SAMPLE DESCRIPTION=Chemical Concepts
##NAMES=HP
##CAS NAME=1,1-Diphenyl-2-phenylthiobut-3-en-1-ol
##MOLFORM=C22H20OS
##CAS REGISTRY NO=97370-20-2
##MP= -300
##BP= -300
##MW= 332
##$RETENTION INDEX=0
##$CONDENSED SPECTRUM=NO
##NPOINTS= 99
##XYDATA=(XY..XY) 1 
    26         24
    27         32
    29         19
    37          5
    38         12
    39         95
    40         25
    41         62
    42          4
    43         12
    44         54
    45         52
    46          3
    49          3
    50         67
    51        227
    52         19
    53          5
    55          9
    59         18
    60          3
    61          4
    62          9
    63         24
    64          6
    65         60
    67          6
    69         29
    71         22
    72         29
    73         26
    74         31
    75         24
    76         42
    77        529
    78         77
    79         14
    81          5
    83          4
    84         21
    85          3
    86          3
    88          4
    89         12
    90          3
    91         76
    92          7
   102          8
   104          9
   105        999
   106         82
   107          5
   108         10
   109         74
   110         92
   111         11
   112          4
   115         63
   116         39
   117         52
   118          5
   121         17
   127         12
   128         18
   129         13
   134         31
   135        114
   136         12
   137         21
   139          3
   141          4
   145          3
   147         11
   148          3
   149         77
   150        255
   151         36
   152         34
   153         15
   154         13
   155          5
   165         17
   166          7
   167          3
   178          9
   179          4
   180          3
   181         31
   182        256
   183        194
   184         25
   185          3
   189          6
   190          7
   191         15
   192          3
   202         10
   203         14
   314          5