##TITLE=Library Entry 49761
##JCAMP-DX=Revision 4.10 
##DATA TYPE=MASS SPECTRUM
##SAMPLE DESCRIPTION=P.A. Leclercq, Lab. Instrum. Anal., Eindhoven Univ. Tec
hnol., Netherlands
##NAMES=HP
##CAS NAME=1,1'-Bicyclohexyl, 4-methoxy-4'-propyl-
##MOLFORM=C16H30O
##CAS REGISTRY NO=97398-80-6
##MP= -300
##BP= -300
##MW= 238
##$RETENTION INDEX=0
##$CONDENSED SPECTRUM=NO
##NPOINTS= 74
##XYDATA=(XY..XY) 1 
    15         51
    18         21
    27        213
    28        103
    29        345
    30         13
    31         19
    33         13
    39        191
    41        932
    42         95
    43        335
    45        182
    51         13
    53        163
    54        135
    55        725
    56         64
    57        164
    58        237
    59         47
    65         56
    67        541
    68        118
    69        601
    71        698
    72        127
    73         14
    77         89
    79        299
    80        198
    81        999
    82        512
    83        499
    84         47
    85         40
    91         82
    93        141
    94         56
    95        268
    96        130
    97        193
    98         14
   105         21
   107         87
   108        138
   109        304
   110        122
   111        111
   112         21
   113         22
   115         13
   121        152
   122        244
   123        394
   124        280
   125         82
   135        101
   136         54
   137         42
   138         69
   139         42
   149         51
   150         29
   151         37
   163        308
   164         96
   165         26
   166         11
   177        185
   178         48
   191         15
   206        650
   207        112