##TITLE=Library Entry 12769
##JCAMP-DX=Revision 4.10 
##DATA TYPE=MASS SPECTRUM
##SAMPLE DESCRIPTION=Organic Synthesis Lab, MSU, Moscow.TRC 544
##NAMES=HP
##CAS NAME=Pregn-5-en-20-one, 16,17-epoxy-3-hydroxy-, (3.beta.,16.alpha.)-
##MOLFORM=C21H30O3
##CAS REGISTRY NO=974-23-2
##MP= -300
##BP= -300
##MW= 330
##$RETENTION INDEX=0
##$CONDENSED SPECTRUM=NO
##NPOINTS= 255
##XYDATA=(XY..XY) 1 
    27         65
    29        113
    30          2
    31         18
    39         63
    40         20
    41        277
    42         18
    43        999
    44         27
    45         17
    50          2
    51         17
    52          9
    53        106
    54         11
    55        278
    56          9
    57         78
    58          5
    59          5
    60          2
    61          2
    63          5
    64          2
    65         56
    66         21
    67        129
    68         12
    69         36
    70          3
    71         15
    72          2
    73          1
    76          2
    77        150
    78         38
    79        223
    80         32
    81        149
    82         14
    83         24
    84          5
    85         17
    87         10
    89          4
    90          2
    91        283
    92         57
    93        158
    94         36
    95         68
    96         11
    97         27
    98          8
    99          7
   100          3
   101          5
   102          4
   103         30
   104         21
   105        251
   106         53
   107        246
   108         35
   109         57
   110         14
   111         20
   112          2
   113          3
   114          1
   115         49
   116         26
   117         87
   118         33
   119        148
   120         96
   121         65
   122         23
   123         41
   124         28
   125         62
   126          6
   127         13
   128         46
   129         72
   130         35
   131        135
   132         37
   133         80
   134         18
   135         49
   136         15
   137         22
   138          8
   139          6
   140          5
   141         40
   142         29
   143        156
   144         44
   145        157
   146         46
   147         51
   148         29
   149         33
   150          9
   151         71
   152         19
   153         15
   154          9
   155         37
   156         19
   157         90
   158         61
   159        424
   160         69
   161         61
   162         15
   163         32
   164          9
   165         14
   166          7
   167         15
   168          9
   169         40
   170         15
   171         63
   172         25
   173         42
   174         14
   175         49
   176         17
   177         32
   178          7
   179          9
   180          5
   181         26
   182         12
   183         37
   184         20
   185        103
   186         24
   187         29
   188         19
   189         22
   190          8
   191         15
   192          4
   193          8
   194          5
   195         40
   196         16
   197         43
   198         14
   199         33
   200         12
   201         61
   202         36
   203         21
   204          7
   205         14
   206          8
   207          7
   208          4
   209         27
   210         11
   211         47
   212         16
   213         82
   214         21
   215         15
   216          4
   217          8
   218         90
   219         64
   220         11
   221          8
   222          5
   223         15
   224          5
   225         21
   226         12
   227         31
   228          9
   229         13
   230          5
   231          5
   232          5
   233          2
   234          1
   235         14
   236         13
   237        116
   238         23
   239         11
   240          5
   241         14
   242          5
   243         11
   244         10
   245         81
   246         16
   247          2
   249          2
   250          2
   251         69
   252         26
   253         21
   254         13
   255        213
   256         40
   257         12
   258          9
   259          4
   261          4
   262          1
   265          3
   266          2
   267          4
   268          3
   269        153
   270         65
   271         23
   272          9
   273          6
   275          3
   279         50
   280         10
   281          3
   283         10
   284          9
   285          5
   286         25
   287        101
   288         21
   289          2
   294          9
   295          9
   296          4
   297         96
   298         21
   299          6
   301          3
   302          2
   311          1
   312        156
   313         38
   314         11
   315         34
   316          7
   328          3
   329          3
   330        420
   331         92