##TITLE=Library Entry 78842
##JCAMP-DX=Revision 4.10 
##DATA TYPE=MASS SPECTRUM
##SAMPLE DESCRIPTION=Humboldt-Universitat zu Berlin, Department of Chemistry
, Analytical Group
##NAMES=HP
##CAS NAME=4-Oxo-4-phenyl-2-(2,2,2-trifluoroacetylamino)butanoic acid
##MOLFORM=C12H10F3NO4
##CAS REGISTRY NO=97403-69-5
##MP= -300
##BP= -300
##MW= 289
##$RETENTION INDEX=0
##$CONDENSED SPECTRUM=NO
##NPOINTS= 169
##XYDATA=(XY..XY) 1 
    12          0
    14          0
    15          6
    16          4
    17          2
    18          5
    19          0
    20          0
    25          0
    26          6
    27         25
    28         35
    29          6
    30          1
    31          4
    32          0
    33          0
    35          1
    36          2
    37          1
    38          4
    39         14
    40          5
    41         12
    42         13
    43         19
    44         38
    45         32
    46          2
    47          1
    48          0
    49          1
    50         43
    51        129
    52         11
    53          7
    54          3
    55         11
    56          1
    57          1
    58          0
    59          0
    60          1
    61          1
    62          4
    63          8
    64          3
    65         13
    66          4
    67          1
    68          6
    69        136
    70         22
    71          7
    72          3
    73          3
    74         17
    75         14
    76         26
    77        510
    78         59
    79          4
    80          0
    81          2
    82          1
    83          1
    84          1
    85          1
    86          1
    87          2
    88          1
    89          5
    90          4
    91         16
    92          4
    93          2
    94          3
    95          1
    96         15
    97          7
    98          1
    99         10
   100          1
   101          1
   102          4
   103         11
   105        999
   106         81
   107          7
   108          0
   109          1
   110          2
   111          2
   112          1
   113          2
   114          2
   115          3
   116          0
   117          1
   118          4
   119          2
   120          7
   121          1
   122          3
   123          1
   124          1
   125          1
   126          0
   127          0
   128          2
   129          1
   130          9
   131         20
   132         24
   133          3
   134          0
   135          0
   136          0
   138         12
   139          8
   140         23
   141          1
   142          0
   146          6
   147          3
   148          4
   149          1
   150          0
   151          0
   152          0
   153          0
   156          0
   158          1
   159          6
   160          1
   166         15
   167          1
   168          0
   170          0
   171          0
   174         34
   175          5
   176         16
   177          3
   178          1
   181          0
   184          8
   185          0
   192          2
   195          0
   202          0
   214          0
   220          0
   224          2
   225          0
   226          0
   242          1
   243          2
   244          4
   245          3
   246          0
   248          0
   253          2
   254          0
   271        114
   272         17
   273          1
   289          5
   290          1