##TITLE=Library Entry 37590
##JCAMP-DX=Revision 4.10 
##DATA TYPE=MASS SPECTRUM
##SAMPLE DESCRIPTION=G. Lange, Inst. Org. Chem., Univ. Wurzburg, Wurzburg, G
ermany
##NAMES=HP
##CAS NAME=6-Oxabicyclo[3.1.0]hexan-3-one, 2,2,4,4-tetramethyl-
##MOLFORM=C9H14O2
##CAS REGISTRY NO=97455-13-5
##MP= -300
##BP= -300
##MW= 154
##$RETENTION INDEX=0
##$CONDENSED SPECTRUM=NO
##NPOINTS= 44
##XYDATA=(XY..XY) 1 
    38         18
    39        366
    40         69
    41        343
    42        292
    43        260
    44         21
    45          6
    50         10
    51         29
    52         12
    53        119
    54         48
    55        527
    56        199
    57        385
    58         13
    65          9
    67         35
    68          9
    69         53
    70        999
    71        121
    72        489
    73         21
    77         12
    79         10
    81         11
    82         11
    83        593
    84         45
    85         80
    91          6
    93          9
    95         46
    97        155
    98         11
   109          5
   110         14
   111         28
   126        214
   127         17
   154        348
   155         36