##TITLE=Library Entry 86677
##JCAMP-DX=Revision 4.10 
##DATA TYPE=MASS SPECTRUM
##SAMPLE DESCRIPTION=Chemical Concepts
##NAMES=HP
##CAS NAME=2,4,4-Trimethyl-3-(3-methylbuta-1,3-dienyl)cyclohexanone
##MOLFORM=C14H22O
##CAS REGISTRY NO=97452-05-6
##MP= -300
##BP= -300
##MW= 206
##$RETENTION INDEX=0
##$CONDENSED SPECTRUM=NO
##NPOINTS= 139
##XYDATA=(XY..XY) 1 
    26          6
    27        110
    29        126
    30          3
    31          2
    37          2
    38          6
    39        161
    40         35
    41        431
    42         45
    43        178
    44          6
    45         15
    50         10
    51         48
    52         27
    53        137
    54         23
    55        270
    56        203
    57         36
    58          5
    59          7
    60          3
    62          3
    63         18
    64          8
    65         91
    66         28
    67        272
    68         47
    69        251
    70        102
    71         14
    72          3
    73          2
    74          2
    75          5
    76          3
    77        245
    78         53
    79        172
    80         53
    81        298
    82         44
    83         36
    84          7
    85          4
    86          4
    87          2
    88          2
    89          7
    90          4
    91        299
    92         55
    93        729
    94        112
    95        240
    96        186
    97        119
    98         27
    99         25
   100          2
   102          3
   103         17
   104          9
   105         92
   106         37
   107        279
   108        242
   109        999
   110        128
   111        260
   112         28
   113          7
   115         12
   116          5
   117         23
   118          6
   119         79
   120         25
   121        123
   122         44
   123         73
   124         24
   125         18
   126         96
   127         12
   128          4
   129          5
   130          3
   131         13
   132         21
   133         31
   134         18
   135        173
   136         60
   137        265
   138        227
   139         37
   140          3
   141          3
   143          2
   145         16
   146          4
   147         11
   148          6
   149         34
   150        129
   151         47
   152         15
   153          2
   158          2
   159          4
   160          2
   161          3
   162          3
   163         64
   164         21
   165         19
   166          3
   172         20
   174          3
   175          2
   177         64
   178         14
   179          2
   181          2
   188          4
   189          3
   190          2
   191        196
   192         31
   193          3
   205          5
   206        751
   207        122
   208         11