##TITLE=Library Entry 16108
##JCAMP-DX=Revision 4.10 
##DATA TYPE=MASS SPECTRUM
##SAMPLE DESCRIPTION=Div. of Experiment Therapeutics WRAIR, WRAMC, Washingto
n DC 20307
##NAMES=HP
##CAS NAME=3-Methylaminopropylamine-N-carbothioic acid hydrazide, 2-[1-[2-py
ridyl]ethylidene]
##MOLFORM=C12H19N5S
##CAS REGISTRY NO=97483-67-5
##MP= -300
##BP= -300
##MW= 265
##$RETENTION INDEX=0
##$CONDENSED SPECTRUM=NO
##NPOINTS= 166
##XYDATA=(XY..XY) 1 
    42        376
    43        106
    44        999
    45         45
    46          2
    47         16
    48          5
    49         35
    50         94
    51        315
    52        177
    53         46
    54         26
    55         38
    56        135
    57        113
    58        100
    59         48
    60         54
    61         13
    62         11
    63         23
    64         17
    65         23
    66         11
    67         15
    68         26
    69         38
    70        562
    71        115
    72         97
    73          8
    74         28
    75         21
    76         64
    77         92
    78        706
    79        430
    80         47
    81          3
    82          8
    83         12
    84         23
    85         14
    86         20
    87          7
    88         15
    89         12
    90          7
    91         10
    92         41
    93         20
    94         10
    95          4
    96          2
    97         18
    98         24
    99         23
   100          5
   101         26
   102         25
   103         31
   104        189
   105        114
   106        145
   107         23
   108          3
   109          5
   110          4
   111          4
   112         54
   113         16
   114         13
   115         18
   116         12
   117         22
   118          7
   119         39
   120         87
   121        957
   122        107
   124         22
   125          4
   126          0
   127          1
   128          3
   129          7
   130         49
   131         45
   132         19
   133         55
   134         94
   135         36
   136         24
   137          4
   138         18
   139          9
   140          2
   141          0
   142          3
   144         21
   145        246
   146         70
   147         16
   148         51
   149         18
   150          6
   151         11
   152          5
   153         16
   154          2
   155          2
   156         17
   157          5
   158          4
   159          4
   160          7
   161          4
   162          2
   163          3
   164          1
   170          2
   171          3
   172          1
   173          3
   174          3
   175          2
   176         21
   177        129
   178         51
   179         14
   180          2
   182          0
   184          0
   187          6
   188          3
   189          0
   190          0
   191          3
   193          6
   194          4
   195          9
   196          5
   202          0
   207          1
   208          3
   209          7
   210         19
   211          3
   216          3
   219          7
   220          0
   221          1
   222          3
   223          5
   224          0
   231         11
   232         18
   233          3
   235          2
   249          1
   250          1
   251          0
   265         27
   266          4
   267          1