##TITLE=Library Entry 71263
##JCAMP-DX=Revision 4.10 
##DATA TYPE=MASS SPECTRUM
##SAMPLE DESCRIPTION=A.A.Kutin, Moscow, Russia
##NAMES=HP
##CAS NAME=Propanoic acid, 2-benzyl-2-hydroxy-3-phenyl-, 2-(1-piperidyl)ethy
l ester
##MOLFORM=C23H29NO3
##CAS REGISTRY NO=97508-25-3
##MP= -300
##BP= -300
##MW= 367
##$RETENTION INDEX=0
##$CONDENSED SPECTRUM=NO
##NPOINTS= 153
##XYDATA=(XY..XY) 1 
    33          0
    34          0
    35          8
    36         50
    37          3
    38         17
    39         14
    40         10
    41         61
    42         42
    43         12
    44         33
    45          4
    46          0
    49          0
    50          1
    51          5
    52          2
    53          3
    54          6
    55         50
    56         27
    57          6
    58          3
    59          0
    60          0
    61          0
    62          1
    63          5
    64          2
    65         26
    66          1
    67          3
    68          5
    69         19
    70         15
    71          1
    72          0
    73          6
    74          2
    75          1
    76          0
    77          4
    78          3
    79          3
    80          3
    81          2
    82          7
    83         10
    84          9
    85          3
    86          0
    87          0
    88          0
    89          5
    91        177
    92         18
    93          1
    94          0
    95          1
    96         25
    98        999
    99         69
   100          3
   101          0
   102          0
   103          2
   104          1
   105          3
   106          0
   107          0
   108          1
   109          1
   110         10
   111        134
   112         46
   113          3
   114          0
   115          3
   116          0
   117          1
   118          3
   119          3
   120          1
   121          0
   124          0
   125          0
   126          1
   128         15
   129          3
   130          2
   131          1
   132          0
   133          0
   141          0
   142          0
   143          0
   144          0
   145          1
   146          0
   147          0
   148          0
   149          1
   150          0
   152          0
   153          0
   155          0
   157          0
   160          0
   161          0
   162          0
   163          0
   164          0
   165          0
   166          0
   167          0
   168          0
   170          0
   171          0
   172          0
   175          0
   177          0
   178          0
   179          0
   181          0
   184          0
   190          0
   191          0
   192          0
   193          3
   194          0
   196          0
   197          0
   198          0
   207          0
   210          2
   211          3
   212          0
   219          0
   220          0
   221          0
   222          0
   233          0
   234          0
   265          0
   275          0
   276          9
   277          2
   278          0
   366          1
   367          6
   368          1
   369          0