##TITLE=Library Entry 47398
##JCAMP-DX=Revision 4.10 
##DATA TYPE=MASS SPECTRUM
##SAMPLE DESCRIPTION=Chemical Concepts
##NAMES=HP
##CAS NAME=6,6-Dichloro-7-oxobicyclo[3.2.0]hept-2-ene-2-carboxaldehyde
##MOLFORM=C8H6Cl2O2
##CAS REGISTRY NO=97517-24-3
##MP= -300
##BP= -300
##MW= 204
##$RETENTION INDEX=0
##$CONDENSED SPECTRUM=NO
##NPOINTS= 160
##XYDATA=(XY..XY) 1 
    25          1
    26         17
    27         58
    28         17
    29         69
    30          1
    31         28
    32          2
    34          0
    35          4
    36         13
    37         19
    38         64
    39        162
    40         41
    41         10
    42          6
    43         56
    44          4
    45         20
    46          1
    47         14
    48          4
    49         22
    50        156
    51        315
    52        105
    53         44
    54          4
    55         14
    56         16
    57          6
    58         21
    59         31
    60         12
    61         26
    62         30
    63        100
    64         20
    65        118
    66        332
    67         31
    68          2
    69          2
    70          8
    71          4
    72          8
    73         57
    74         70
    75        163
    76         36
    77        999
    78        118
    79         13
    80         17
    81          5
    82         24
    83         27
    84         23
    85         53
    86         17
    87         32
    88          5
    89         12
    90          2
    91          6
    92         13
    93         40
    94         44
    95         35
    96          6
    97          6
    98          5
    99          7
   100          3
   101          3
   102          1
   103          0
   104          0
   105         44
   106          7
   107          7
   108          9
   109         38
   110         25
   111        367
   112        184
   113        497
   114         81
   115        124
   116          8
   117          1
   118          0
   119          1
   120          3
   121         18
   122         11
   123          8
   124          7
   125         12
   126          4
   127          4
   128          1
   129          2
   131          1
   133         10
   134          4
   135          2
   136          1
   137          0
   138          1
   139         30
   140         23
   141        588
   142         52
   143        185
   144         14
   145          1
   146          4
   147        223
   148         26
   149        145
   150         15
   151         24
   152          3
   153          0
   154          3
   155          2
   156          1
   157          1
   158          0
   159          3
   160          1
   161          2
   162          0
   163          1
   165          0
   167          0
   168          1
   169         30
   170          3
   171         10
   172          2
   173          0
   174          0
   175        168
   176        135
   177        118
   178         84
   179         24
   180         13
   181          1
   191          0
   193          0
   204         51
   205          6
   206         36
   207          3
   208          5
   209          0