##TITLE=Library Entry 40620
##JCAMP-DX=Revision 4.10 
##DATA TYPE=MASS SPECTRUM
##SAMPLE DESCRIPTION=Div. of Experiment Therapeutics WRAIR, WRAMC, Washingto
n DC 20307
##NAMES=HP
##CAS NAME=1,3-Bis-t-butylperoxy-phthalan
##MOLFORM=C16H24O5
##CAS REGISTRY NO=97526-35-7
##MP= -300
##BP= -300
##MW= 296
##$RETENTION INDEX=0
##$CONDENSED SPECTRUM=NO
##NPOINTS= 68
##XYDATA=(XY..XY) 1 
    41        106
    42          5
    43        302
    44          7
    45         52
    46          0
    47          0
    49          5
    50         16
    51         38
    52          7
    53          5
    54          0
    55         32
    56          6
    57        163
    58         17
    59         25
    60          0
    62          0
    63          4
    64          1
    65         16
    66          2
    67          0
    68          0
    69          1
    71          0
    73        999
    74         56
    75          7
    76         17
    77         74
    78         17
    79          5
    81          0
    83          0
    84          3
    86          2
    89          5
    90          5
    91          5
    92          0
    93          5
    94          0
    95          0
    98          0
   104          5
   105        123
   106         20
   107          1
   118         52
   119          5
   121          8
   122          2
   123          0
   133         48
   134         18
   135         36
   136          2
   149          7
   150          0
   151          0
   190          0
   193          0
   207         79
   208          9
   209          0