##TITLE=Library Entry 66839
##JCAMP-DX=Revision 4.10 
##DATA TYPE=MASS SPECTRUM
##SAMPLE DESCRIPTION=OGDEN BioServices Corp., NCI, Rockville, MD 20852
##NAMES=HP
##CAS NAME=Merbarone
##MOLFORM=C11H9N3O3S
##CAS REGISTRY NO=97534-21-9
##MP= -300
##BP= -300
##MW= 263
##$RETENTION INDEX=0
##$CONDENSED SPECTRUM=NO
##NPOINTS= 37
##XYDATA=(XY..XY) 1 
    41         54
    42         20
    43         89
    44        133
    45          4
    47          8
    49          6
    50          4
    51         59
    52          9
    55          5
    59        153
    60         94
    63         28
    64         35
    65        140
    66         81
    67         16
    68         43
    69        191
    77         96
    78          8
    86         37
    91         39
    92         87
    93        999
    94         74
   104         17
   112         17
   119         19
   132         23
   160         10
   170         24
   171         59
   263        921
   264        131
   265         61