##TITLE=Library Entry 35069
##JCAMP-DX=Revision 4.10 
##DATA TYPE=MASS SPECTRUM
##SAMPLE DESCRIPTION=NO AUTHOR
##NAMES=HP
##CAS NAME=Ergosta-4,7,22-trien-3.beta.-ol
##MOLFORM=C28H44O
##CAS REGISTRY NO=97583-19-2
##MP= -300
##BP= -300
##MW= 396
##$RETENTION INDEX=0
##$CONDENSED SPECTRUM=NO
##NPOINTS= 79
##XYDATA=(XY..XY) 1 
    41        320
    43        506
    53         61
    55        835
    57        217
    67        297
    69        999
    70         83
    71         77
    77         74
    79        195
    81        539
    82         80
    83        226
    91        244
    92         52
    93        244
    94         51
    95        313
    97         79
   105        321
   106         55
   107        244
   108         51
   109        289
   110         94
   117        117
   118         60
   119        180
   120         51
   121        116
   123         80
   124         73
   125        181
   128         73
   129        113
   131        195
   132         61
   133        237
   134         62
   135        162
   137         52
   141        100
   142         69
   143        289
   144         85
   145        232
   146         67
   147        170
   155         88
   157        334
   158        165
   159        218
   160         51
   161        120
   169         82
   171        112
   173         70
   175         64
   183         82
   185         81
   197        109
   199        114
   211        126
   213         54
   226         60
   227         74
   229         51
   251         69
   253        523
   254        115
   269         76
   271        161
   363        132
   378        711
   379        228
   380         52
   396        806
   397        259