##TITLE=Library Entry 99515
##JCAMP-DX=Revision 4.10 
##DATA TYPE=MASS SPECTRUM
##SAMPLE DESCRIPTION=Asinex Ltd, Moscow, Russia
##NAMES=HP
##CAS NAME=3-Methyl-benzoic acid 3-oxo-2-phenyl-3H-inden-1-yl ester
##MOLFORM=C23H16O3
##CAS REGISTRY NO=97586-13-5
##MP= -300
##BP= -300
##MW= 340
##$RETENTION INDEX=0
##$CONDENSED SPECTRUM=NO
##NPOINTS= 206
##XYDATA=(XY..XY) 1 
    33          0
    34          0
    36          0
    37          0
    38          2
    39         27
    40          3
    41          8
    42          0
    43          0
    44          2
    45          0
    46          0
    48          0
    50         10
    51         11
    52          2
    53          1
    54          0
    55          0
    56          0
    57          0
    58          0
    59          0
    60          0
    61          1
    62          7
    63         25
    64          9
    65         92
    66          4
    67          0
    68          0
    69          1
    70          0
    71          0
    73          0
    74          3
    75          8
    76         23
    77         12
    78          1
    79          0
    80          0
    82          2
    83          1
    84          0
    85          0
    86          2
    87          5
    88          7
    89         32
    90         42
    91        341
    92         27
    93          1
    94          0
    95          0
    96          0
    97          0
    98          1
    99          1
   100          0
   101          0
   102          0
   103          0
   104          3
   105         10
   106          0
   107          0
   108          0
   109          0
   110          0
   111          1
   112          0
   113          3
   114          1
   115          8
   116          2
   119        999
   120        102
   121          7
   122          0
   123          0
   124          0
   125          0
   126          2
   127          0
   128          0
   129          0
   131          0
   132          0
   133          0
   134          0
   135          0
   136          1
   137          2
   138          3
   139         10
   140          1
   141          0
   143          0
   146          0
   147          0
   149          1
   150          2
   151          2
   152          1
   153          0
   154          0
   155          0
   156          0
   157          0
   158          0
   159          0
   160          0
   161          1
   162          4
   163         23
   164         22
   165         50
   166          7
   167          0
   168          0
   170          0
   173          0
   174          0
   175          1
   176          4
   177          1
   178          0
   179          0
   181          0
   183          0
   185          0
   187          0
   189          0
   190          0
   191          0
   192          1
   193          8
   194          2
   195          0
   201          0
   202          0
   205          0
   206          0
   207          0
   209          0
   213          0
   214          0
   215          0
   218          0
   219          0
   220          2
   221          7
   222         10
   223          1
   224          0
   225          0
   226          0
   227          0
   228          0
   237          0
   239          1
   240          0
   241          0
   247          0
   248          0
   249          0
   250          0
   251          0
   252          0
   253          0
   254          0
   255          0
   261          0
   263          0
   264          0
   265          0
   266          0
   267          0
   268          0
   269          0
   279          0
   280          0
   281          0
   282          0
   283          0
   292          0
   293          0
   294          0
   295          0
   296          0
   309          0
   310          0
   311          0
   312          0
   321          0
   322          0
   326          0
   337          0
   340         16
   341          3
   342          0
   343          0