##TITLE=Library Entry 107270
##JCAMP-DX=Revision 4.10 
##DATA TYPE=MASS SPECTRUM
##SAMPLE DESCRIPTION=Japan AIST/NIMC Database- Spectrum MS-IW-3316
##NAMES=HP
##CAS NAME=N-Acetyl-3-(3,4-diacetoxyphenyl)-2-methyl-dl-alanine
##MOLFORM=C16H19NO7
##CAS REGISTRY NO=976-34-1
##MP= -300
##BP= -300
##MW= 337
##$RETENTION INDEX=0
##$CONDENSED SPECTRUM=NO
##NPOINTS= 172
##XYDATA=(XY..XY) 1 
    14          4
    15         31
    16          2
    17          4
    18          1
    26          1
    27          8
    28         25
    29          6
    30          2
    31          1
    38          3
    39         25
    40          7
    41         16
    42        178
    43        539
    44         70
    45         12
    50          5
    51         38
    52          9
    53          9
    54          3
    55         16
    56          9
    57         27
    58         14
    59          5
    60         61
    61          3
    62          2
    63          7
    64          4
    65         24
    66         12
    67          8
    68          2
    69          3
    70          3
    71         25
    72          1
    74          1
    75          3
    76          4
    77         67
    78         19
    79          9
    80          3
    81          6
    82          2
    83          1
    84          7
    85          8
    86         17
    87          5
    88        582
    89         30
    90          5
    91         18
    92          4
    93          8
    94         17
    95          7
    96          2
    97          1
    99          5
   100          7
   101          2
   102         11
   103         20
   104          6
   105         18
   106         15
   107         12
   108          4
   109          4
   110          9
   111          2
   112          3
   113         55
   114          4
   115          1
   116          1
   117          2
   118          6
   119          9
   120          7
   121          8
   122         16
   123        999
   124        158
   125         13
   126          1
   129          1
   130         94
   131         94
   132          9
   133          4
   134          3
   135          3
   136          9
   137          7
   138          2
   139          6
   146          8
   147         17
   148         53
   149         22
   150         38
   151          8
   152          2
   153          2
   160          1
   161          1
   162          4
   163          4
   164         16
   165        277
   166        163
   167         16
   168          1
   174          1
   175          4
   176         26
   177          9
   178          5
   179          2
   189          1
   190          2
   191          2
   192         16
   193         22
   194        845
   195         96
   196         13
   197          1
   205          1
   206          3
   207         76
   208         83
   209         11
   210          2
   218          2
   220          1
   234          5
   235         57
   236        287
   237         38
   238          9
   239          1
   249         31
   250         21
   251          7
   252          3
   253         53
   254          8
   255          1
   277         34
   278        116
   279         17
   280          4
   291         10
   292          4
   293          7
   294          2
   295         24
   296          5
   319          1
   337         28
   338          6
   339          1