##TITLE=Library Entry 60620
##JCAMP-DX=Revision 4.10 
##DATA TYPE=MASS SPECTRUM
##SAMPLE DESCRIPTION=TNO Volatile Compounds in Food - Chemical Concepts
##NAMES=HP
##CAS NAME=Bicyclo[3.1.0]hex-3-en-2-ol, 2-methyl-5-(1-methylethyl)-, (1.alph
a.,2.alpha.,5.alpha.)-
##MOLFORM=C10H16O
##CAS REGISTRY NO=97631-68-0
##MP= -300
##BP= -300
##MW= 152
##$RETENTION INDEX=1039
##$CONDENSED SPECTRUM=NO
##NPOINTS= 92
##XYDATA=(XY..XY) 1 
    25          1
    26          5
    27         82
    29         10
    34          4
    37          4
    38         13
    39        133
    40         48
    41        149
    42          6
    43        256
    45         18
    46          5
    49          1
    50         23
    51         75
    52         26
    53         36
    54          5
    55         24
    56          5
    57         42
    58         28
    59          5
    60          4
    61          6
    62         13
    63         50
    64         16
    65        127
    66         19
    67         45
    68          5
    69         11
    70          0
    71          5
    73          2
    74          4
    75          5
    76          6
    77        113
    78         36
    79         55
    80          5
    81         21
    82          3
    83          2
    85          1
    86          1
    87          2
    88          0
    89         25
    90         10
    91        999
    92        489
    93         83
    94         11
    95         38
    97          1
   101          1
   102          8
   103         35
   104         22
   105         43
   106          5
   107         34
   108         12
   109        169
   110         13
   112          0
   115         57
   116         15
   117         79
   118         13
   119        302
   120         33
   121          9
   122         12
   123          3
   127          0
   128          3
   129          1
   130          1
   131          3
   132          9
   133          8
   134        103
   135         12
   136          0
   137         32
   138          2