##TITLE=Library Entry 30782
##JCAMP-DX=Revision 4.10 
##DATA TYPE=MASS SPECTRUM
##SAMPLE DESCRIPTION=Chemical Concepts
##NAMES=HP
##CAS NAME=Butanoic acid, 3-hydroxy-3-methyl-, 3-(1,1-dimethylethyl)tetrahyd
ro-7a-(1-hydroxy-1-methylethyl)-1-oxo-1H,3H-pyrrolo[1,2-c]oxazol-6-yl ester,
 [3R-(3.alpha.,6.alpha., 7a.alpha)]-
##MOLFORM=C18H31NO6
##CAS REGISTRY NO=97652-11-4
##MP= -300
##BP= -300
##MW= 357
##$RETENTION INDEX=0
##$CONDENSED SPECTRUM=NO
##NPOINTS= 282
##XYDATA=(XY..XY) 1 
    26          6
    27         59
    28         33
    29        142
    30         50
    31        134
    33          1
    37          3
    38          4
    39         68
    40         20
    41        429
    42        118
    43        649
    44         34
    45         38
    46          4
    47          1
    50          3
    51          6
    52          5
    53         44
    54         81
    55        200
    56        122
    57        277
    58         77
    59        999
    60         48
    61         22
    62          1
    63          2
    64          1
    65         11
    66         40
    67        127
    68        667
    69        210
    70        191
    71         64
    72         19
    73         16
    74          5
    75          5
    76          4
    77         11
    78         12
    79         17
    80         59
    81         66
    82         73
    83        114
    84        115
    85         71
    86         27
    87         55
    88          8
    89          3
    90          2
    91         11
    92         14
    93         27
    94        356
    95         93
    96        332
    97         68
    98         71
    99         27
   100         25
   101         66
   102          9
   103         16
   104          5
   105          9
   106         13
   107         23
   108        315
   109         82
   110        124
   111         43
   112        342
   113         85
   114         39
   115          9
   116          4
   117          3
   118          4
   119         20
   120         32
   121         17
   122        202
   123         59
   124        223
   125         61
   126        275
   127         40
   128         24
   129         11
   130         12
   131          3
   132          4
   133          5
   134         10
   135         11
   136        634
   137        139
   138        465
   139        126
   140         65
   141         20
   142         94
   143         11
   144         10
   145          5
   146          3
   147          3
   148         10
   149         52
   150         12
   151          6
   152         22
   153         15
   154        186
   155         45
   156         48
   157         13
   158          4
   159          2
   160          3
   161          2
   162         10
   163          8
   164          7
   165          7
   166        425
   167         62
   168         28
   169          8
   170         13
   171          4
   172         10
   173          3
   174          2
   175          2
   176          3
   177          4
   178         11
   179         10
   180        230
   181        670
   182        686
   183         91
   184        140
   185         30
   186          5
   187          1
   188          1
   189          1
   190          1
   191          2
   192          2
   193          2
   194          9
   195          5
   196         27
   197          9
   198         45
   199         27
   200         74
   201          9
   202          1
   203          1
   204          1
   205          3
   206          4
   207          1
   208          5
   209          1
   210         45
   211          7
   212         12
   213         21
   214          5
   215          1
   217          1
   218          1
   219          2
   220          2
   221          3
   222         37
   223          8
   224         50
   225         12
   226         37
   227          6
   228         40
   229          6
   230          2
   231          1
   232          0
   233          1
   234          1
   235          1
   236          6
   237          2
   238         26
   239          7
   240         42
   241         43
   242        254
   243         35
   244         11
   245          2
   246          1
   247          0
   250          1
   251          1
   252          2
   253          2
   254         91
   255         16
   256         77
   257         27
   258         10
   259          2
   264          3
   265          4
   266         33
   267          6
   268         16
   271          4
   272          8
   273          2
   275          1
   276          1
   277          1
   278          2
   279          2
   280         16
   281         31
   282         26
   283          9
   284        726
   285        123
   286         18
   287          3
   294          2
   295          2
   296         11
   297          4
   298         80
   299        880
   300        338
   301         53
   302          7
   303          1
   305          1
   318          1
   319          1
   320          1
   321          1
   322         14
   323          4
   324        206
   325         41
   326          6
   327          1
   338          1
   339          1
   340         11
   341          3
   342        212
   343         42
   344          7
   345          1
   350          1
   355          0
   356          0
   357          0
   358          5
   359          1
   360          0