##TITLE=Library Entry 114970
##JCAMP-DX=Revision 4.10 
##DATA TYPE=MASS SPECTRUM
##SAMPLE DESCRIPTION=Chemical Concepts
##NAMES=HP
##CAS NAME=l-Proline, 4-hydroxy-2-(2-propenyl)-, trans-
##MOLFORM=C8H13NO3
##CAS REGISTRY NO=97651-98-4
##MP= -300
##BP= -300
##MW= 171
##$RETENTION INDEX=0
##$CONDENSED SPECTRUM=NO
##NPOINTS= 75
##XYDATA=(XY..XY) 1 
    26         11
    27         80
    28         92
    29         59
    30        174
    31         33
    38         14
    39        153
    40         34
    41        369
    42        131
    43        113
    44         38
    45         39
    50          9
    51         21
    52         19
    53         58
    54        113
    55        110
    56        254
    57         99
    58         10
    59         33
    60         34
    61          6
    63          8
    65         29
    66         31
    67        114
    68        131
    69         53
    70         29
    71         43
    72          9
    73         12
    77         14
    78          6
    79         19
    80         86
    81         91
    82        169
    83         64
    84        168
    85         37
    86          6
    87          8
    91         14
    92          7
    93         28
    94         26
    95         18
    96         27
    97         26
    98         14
    99         13
   100         15
   105          6
   106         13
   107          9
   108        236
   109         39
   110         11
   111         14
   112        386
   113         28
   123          6
   124         14
   125         10
   126        660
   127         65
   128         10
   130        999
   131         70
   132         10