##TITLE=Library Entry 68843
##JCAMP-DX=Revision 4.10 
##DATA TYPE=MASS SPECTRUM
##SAMPLE DESCRIPTION=V. AMICO, DIP. SCI. CHEM., UNIV. CATANIA, CATANIA, ITAL
Y
##NAMES=HP
##CAS NAME=6-(2,5-Dihydroxy-3-methylphenyl)-1-[1,2-dimethyl-2-(4-methyl-1-ox
o-3-pentenyl)cyclopentyl]-4-methyl-4-hexen-2-one
##MOLFORM=C27H38O4
##CAS REGISTRY NO=97743-94-7
##MP= -300
##BP= -300
##MW= 426
##$RETENTION INDEX=0
##$CONDENSED SPECTRUM=NO
##NPOINTS= 19
##XYDATA=(XY..XY) 1 
    41        280
    43        140
    69        560
    81        180
    95        999
    97        220
   107         80
   109        120
   122         90
   137        280
   167        280
   175        220
   177        840
   191         30
   235         60
   329        170
   357         60
   408         40
   426        300