##TITLE=Library Entry 40788
##JCAMP-DX=Revision 4.10 
##DATA TYPE=MASS SPECTRUM
##SAMPLE DESCRIPTION=Chemical Concepts
##NAMES=HP
##CAS NAME=Silane, trimethyl[2-methylene-1-(4-pentenyl)cyclopropyl]-
##MOLFORM=C12H22Si
##CAS REGISTRY NO=97778-15-9
##MP= -300
##BP= -300
##MW= 194
##$RETENTION INDEX=0
##$CONDENSED SPECTRUM=NO
##NPOINTS= 81
##XYDATA=(XY..XY) 1 
    26          5
    27         45
    28         15
    29         31
    31         20
    35          3
    38          2
    39         57
    40         10
    41         57
    42          5
    43         83
    44         29
    45        152
    46         10
    47          6
    49          3
    50          2
    51         10
    52          8
    53         17
    54          7
    55         18
    57         10
    58         20
    59        106
    60          6
    61          2
    63          3
    65         10
    66          4
    67         11
    69         15
    70          4
    71         10
    72         16
    73        999
    74         77
    75         40
    77         13
    78          6
    79         21
    80          4
    81          7
    83         20
    84         13
    85         13
    86          8
    91         17
    92         15
    93          7
    95         11
    96          6
    97         13
    98          3
    99         10
   105         11
   107          3
   109         12
   110          6
   111          7
   112          2
   113          3
   119          4
   120         14
   121          4
   123          7
   124          3
   125          5
   135          3
   137          6
   138          2
   139          9
   140          3
   149         12
   151          5
   152          8
   153          3
   165          4
   166         10
   179          4