##TITLE=Library Entry 41047
##JCAMP-DX=Revision 4.10 
##DATA TYPE=MASS SPECTRUM
##SAMPLE DESCRIPTION=Chemical Concepts
##NAMES=HP
##CAS NAME=Silane, [1-(5-hexenyl)-2-methylenecyclopropyl]trimethyl-
##MOLFORM=C13H24Si
##CAS REGISTRY NO=97778-16-0
##MP= -300
##BP= -300
##MW= 208
##$RETENTION INDEX=0
##$CONDENSED SPECTRUM=NO
##NPOINTS= 101
##XYDATA=(XY..XY) 1 
    26          4
    27         39
    28          7
    29         26
    31         12
    36          3
    39         58
    40         13
    41         89
    42          6
    43         70
    44         25
    45        142
    46          8
    47          5
    51          8
    52          6
    53         22
    54          9
    55         29
    56          3
    57         11
    58         17
    59        209
    60         15
    61          8
    63          2
    65         15
    66          8
    67         23
    68          7
    69         19
    70          5
    71         15
    72         17
    73        999
    74         78
    75         55
    76          3
    77         19
    78         12
    79         35
    80         11
    81         19
    82          3
    83         29
    84          8
    85         44
    86          5
    87          6
    91         36
    92         29
    93         25
    94         14
    95         19
    96         19
    97         28
    98          7
    99         31
   100          3
   101          5
   103          3
   105         50
   106         32
   107          7
   108          5
   109         36
   110          7
   111         18
   112          6
   113          4
   117          7
   119         24
   120          3
   121         12
   123         15
   124          3
   125         12
   126          2
   127          2
   129          4
   133          9
   134         58
   135         20
   136          2
   137         45
   138          7
   139         10
   140          4
   147         14
   149          5
   151          3
   154          2
   163          4
   165         16
   166          3
   167          3
   179          2
   180          4
   181          2
   193          5