##TITLE=Library Entry 42068
##JCAMP-DX=Revision 4.10 
##DATA TYPE=MASS SPECTRUM
##SAMPLE DESCRIPTION=Chemical Concepts
##NAMES=HP
##CAS NAME=Silane, trimethyl[2-methylene-1-(trimethylsilyl)cyclopropyl]-
##MOLFORM=C10H22Si2
##CAS REGISTRY NO=97778-12-6
##MP= -300
##BP= -300
##MW= 198
##$RETENTION INDEX=0
##$CONDENSED SPECTRUM=NO
##NPOINTS= 101
##XYDATA=(XY..XY) 1 
    26          2
    27          3
    28          4
    29         14
    30          0
    31         13
    39          2
    40         27
    41          1
    42          3
    43         60
    44         20
    45        151
    46          9
    47          5
    50          0
    51          0
    52          1
    53         10
    54          3
    55         15
    56          2
    57          8
    58         15
    59         49
    60          3
    61          1
    63          0
    65          0
    66          2
    67         10
    68          2
    69         12
    70          5
    71          5
    72         12
    73        999
    74         90
    75         37
    76          1
    77          1
    79          2
    80          0
    81          7
    82         12
    83         30
    84          7
    85         17
    86          2
    87          1
    93          2
    94          0
    95         38
    96          7
    97         12
    98          1
    99         18
   100          2
   101          2
   103          0
   107          0
   108          0
   109         39
   110        234
   111         35
   112         10
   113          5
   115          4
   117          2
   123          5
   124          3
   125          3
   127          3
   128          0
   129         16
   130          3
   131          4
   133          0
   139          1
   140          0
   141         18
   142          3
   143          4
   145          1
   147          2
   153          1
   154          0
   155         53
   156          9
   157          4
   167          3
   169          3
   170          1
   181          1
   183         54
   184         11
   185          5
   186          0
   198         21
   199          5
   200          2