##TITLE=Library Entry 78092
##JCAMP-DX=Revision 4.10 
##DATA TYPE=MASS SPECTRUM
##SAMPLE DESCRIPTION=ASES Database, Dalian Institute, P.R. China
##NAMES=HP
##CAS NAME=Phenyl-tert-butyl-isopropoxyborane
##MOLFORM=C13H21BO
##CAS REGISTRY NO=97782-88-2
##MP= -300
##BP= -300
##MW= 204
##$RETENTION INDEX=0
##$CONDENSED SPECTRUM=NO
##NPOINTS= 20
##XYDATA=(XY..XY) 1 
    39         45
    41        161
    43        194
    45        524
    51         11
    52         11
    53         22
    57        123
    59        133
    77         33
    78         34
    79         10
   103         45
   104        270
   105        999
   106         33
   146         22
   147        101
   148         11
   162         10