##TITLE=Library Entry 50453
##JCAMP-DX=Revision 4.10 
##DATA TYPE=MASS SPECTRUM
##SAMPLE DESCRIPTION=NIST Mass Spectrometry Data Center, 1990.
##NAMES=HP
##CAS NAME=1-Ethyl-5-methylcyclopentene
##MOLFORM=C8H14
##CAS REGISTRY NO=97797-57-4
##MP= -300
##BP= -300
##MW= 110
##$RETENTION INDEX=815
##$CONDENSED SPECTRUM=NO
##NPOINTS= 36
##XYDATA=(XY..XY) 1 
    14         65
    15         31
    16         29
    27        148
    28         18
    29         62
    38         25
    39        247
    40         57
    41        227
    42         28
    43         16
    50         38
    51         90
    52         36
    53        162
    54         29
    55        141
    63         33
    65         81
    66         40
    67        410
    68         78
    69         26
    77        134
    78         33
    79        215
    81        999
    82         93
    91         54
    93         59
    95        547
    96         42
   109         30
   110        265
   111         29