##TITLE=Library Entry 29850
##JCAMP-DX=Revision 4.10 
##DATA TYPE=MASS SPECTRUM
##SAMPLE DESCRIPTION=A.Pleshkova, Nesmeyanov Inst.Org.Elem.Cpds, Moscow
##NAMES=HP
##CAS NAME=Propionitrile, 3-trimethylhydrazino-
##MOLFORM=C6H13N3
##CAS REGISTRY NO=97812-31-2
##MP= -300
##BP= -300
##MW= 127
##$RETENTION INDEX=0
##$CONDENSED SPECTRUM=NO
##NPOINTS= 24
##XYDATA=(XY..XY) 1 
    27         92
    28         81
    29         21
    30         62
    41         73
    42        234
    43        123
    44        654
    45        283
    46         12
    56        234
    57         23
    58         45
    59        999
    60         62
    61          9
    85         83
    86         21
    99         43
   100        292
   101         29
   112         23
   127         43
   128          9