##TITLE=Library Entry 30639
##JCAMP-DX=Revision 4.10 
##DATA TYPE=MASS SPECTRUM
##SAMPLE DESCRIPTION=A.Pleshkova, Nesmeyanov Inst.Org.Elem.Cpds, Moscow
##NAMES=HP
##CAS NAME=1,1-Dimethyl-2-[2-(methoxycarbonyl)prop-2-yl]hydrazine
##MOLFORM=C7H16N2O2
##CAS REGISTRY NO=97812-30-1
##MP= -300
##BP= -300
##MW= 160
##$RETENTION INDEX=0
##$CONDENSED SPECTRUM=NO
##NPOINTS= 35
##XYDATA=(XY..XY) 1 
    27         12
    28         22
    29         19
    30         20
    31         18
    41         17
    42         21
    43         22
    44         83
    45         25
    46         19
    56         15
    57         23
    58         17
    59        999
    60         63
    61          9
    69         12
    70         22
    71         25
    72         28
    73         12
    83         23
    84         16
    85         24
    86         15
    87         12
    98         22
    99         17
   100         21
   101        143
   102         23
   160        154
   161         22
   162          5