##TITLE=Library Entry 13330
##JCAMP-DX=Revision 4.10 
##DATA TYPE=MASS SPECTRUM
##SAMPLE DESCRIPTION=A. Brossi, LC, NIDDK, NIH, Bethesda, MD 20892
##NAMES=HP
##CAS NAME=6-O-Acetyl-1-[[4-bromophenyl]thio]-.beta.-d-glucoside S,S-dioxide
##MOLFORM=C14H17BrO8S
##CAS REGISTRY NO=97832-86-5
##MP= -300
##BP= -300
##MW= 424
##$RETENTION INDEX=0
##$CONDENSED SPECTRUM=NO
##NPOINTS= 168
##XYDATA=(XY..XY) 1 
    42        138
    43        999
    44         31
    45         96
    46          9
    47         12
    48          2
    49          2
    50         47
    51         19
    52          3
    53         22
    54          8
    55         84
    56         36
    57        188
    58         13
    59         17
    60        134
    61        201
    62          8
    63          6
    64          3
    65          7
    66          1
    67          3
    68          6
    69         91
    70          6
    71         98
    72          2
    73        205
    74         32
    75         62
    76         62
    77         35
    78          8
    79          2
    80          0
    81         44
    82          4
    83         10
    84          1
    85        163
    86         20
    87         35
    88          5
    89         10
    90          0
    91         11
    92          1
    93          5
    94          1
    95          4
    96         11
    97         85
    98         16
    99         59
   100         11
   101         17
   102          7
   103         36
   104          3
   105          2
   106          1
   107          6
   108          1
   109         96
   110          7
   111          2
   112          0
   113          7
   114          2
   115         43
   116         12
   117          3
   119          8
   120          0
   121          1
   122          1
   123          1
   124          3
   125          4
   126          2
   127        197
   128         12
   129          6
   131         26
   132          0
   133         16
   134          0
   135          1
   136          0
   137          0
   139         17
   140          1
   141          6
   142          1
   143          5
   144          3
   145        109
   146          7
   147          1
   149          0
   150          1
   151          0
   152          0
   154          0
   155         50
   156         12
   157         50
   158         11
   159          2
   161          1
   162          0
   163          3
   164          1
   165          0
   169         16
   170          1
   171          2
   172          3
   173          3
   174          2
   175          4
   176          0
   177          3
   178          0
   179          0
   181          1
   183          1
   185          1
   187        267
   188         23
   189          4
   190          0
   191          0
   198          0
   199          0
   200          0
   201          0
   203         30
   204          0
   205        144
   206         13
   207          3
   211          0
   214          0
   215          0
   219         27
   221         11
   223          8
   224          0
   226          0
   229          5
   230          0
   231          0
   233          0
   247          8
   248          0
   256          0
   263          0
   269          6
   289          0
   391          0
   407          0
   409          0
   414          0