##TITLE=Library Entry 14489
##JCAMP-DX=Revision 4.10 
##DATA TYPE=MASS SPECTRUM
##SAMPLE DESCRIPTION=LAC, NIDDK, NIH, Bethesda, MD 20892
##NAMES=HP
##CAS NAME=5-Pregnen-3.beta.,9.alpha.-diol-20-one 3-acetate
##MOLFORM=C23H34O4
##CAS REGISTRY NO=97831-48-6
##MP= -300
##BP= -300
##MW= 374
##$RETENTION INDEX=0
##$CONDENSED SPECTRUM=NO
##NPOINTS= 174
##XYDATA=(XY..XY) 1 
    41         56
    43        999
    45         20
    51          2
    53         27
    55         82
    57         10
    58          0
    59          0
    61         12
    62          0
    63          0
    65         15
    67         46
    69         12
    71         23
    72          0
    77         38
    79         52
    81         36
    82          0
    83         10
    84          7
    85          8
    86          0
    89          0
    91         66
    92          4
    93         82
    95         37
    96          4
    97          2
    98          1
    99          0
   103          7
   105        115
   106          4
   107         35
   108         27
   109         14
   110          2
   111          1
   113          0
   115         12
   117         19
   118         44
   120        164
   121         33
   122          4
   123          6
   124         34
   125          3
   127          2
   128          8
   129         10
   131         13
   132          2
   133         21
   135         20
   136          5
   137          6
   139          1
   141          7
   143         37
   145         60
   146         10
   147         12
   149          6
   151         11
   152          1
   153          4
   155         10
   156          3
   157         22
   158         11
   159         11
   161          6
   162          0
   163          4
   165          4
   166          0
   167          5
   168          1
   169          6
   170          1
   171          5
   173          7
   174          0
   175          4
   176          2
   177          3
   178          2
   179          2
   181          4
   182          1
   183          7
   184          0
   185          5
   187          3
   189          2
   191          3
   192          0
   193          4
   194         10
   195          5
   196          0
   197         10
   198          3
   199          1
   201          0
   202          0
   203          0
   205          1
   206          1
   207         13
   209          4
   211         10
   212          2
   213          2
   215          2
   216          0
   217          0
   218          0
   219          0
   221          4
   223          4
   225          5
   226          3
   227          1
   228          0
   229          0
   231          0
   235          0
   236          0
   237          3
   238          3
   239          1
   241          0
   243          0
   244          0
   245          0
   249          0
   251          1
   252          0
   253         19
   254          4
   255          2
   257          5
   258          0
   263          5
   264          1
   267          0
   268          1
   271          2
   272          0
   277          0
   278          2
   279          2
   281         38
   282          8
   283          1
   285          0
   295          1
   296        175
   297         46
   298          6
   299          0
   313          1
   314         12
   315          3
   316          0
   357          0
   374          1
   375          0