##TITLE=Library Entry 45276
##JCAMP-DX=Revision 4.10 
##DATA TYPE=MASS SPECTRUM
##SAMPLE DESCRIPTION=O A MAMER, MCGILL UNIVERSITY, MONTRE
##NAMES=HP
##CAS NAME=.alpha.-Linolenic acid, TMS derivative
##MOLFORM=C21H38O2Si
##CAS REGISTRY NO=97844-13-8
##MP= -300
##BP= -300
##MW= 350
##$RETENTION INDEX=2218
##$CONDENSED SPECTRUM=NO
##NPOINTS= 137
##XYDATA=(XY..XY) 1 
    14          7
    15         19
    18         15
    26         16
    27         71
    28         45
    29        114
    32          8
    39         85
    40         18
    41        463
    42         36
    43        137
    44         23
    45         89
    47         50
    50          9
    51         19
    52         20
    53         82
    54         72
    55        393
    56         30
    57         53
    58         19
    59         28
    60         13
    61         66
    65         48
    66         70
    67        513
    68         99
    69        147
    70         15
    71         20
    72         34
    73        948
    74        100
    75        999
    76         76
    77        180
    78        108
    79        774
    80        318
    81        345
    82         79
    83         66
    84         23
    85         21
    89         31
    91        234
    92         55
    93        394
    94        214
    95        525
    96         79
    97         46
    98         20
    99         20
   101         11
   105        112
   106         43
   107        214
   108        363
   109        134
   110         25
   111         20
   116         41
   117        202
   118         26
   119         78
   120         35
   121        168
   122        111
   123         50
   124         11
   125         10
   129        233
   130         34
   131         98
   132         57
   133         66
   134         28
   135        135
   136         81
   137         25
   143         24
   145        120
   146         20
   147         54
   148         21
   149        125
   150         54
   151         15
   157         19
   159         25
   161         24
   162         22
   163         61
   164         31
   165         10
   171         24
   173         57
   174         11
   175         20
   176         14
   177         22
   178         17
   185         21
   187         42
   189         16
   191         39
   192         17
   199         16
   201         15
   204         17
   205          8
   213          9
   215          7
   217         10
   218         10
   227         12
   232          8
   260         10
   279         10
   281          9
   291         10
   294         23
   295          9
   307         12
   321         19
   335        244
   336         69
   337         22
   350         77
   351         24
   352          8