##TITLE=Library Entry 17485
##JCAMP-DX=Revision 4.10 
##DATA TYPE=MASS SPECTRUM
##SAMPLE DESCRIPTION=J.N. PIRL, DEP. PUBL. HEALTH, DIV. LAB., CHICAGO, ILL.,
 USA
##NAMES=HP
##CAS NAME=N-(2-Methoxyethyl)alanine
##MOLFORM=C6H13NO3
##CAS REGISTRY NO=97884-64-5
##MP= -300
##BP= -300
##MW= 147
##$RETENTION INDEX=0
##$CONDENSED SPECTRUM=NO
##NPOINTS= 16
##XYDATA=(XY..XY) 1 
    42        125
    43        171
    44        213
    45        999
    56        171
    58        197
    59        237
    70         72
    73        105
    74        250
    75        112
    80         92
    82        105
   102        368
   115        224
   147         53