##TITLE=Library Entry 57340
##JCAMP-DX=Revision 4.10 
##DATA TYPE=MASS SPECTRUM
##SAMPLE DESCRIPTION=P. Vainiotalo, Dep. Chem., Univ. Joensuu, Joensuu, Finl
and
##NAMES=HP
##CAS NAME=3-Cyclohexene-1-carboxylic acid, 6-amino-, trans-
##MOLFORM=C7H11NO2
##CAS REGISTRY NO=97945-19-2
##MP= -300
##BP= -300
##MW= 141
##$RETENTION INDEX=0
##$CONDENSED SPECTRUM=NO
##NPOINTS= 64
##XYDATA=(XY..XY) 1 
    14         14
    15         22
    16          8
    17        103
    26          9
    27         69
    29         28
    30        130
    31          6
    36         31
    38         16
    39         94
    41        102
    42         82
    43        136
    44         30
    45         15
    46          9
    47          8
    50         13
    51         34
    52         21
    53         43
    54         58
    55         45
    56         56
    57         10
    61          6
    63          9
    65         37
    66         19
    67         89
    68         78
    69        631
    70        106
    71          7
    72          9
    77         75
    78         25
    79        116
    80         68
    81         53
    82        444
    83         30
    87        999
    88         45
    89          6
    90         15
    91          4
    92          9
    93         15
    94         59
    95         31
    96         53
    97          7
   100          7
   104          7
   122         10
   123         11
   124         21
   140          8
   141        227
   142         24
   143          5