##TITLE=Library Entry 44103
##JCAMP-DX=Revision 4.10 
##DATA TYPE=MASS SPECTRUM
##SAMPLE DESCRIPTION=L.Prokai, J.Chromatogr.,329,290 (1985)
##NAMES=HP
##CAS NAME=2,4'-Methylenediphenol, 2TMS derivative
##MOLFORM=C19H28O2Si2
##CAS REGISTRY NO=97993-27-6
##MP= -300
##BP= -300
##MW= 344
##$RETENTION INDEX=2040
##$CONDENSED SPECTRUM=NO
##NPOINTS= 37
##XYDATA=(XY..XY) 1 
    73        999
    74         80
    75         51
    76         43
    77          3
   135         10
   136         14
   147         36
   148         18
   149         18
   157         36
   158         10
   162          3
   163         36
   164          3
   165         10
   166         14
   179         87
   180         18
   181         25
   182          3
   207         25
   222         18
   223         25
   241         10
   242         51
   243          7
   255         14
   256         10
   271          7
   329         69
   330         18
   343         76
   344        675
   345        197
   346         58
   347          7