##TITLE=Library Entry 30290
##JCAMP-DX=Revision 4.10 
##DATA TYPE=MASS SPECTRUM
##SAMPLE DESCRIPTION=Chemical Concepts
##NAMES=HP
##CAS NAME=3-(2-Methoxyethoxymethoxy)-2-methylpentan-1-ol
##MOLFORM=C10H22O4
##CAS REGISTRY NO=97991-45-2
##MP= -300
##BP= -300
##MW= 206
##$RETENTION INDEX=0
##$CONDENSED SPECTRUM=NO
##NPOINTS= 96
##XYDATA=(XY..XY) 1 
    26          1
    27         11
    28          3
    29         34
    30          2
    31         46
    33          1
    34          0
    38          0
    39          8
    40          1
    41         34
    42         22
    43         18
    44         13
    45         57
    46          2
    47          2
    48          0
    50          0
    52          0
    53          2
    54          1
    55         45
    56          4
    57         14
    58         13
    59        999
    60         12
    61          4
    62          0
    63          0
    65          0
    67          1
    68          0
    69          5
    70         10
    71          7
    72          2
    73         11
    74          1
    75          3
    76          3
    77         39
    78          1
    79          0
    81          0
    82          1
    83         57
    84         12
    85          1
    86          0
    87          1
    88          1
    89        830
    90         11
    91          1
    92          0
    95          0
    97          0
    98          0
    99          1
   100          3
   101         38
   102          2
   103          3
   104          0
   105          3
   106          0
   107          1
   108          0
   112          0
   113          2
   114          0
   115          0
   116          0
   117         11
   118          9
   119          0
   120          0
   127          0
   128          0
   129          0
   130          0
   131          7
   132          0
   133          0
   135          0
   136          2
   137          0
   138          0
   141          0
   147          4
   148          1
   149          0
   177          0