##TITLE=Library Entry 44102
##JCAMP-DX=Revision 4.10 
##DATA TYPE=MASS SPECTRUM
##SAMPLE DESCRIPTION=L.Prokai, J.Chromatogr.,329,290 (1985)
##NAMES=HP
##CAS NAME=2,2'-Methylenediphenol, 2TMS derivative
##MOLFORM=C19H28O2Si2
##CAS REGISTRY NO=97993-26-5
##MP= -300
##BP= -300
##MW= 344
##$RETENTION INDEX=1952
##$CONDENSED SPECTRUM=NO
##NPOINTS= 32
##XYDATA=(XY..XY) 1 
    73        999
    74         79
    75         39
    76          3
    91         10
   133         14
   134         14
   136          7
   146          7
   147         90
   148         21
   166         10
   179         25
   180         18
   181         10
   207         61
   208         14
   209          7
   210         14
   241         97
   242         21
   243          3
   281         14
   282          7
   329         47
   330         18
   331          3
   343         25
   344        452
   345        130
   346         43
   347         10