##TITLE=Library Entry 49943
##JCAMP-DX=Revision 4.10 
##DATA TYPE=MASS SPECTRUM
##SAMPLE DESCRIPTION=Japan AIST/NIMC Database- Spectrum MS-NW-3749
##NAMES=HP
##CAS NAME=2-Furfurylthiol
##MOLFORM=C5H6OS
##CAS REGISTRY NO=98-02-2
##MP= -300
##BP= -300
##MW= 114
##$RETENTION INDEX=911
##$CONDENSED SPECTRUM=NO
##NPOINTS= 72
##XYDATA=(XY..XY) 1 
    13          1
    14          3
    15          1
    17          1
    18          6
    25          2
    26         18
    27        136
    28          8
    29         22
    31          2
    32          7
    33         11
    34         10
    36          2
    37         12
    38         22
    39         47
    40          4
    41         14
    42          8
    43          6
    44          6
    45         90
    46          7
    47         13
    48          1
    49          7
    50         37
    51         69
    52         57
    53        453
    54         23
    55          3
    56          1
    57          9
    58         16
    59         12
    60          2
    61          1
    62          1
    63          1
    64          1
    65          1
    66          1
    68          3
    69          9
    70          1
    71          4
    76          2
    77          1
    79          4
    80          5
    81        999
    82         59
    83          5
    84          5
    85         21
    86          2
    87          1
    91          3
    92          1
    95          1
    97          1
   105          1
   111          3
   112          4
   113         10
   114        216
   115         14
   116         10
   117          1