##TITLE=Library Entry 47372
##JCAMP-DX=Revision 4.10 
##DATA TYPE=MASS SPECTRUM
##SAMPLE DESCRIPTION=Japan AIST/NIMC Database- Spectrum MS-NW-1007
##NAMES=HP
##CAS NAME=Benzenesulfonyl chloride
##MOLFORM=C6H5ClO2S
##CAS REGISTRY NO=98-09-9
##MP= -300
##BP= -300
##MW= 176
##$RETENTION INDEX=0
##$CONDENSED SPECTRUM=NO
##NPOINTS= 77
##XYDATA=(XY..XY) 1 
    17          2
    18          7
    26          3
    27         20
    28         15
    32          5
    35          3
    36          6
    37         11
    38         18
    39         43
    40          1
    41          1
    44          5
    45          9
    48         16
    49          8
    50        111
    51        293
    52         15
    53          5
    54          1
    55          1
    56          2
    57          4
    58          2
    59          1
    60          1
    61          4
    62          6
    63          8
    64         19
    65         29
    66          6
    68          1
    69         12
    70          4
    71          2
    73          7
    74         32
    75         26
    76         25
    77        999
    78         84
    79          3
    81          2
    82          3
    83          1
    84          3
    85          1
    91          1
    92          1
    93          1
    94          1
    95          2
    97         12
    99          2
   108          3
   109         19
   110         13
   111          3
   112         21
   113          2
   114          6
   115          1
   125         32
   126          5
   127          2
   141        393
   142         28
   143         21
   144          1
   176         87
   177          6
   178         31
   179          2
   180          1