##TITLE=Library Entry 52174
##JCAMP-DX=Revision 4.10 
##DATA TYPE=MASS SPECTRUM
##SAMPLE DESCRIPTION=RADIAN CORP
##NAMES=HP
##CAS NAME=Silane, trichlorocyclohexyl-
##MOLFORM=C6H11Cl3Si
##CAS REGISTRY NO=98-12-4
##MP= -300
##BP= -300
##MW= 216
##$RETENTION INDEX=0
##$CONDENSED SPECTRUM=NO
##NPOINTS= 89
##XYDATA=(XY..XY) 1 
    15          1
    26          7
    27         96
    29         62
    38          3
    39        169
    40         23
    41        289
    42         39
    43         18
    50          4
    51         18
    52         15
    53         67
    54         95
    55        666
    56         41
    59          2
    63         37
    64          3
    65         26
    66          7
    67        106
    68          7
    69          4
    77         21
    78          5
    79         34
    80          9
    81         57
    82        100
    83        999
    84         74
    95          2
    98         18
    99         27
   100         14
   101         17
   102          3
   103          4
   112          7
   113          4
   114          4
   115          8
   116          7
   117          6
   118          2
   123          4
   125         11
   126          1
   127          6
   129         25
   130          2
   131         16
   132          2
   133        147
   134          2
   135        141
   136          8
   137         56
   138          9
   139         16
   140          5
   141          4
   143          2
   151          5
   152          2
   153          4
   170          4
   172          2
   174          6
   176          7
   177          1
   178          1
   179          1
   181          3
   183          2
   184          1
   187          3
   188          2
   189          3
   190          2
   212          6
   214          4
   216         34
   217          1
   218         33
   219          4
   220         10