##TITLE=Library Entry 31897
##JCAMP-DX=Revision 4.10 
##DATA TYPE=MASS SPECTRUM
##SAMPLE DESCRIPTION=NIST Mass Spectrometry Data Center, 1990.
##NAMES=HP
##CAS NAME=m-Aminobenzenesulfonamide
##MOLFORM=C6H8N2O2S
##CAS REGISTRY NO=98-18-0
##MP= -300
##BP= -300
##MW= 172
##$RETENTION INDEX=0
##$CONDENSED SPECTRUM=NO
##NPOINTS= 47
##XYDATA=(XY..XY) 1 
    16         23
    17         14
    27         26
    28         52
    32         20
    37         36
    38         94
    39        285
    40         35
    41         95
    42         41
    44         23
    45         16
    46         17
    48         27
    50         49
    51         45
    52        109
    53         87
    54         48
    55         17
    61         26
    62         56
    63        198
    64        210
    65        999
    66        123
    67         25
    68         20
    69         12
    74         17
    75         13
    80        202
    81        289
    82         49
    90         34
    91        167
    92        884
    93         89
   107        154
   108        807
   109        204
   110         16
   156         30
   172        857
   173         90
   174         45