##TITLE=Library Entry 46605
##JCAMP-DX=Revision 4.10 
##DATA TYPE=MASS SPECTRUM
##SAMPLE DESCRIPTION=Exported from NIST MS Search
##NAMES=HP
##CAS NAME=Benzenesulfonamide
##MOLFORM=C6H7NO2S
##CAS REGISTRY NO=98-10-2
##MP= -300
##BP= -300
##MW= 157
##$RETENTION INDEX=1525
##$CONDENSED SPECTRUM=NO
##NPOINTS= 33
##XYDATA=(XY..XY) 1 
    15         21
    27         89
    32         21
    37         10
    38         38
    39        116
    40         16
    48         12
    49          4
    50        254
    51        572
    52         31
    63         21
    64         10
    65         46
    66         67
    67         42
    70         10
    74         63
    75         42
    76         38
    77        999
    78         67
    93        364
    94        190
    95         16
   125         16
   141        211
   142         23
   143         16
   157        300
   158         42
   159         16