##TITLE=Library Entry 26179
##JCAMP-DX=Revision 4.10 
##DATA TYPE=MASS SPECTRUM
##SAMPLE DESCRIPTION=Japan AIST/NIMC Database- Spectrum MS-NW-4746
##NAMES=HP
##CAS NAME=Cyclohexanone, 4-(1,1-dimethylethyl)-
##MOLFORM=C10H18O
##CAS REGISTRY NO=98-53-3
##MP= -300
##BP= -300
##MW= 154
##$RETENTION INDEX=1208
##$CONDENSED SPECTRUM=NO
##NPOINTS= 72
##XYDATA=(XY..XY) 1 
    15          3
    17          3
    18         10
    26          2
    27         51
    28         13
    29        113
    30          2
    38          1
    39         62
    40         14
    41        285
    42         24
    43         87
    44          3
    45          1
    50          1
    51          5
    52          4
    53         34
    54         23
    55        158
    56         56
    57        999
    58         47
    59          1
    63          1
    65          7
    66          5
    67         38
    68         18
    69        104
    70         71
    71          5
    77          8
    78          3
    79         19
    80         14
    81         23
    82          7
    83        180
    84         11
    85          1
    91          4
    93         10
    94          4
    95         19
    96         10
    97         89
    98        779
    99        104
   100          8
   105          2
   107          2
   109          2
   110          1
   111          6
   112          1
   119          3
   121         16
   122          2
   123          1
   125          1
   135          1
   136          1
   137          1
   138          1
   139         49
   140          5
   154        179
   155         22
   156          2