##TITLE=Library Entry 25696
##JCAMP-DX=Revision 4.10 
##DATA TYPE=MASS SPECTRUM
##SAMPLE DESCRIPTION=Japan AIST/NIMC Database- Spectrum MS-NW-4333
##NAMES=HP
##CAS NAME=Cyclohexanol, 4-(1,1-dimethylethyl)-
##MOLFORM=C10H20O
##CAS REGISTRY NO=98-52-2
##MP= -300
##BP= -300
##MW= 156
##$RETENTION INDEX=1214
##$CONDENSED SPECTRUM=NO
##NPOINTS= 75
##XYDATA=(XY..XY) 1 
    15          6
    17          2
    18          7
    26          3
    27         60
    28          8
    29        139
    30          4
    31         15
    32          1
    38          2
    39         61
    40         11
    41        280
    42         18
    43         79
    44         22
    45          5
    50          2
    51          7
    52          4
    53         36
    54         81
    55        153
    56        369
    57        999
    58         43
    59          5
    63          1
    65          7
    66          6
    67        306
    68         24
    69         53
    70         12
    71          7
    72          2
    75          1
    77          8
    78          2
    79         30
    80        160
    81        388
    82        261
    83        212
    84         14
    85          2
    91          3
    93          4
    94          6
    95         41
    96         13
    97          7
    98         17
    99        129
   100         11
   101         22
   102          1
   105          1
   107          3
   108          1
   109          4
   110         17
   111          2
   121          2
   123        143
   124         14
   125          1
   137          2
   138         65
   139          8
   141          2
   154          1
   155          2
   156          1