##TITLE=Library Entry 62541
##JCAMP-DX=Revision 4.10 
##DATA TYPE=MASS SPECTRUM
##SAMPLE DESCRIPTION=NIST Mass Spectrometry Data Center, 1990.
##NAMES=HP
##CAS NAME=Benzenesulfonyl chloride, 4-methyl-
##MOLFORM=C7H7ClO2S
##CAS REGISTRY NO=98-59-9
##MP= -300
##BP= -300
##MW= 190
##$RETENTION INDEX=0
##$CONDENSED SPECTRUM=NO
##NPOINTS= 74
##XYDATA=(XY..XY) 1 
    15          3
    18          0
    26          6
    27         14
    28          2
    32          2
    35          6
    36          3
    37          8
    38         23
    39        124
    40         11
    41         26
    42          2
    43          4
    44          4
    45         28
    48         18
    49          6
    50         41
    51         56
    52         18
    53         13
    57          3
    58          3
    60          2
    61         18
    62         46
    63        102
    64         40
    65        273
    66         17
    67          5
    69         11
    70          4
    71          3
    73          4
    74         12
    75         10
    76          6
    77         32
    78         12
    79         10
    82          3
    84          1
    85          6
    86         10
    87          7
    88          1
    89         89
    90          1
    91        999
    92         72
    93          5
    95          2
    97          2
    99          3
   108          2
   121          4
   123          0
   124          2
   125          9
   126          2
   127          3
   139          7
   155        441
   156         39
   157         23
   182          2
   190        133
   191         13
   192         51
   193          4
   194          2