##TITLE=Library Entry 88186
##JCAMP-DX=Revision 4.10 
##DATA TYPE=MASS SPECTRUM
##SAMPLE DESCRIPTION=R. F. DEVINE, CALGON CORP., PITTSBURGH, PA., USA
##NAMES=HP
##CAS NAME=Benzene, 1-chloro-4-(methylsulfonyl)-
##MOLFORM=C7H7ClO2S
##CAS REGISTRY NO=98-57-7
##MP= -300
##BP= -300
##MW= 190
##$RETENTION INDEX=0
##$CONDENSED SPECTRUM=NO
##NPOINTS= 77
##XYDATA=(XY..XY) 1 
    15         53
    18          2
    27          7
    29         14
    37         14
    38         23
    39         23
    41         21
    42          7
    43         30
    45         30
    46          5
    47          2
    48         14
    49         51
    50        312
    51        113
    52          2
    53          3
    55         14
    56          5
    57         46
    60          0
    61         28
    62         42
    63         90
    64         21
    65         16
    69         19
    70          4
    71         23
    72          9
    73         90
    74        233
    75        590
    76        111
    77         14
    79         23
    81          2
    83          5
    84         21
    85         79
    86          9
    87         23
    89          9
    91          3
    95          7
    96          2
    98          5
    99        155
   100          7
   101         42
   102          4
   108         14
   109          5
   110         53
   111        999
   112         84
   113        324
   114         23
   125          7
   126         12
   127        317
   128        132
   129        111
   130         37
   131         19
   151         12
   174          7
   175        197
   176         16
   177         62
   189          2
   190        115
   191          5
   192         39
   193          2