##TITLE=Library Entry 30324
##JCAMP-DX=Revision 4.10 
##DATA TYPE=MASS SPECTRUM
##SAMPLE DESCRIPTION=NIST Mass Spectrometry Data Center, 1990.
##NAMES=HP
##CAS NAME=.alpha.-Terpineol
##MOLFORM=C10H18O
##CAS REGISTRY NO=98-55-5
##MP= -300
##BP= -300
##MW= 154
##$RETENTION INDEX=1189
##$CONDENSED SPECTRUM=NO
##NPOINTS= 64
##XYDATA=(XY..XY) 1 
    14         14
    15         16
    27         98
    28         35
    29         63
    30         14
    31         78
    32          3
    39        232
    40         65
    41        288
    42         37
    43        357
    44         13
    45         21
    50         31
    51         83
    52         41
    53        192
    54         58
    55        164
    57         24
    59        999
    60         34
    61         10
    62         15
    63         39
    64         15
    65        113
    66         46
    67        417
    68        352
    69         61
    70         10
    71         93
    77        267
    78         64
    79        337
    80        120
    81        408
    82         31
    89         12
    91        309
    92        304
    93        909
    94        168
    95        153
    96         46
   103         22
   104         11
   105         89
   106         21
   107        134
   108         51
   109          8
   115         22
   117         23
   119        101
   121        555
   122         47
   134         21
   136        438
   137         50
   139         65