##TITLE=Library Entry 88863
##JCAMP-DX=Revision 4.10 
##DATA TYPE=MASS SPECTRUM
##SAMPLE DESCRIPTION=Japan AIST/NIMC Database- Spectrum MS-NW-1901
##NAMES=HP
##CAS NAME=Benzenesulfonyl chloride, 4-chloro-
##MOLFORM=C6H4Cl2O2S
##CAS REGISTRY NO=98-60-2
##MP= -300
##BP= -300
##MW= 210
##$RETENTION INDEX=0
##$CONDENSED SPECTRUM=NO
##NPOINTS= 95
##XYDATA=(XY..XY) 1 
    26          3
    27          5
    28         11
    32          2
    35          4
    36         10
    37         22
    38         35
    39         13
    44          7
    45         11
    47          3
    48         14
    49         16
    50        213
    51         79
    52          4
    53          4
    54          2
    55          6
    56          3
    57          5
    58          2
    60          4
    61         20
    62         12
    63         22
    64         16
    65          1
    68          1
    69         14
    70          2
    71          2
    72          4
    73         49
    74        116
    75        437
    76         83
    77          9
    79          3
    81          4
    82          4
    83          1
    84         12
    85         45
    86          6
    87         15
    88          3
    89          1
    93          1
    95          4
    96          2
    97          1
    99         24
   100          1
   101          8
   105          1
   106          1
   107          3
   108         11
   109          5
   110          9
   111        999
   112         77
   113        318
   114         23
   115          2
   127         11
   128          1
   129          3
   131          9
   133          3
   140          1
   142          2
   143          5
   144          3
   145          2
   146         16
   147          2
   148         10
   150          1
   159         14
   160          1
   161          5
   175        652
   176         48
   177        241
   178         17
   179         10
   210        155
   211         11
   212        107
   213          8
   214         20
   215          1