##TITLE=Library Entry 88931
##JCAMP-DX=Revision 4.10 
##DATA TYPE=MASS SPECTRUM
##SAMPLE DESCRIPTION=Japan AIST/NIMC Database- Spectrum MS-NW-7211
##NAMES=HP
##CAS NAME=Benzenesulfonamide, 4-chloro-
##MOLFORM=C6H6ClNO2S
##CAS REGISTRY NO=98-64-6
##MP= -300
##BP= -300
##MW= 191
##$RETENTION INDEX=0
##$CONDENSED SPECTRUM=NO
##NPOINTS= 119
##XYDATA=(XY..XY) 1 
    16          7
    17          1
    18          3
    25          1
    26          4
    27          7
    28         10
    29          1
    32          5
    33          1
    34          1
    35          1
    36          8
    37         18
    38         27
    39         24
    40          1
    41          4
    42          1
    43          1
    44          7
    45         10
    46          7
    47          7
    48         11
    49         15
    50        192
    51         80
    52          8
    53          5
    54          2
    55          1
    57          4
    58          2
    60          4
    61         20
    62         13
    63         32
    64         74
    65         39
    66          5
    67          1
    68          2
    69         12
    70          2
    71          2
    72          5
    73         41
    74        121
    75        464
    76         88
    77         10
    78          1
    79          3
    80         10
    81          4
    82          3
    83          2
    84         14
    85         45
    86          8
    87         19
    88          1
    89          2
    90          4
    91          7
    92         15
    93          5
    95          4
    96          2
    97          2
    98          1
    99         36
   100         11
   101         11
   102          4
   104          1
   105          1
   106          1
   107          2
   108         10
   109          5
   110         17
   111        999
   112         72
   113        324
   114         24
   115          2
   117          1
   124          1
   125          1
   126          6
   127        174
   128        303
   129         78
   130         98
   131         14
   132          1
   133          3
   139          2
   140          1
   142          3
   143          2
   144          1
   159          9
   160          1
   161          4
   174          2
   175        477
   176         35
   177        179
   178         12
   179          8
   191        503
   192         44
   193        188
   194         16
   195          9
   196          1