##TITLE=Library Entry 86583
##JCAMP-DX=Revision 4.10 
##DATA TYPE=MASS SPECTRUM
##SAMPLE DESCRIPTION=Japan AIST/NIMS Database - Spectrum MS-NW-1183
##NAMES=HP
##CAS NAME=Benzenesulfonic acid, 4-hydroxy-
##MOLFORM=C6H6O4S
##CAS REGISTRY NO=98-67-9
##MP= -300
##BP= -300
##MW= 174
##$RETENTION INDEX=0
##$CONDENSED SPECTRUM=NO
##NPOINTS= 107
##XYDATA=(XY..XY) 1 
    14          3
    15          4
    16          5
    25          3
    26         21
    27         85
    28         37
    29         27
    30          1
    31         10
    32          7
    33          1
    34          3
    36          4
    37         35
    38        115
    39        532
    40         36
    41         10
    42         13
    43         12
    44         10
    45         18
    46          6
    47          6
    48         68
    49          9
    50         63
    51         60
    52         30
    53        139
    54         27
    55         64
    56          4
    57          7
    58          5
    59          1
    60          6
    61         35
    62         88
    63        238
    64        208
    65        660
    66         87
    67         11
    68          5
    69         26
    70          8
    71          6
    72          1
    73          9
    74         31
    75         23
    76          8
    77          6
    78          2
    79         10
    80         78
    81        419
    82         56
    83          6
    84          3
    85          7
    86          1
    87          2
    89          1
    90          3
    91          6
    92        130
    93        480
    94        327
    95         24
    96          9
    97          8
    98          5
    99          1
   107          2
   108         36
   109        999
   110        397
   111         28
   112          3
   113          8
   114          1
   115          2
   116          1
   123          1
   124          6
   125          5
   126          6
   127          3
   128          6
   129          4
   131          2
   139          1
   140          2
   141         32
   142          9
   143          2
   156         75
   157        202
   158         19
   159         11
   174        849
   175         66
   176         47
   177          3