##TITLE=Library Entry 85358
##JCAMP-DX=Revision 4.10 
##DATA TYPE=MASS SPECTRUM
##SAMPLE DESCRIPTION=RADIAN CORP
##NAMES=HP
##CAS NAME=Benzenesulfonyl fluoride, 4-amino-
##MOLFORM=C6H6FNO2S
##CAS REGISTRY NO=98-62-4
##MP= -300
##BP= -300
##MW= 175
##$RETENTION INDEX=0
##$CONDENSED SPECTRUM=NO
##NPOINTS= 40
##XYDATA=(XY..XY) 1 
    16          2
    28        102
    32         33
    37          3
    38         53
    39        175
    40         18
    41         74
    42          7
    48         13
    50         35
    51         35
    52        121
    53        114
    54         29
    61         24
    62         83
    63        215
    64        171
    65        885
    66         99
    67         83
    69          7
    74         15
    79         21
    80        587
    81         32
    83         32
    84         47
    90         12
    91        114
    92        309
    93          7
   107          2
   108        999
   109         60
   111        152
   175        970
   176         50
   177         32