##TITLE=Library Entry 88770
##JCAMP-DX=Revision 4.10 
##DATA TYPE=MASS SPECTRUM
##SAMPLE DESCRIPTION=Leung Pu, NIH, Bethesda, Maryland, U.S.
##NAMES=HP
##CAS NAME=4-Chlorobenzenesulfonic acid
##MOLFORM=C6H5ClO3S
##CAS REGISTRY NO=98-66-8
##MP= -300
##BP= -300
##MW= 192
##$RETENTION INDEX=0
##$CONDENSED SPECTRUM=NO
##NPOINTS= 87
##XYDATA=(XY..XY) 1 
    41         12
    43         12
    44          6
    45         62
    47         38
    48        109
    49        130
    50        324
    51        166
    52          6
    53         18
    55         13
    57         37
    58         21
    60         17
    61         46
    62         54
    63        161
    64         33
    65        192
    66          6
    69        128
    70         18
    71         20
    72          8
    73        142
    74        232
    75        792
    76        143
    77         42
    79         36
    81         92
    82         59
    84        110
    85        103
    86         55
    87         46
    88          6
    89         18
    91         46
    92          7
    93         26
    95         35
    96         19
    97         15
    99        257
   101        120
   102         19
   105         14
   106          7
   107         69
   108        382
   109         43
   110         26
   111        999
   112        218
   113        314
   114         75
   115         22
   124         14
   127         97
   128        278
   129         46
   130        105
   131        126
   133         51
   139         13
   142         28
   143        391
   144         23
   145        161
   146          9
   147          9
   152         15
   159        887
   161        388
   162         29
   163         15
   172         28
   175        595
   176         37
   177        280
   178         37
   179         14
   191          5
   192        238
   194        114