##TITLE=Library Entry 53478
##JCAMP-DX=Revision 4.10 
##DATA TYPE=MASS SPECTRUM
##SAMPLE DESCRIPTION=Japan AIST/NIMC Database- Spectrum MS-NW-3151
##NAMES=HP
##CAS NAME=L-Pyroglutamic acid
##MOLFORM=C5H7NO3
##CAS REGISTRY NO=98-79-3
##MP= -300
##BP= -300
##MW= 129
##$RETENTION INDEX=0
##$CONDENSED SPECTRUM=NO
##NPOINTS= 44
##XYDATA=(XY..XY) 1 
    14          3
    15          7
    17          2
    18          7
    25          2
    26         22
    27         51
    28        254
    29         27
    30         17
    31          2
    36          3
    37          4
    38          7
    39         31
    40          9
    41        260
    42         13
    43          5
    44         19
    45         29
    46          2
    51          3
    52          8
    53          5
    54         24
    55         37
    56        125
    57          8
    66          9
    67          5
    68          4
    69          3
    71          1
    73         12
    74          4
    82          4
    83         30
    84        999
    85         52
    86          3
   101          7
   129         33
   130          2