##TITLE=Library Entry 109586
##JCAMP-DX=Revision 4.10 
##DATA TYPE=MASS SPECTRUM
##SAMPLE DESCRIPTION=NIST Mass Spectrometry Data Center, 1998.
##NAMES=HP
##CAS NAME=Benzene, (dichloromethyl)-
##MOLFORM=C7H6Cl2
##CAS REGISTRY NO=98-87-3
##MP= -300
##BP= -300
##MW= 160
##$RETENTION INDEX=1107
##$CONDENSED SPECTRUM=NO
##NPOINTS= 70
##XYDATA=(XY..XY) 1 
    25          1
    26          5
    27          5
    35          6
    36          3
    37         15
    38         25
    39         54
    40          5
    41          1
    43         13
    44         23
    47          3
    48          3
    49         13
    50         50
    51         49
    52          7
    53          1
    60          6
    61         30
    62         87
    63        155
    64         25
    65         14
    66          1
    71          1
    72          4
    73         32
    74         12
    75         21
    76          3
    77          6
    78          2
    83          2
    84          5
    85         13
    86         18
    87         15
    88          6
    89        224
    90         53
    91          5
    96          2
    97         12
    98          1
    99         66
   100          4
   101         21
   102          1
   105          2
   106          2
   107          1
   109          1
   110          1
   123          8
   125        999
   126         82
   127        337
   128         26
   129          1
   133          2
   135          1
   159          5
   160         99
   161         11
   162         63
   163          5
   164         10
   165          1