##TITLE=Library Entry 20401
##JCAMP-DX=Revision 4.10 
##DATA TYPE=MASS SPECTRUM
##SAMPLE DESCRIPTION=Japan AIST/NIMC Database- Spectrum MS-NW-4853
##NAMES=HP
##CAS NAME=Cyclohexanecarboxylic acid
##MOLFORM=C7H12O2
##CAS REGISTRY NO=98-89-5
##MP= -300
##BP= -300
##MW= 128
##$RETENTION INDEX=1126
##$CONDENSED SPECTRUM=NO
##NPOINTS= 81
##XYDATA=(XY..XY) 1 
    14          1
    15         13
    17          2
    18          7
    26         18
    27        184
    28         50
    29        138
    30          4
    31          9
    37          4
    38         11
    39        195
    40         35
    41        574
    42         66
    43         78
    44          6
    45         44
    46          2
    47          9
    49          1
    50         12
    51         23
    52         10
    53         77
    54        105
    55        999
    56        418
    57         23
    58         10
    59          5
    60        125
    61         66
    62          3
    63          3
    65         10
    66         15
    67        145
    68        381
    69        221
    70         11
    71         15
    72          6
    73        751
    74         44
    75          4
    77         12
    78          6
    79         28
    80          7
    81        103
    82        144
    83        545
    84         37
    85         14
    86         82
    87         80
    88          3
    91          1
    92          4
    93          1
    94          1
    95          9
    96         13
    97         12
    98          1
    99        185
   100         28
   101          2
   108          1
   109          7
   110        137
   111         14
   112          1
   113         37
   114          3
   127         24
   128        276
   129         27
   130          2