##TITLE=Library Entry 49150
##JCAMP-DX=Revision 4.10 
##DATA TYPE=MASS SPECTRUM
##SAMPLE DESCRIPTION=NIST Mass Spectrometry Data Center, 1998.
##NAMES=HP
##CAS NAME=Benzenemethanol, .alpha.-methyl-
##MOLFORM=C8H10O
##CAS REGISTRY NO=98-85-1
##MP= -300
##BP= -300
##MW= 122
##$RETENTION INDEX=1061
##$CONDENSED SPECTRUM=NO
##NPOINTS= 71
##XYDATA=(XY..XY) 1 
    14          1
    15          7
    19          2
    26          6
    27         29
    29         20
    30          1
    31          1
    37          7
    38         17
    39         68
    40          5
    41          6
    42          5
    43        243
    44          9
    45         36
    46          2
    49          9
    50        112
    51        255
    52         66
    53         56
    55          5
    59          1
    60          8
    61          9
    62         21
    63         48
    64          8
    65         26
    66          5
    67          1
    68          1
    73          8
    74         42
    75         25
    76         27
    77        585
    78        215
    79        999
    80         69
    81          3
    85          2
    86          3
    87          4
    88          1
    89         13
    90          3
    91         33
    92          3
    93          5
    94          1
    95          1
    97          1
    98          2
    99          1
   101          2
   102         15
   103         52
   104         32
   105        111
   106         16
   107        971
   108         76
   109          5
   120          2
   121         49
   122        333
   123         29
   124          2