##TITLE=Library Entry 78634
##JCAMP-DX=Revision 4.10 
##DATA TYPE=MASS SPECTRUM
##SAMPLE DESCRIPTION=NIST Mass Spectrometry Data Center
##NAMES=HP
##CAS NAME=Benzoyl chloride
##MOLFORM=C7H5ClO
##CAS REGISTRY NO=98-88-4
##MP= -300
##BP= -300
##MW= 140
##$RETENTION INDEX=1095
##$CONDENSED SPECTRUM=NO
##NPOINTS= 55
##XYDATA=(XY..XY) 1 
    25          1
    26          6
    27          7
    28          1
    29          1
    35          6
    36          6
    37         28
    38         48
    39         22
    40          1
    43          1
    47          1
    48          4
    49         31
    50        207
    51        299
    52         59
    56          2
    57          1
    60          5
    61         17
    62         19
    63         17
    64          1
    65          3
    66          1
    72          4
    73         29
    74        101
    75         59
    76         60
    77        717
    78         58
    79          2
    84          3
    85          6
    86          4
    87          3
    89          2
    90          1
    97          1
   103          2
   105        999
   106        134
   107          8
   108          1
   111          3
   112          4
   113          1
   114          1
   140         95
   141          8
   142         31
   143          3