##TITLE=Library Entry 78605
##JCAMP-DX=Revision 4.10 
##DATA TYPE=MASS SPECTRUM
##SAMPLE DESCRIPTION=Chemical Concepts
##NAMES=HP
##CAS NAME=Acetophenone
##MOLFORM=C8H8O
##CAS REGISTRY NO=98-86-2
##MP= -300
##BP= -300
##MW= 120
##$RETENTION INDEX=1065
##$CONDENSED SPECTRUM=NO
##NPOINTS= 51
##XYDATA=(XY..XY) 1 
    26          9
    27         36
    28          8
    29          4
    36          1
    37         19
    38         45
    39         73
    40          4
    41          7
    42         19
    43        179
    44          5
    45          2
    48          1
    49         16
    50        168
    51        378
    52         40
    53         14
    60          2
    61         12
    62         22
    63         31
    64          6
    65         23
    66          2
    72          1
    73         11
    74         53
    75         28
    76         45
    77        868
    78         83
    79          3
    85          2
    86          3
    87          2
    89          9
    90          2
    91         17
    92          1
    98          1
   102          1
   103          2
   105        999
   106         72
   107          4
   120        304
   121         24
   122          1