##TITLE=Library Entry 49641
##JCAMP-DX=Revision 4.10 
##DATA TYPE=MASS SPECTRUM
##SAMPLE DESCRIPTION=NIST Mass Spectrometry Data Center, 1990.
##NAMES=HP
##CAS NAME=Pyrazinamide
##MOLFORM=C5H5N3O
##CAS REGISTRY NO=98-96-4
##MP= -300
##BP= -300
##MW= 123
##$RETENTION INDEX=1250
##$CONDENSED SPECTRUM=NO
##NPOINTS= 35
##XYDATA=(XY..XY) 1 
    16         25
    17         13
    18          8
    25         39
    26        223
    27         33
    28        182
    29         18
    37         10
    38         45
    39         49
    40         40
    41         37
    42         18
    43         34
    44        257
    45         14
    51        212
    52        501
    53        830
    54         36
    66          5
    68         10
    69         11
    76         13
    77         25
    78         44
    79        225
    80        999
    81         62
   105         19
   106         11
   123        899
   124         68
   125          6