##TITLE=Library Entry 49418
##JCAMP-DX=Revision 4.10 
##DATA TYPE=MASS SPECTRUM
##SAMPLE DESCRIPTION=NIST Mass Spectrometry Data Center, 1998.
##NAMES=HP
##CAS NAME=Pyrazinoic acid
##MOLFORM=C5H4N2O2
##CAS REGISTRY NO=98-97-5
##MP= -300
##BP= -300
##MW= 124
##$RETENTION INDEX=0
##$CONDENSED SPECTRUM=NO
##NPOINTS= 57
##XYDATA=(XY..XY) 1 
    12          2
    13          2
    16          1
    24          6
    25         23
    26        191
    27         19
    28        108
    29         15
    30          1
    31          1
    37          8
    38         39
    39         34
    40         41
    41         19
    42         32
    43          2
    44         13
    45         78
    48          1
    50         39
    51        215
    52        627
    53        630
    54         20
    55          1
    56          1
    63          3
    65          2
    66          2
    67          6
    68          6
    69          1
    70         89
    72          1
    74          1
    75          1
    76          9
    77         17
    78         67
    79        161
    80        999
    81         45
    82          2
    84          2
    95          4
    96          3
    97          4
   103          1
   106         64
   107         24
   108          3
   109          1
   124        202
   125         18
   126          2