##TITLE=Library Entry 18161
##JCAMP-DX=Revision 4.10 
##DATA TYPE=MASS SPECTRUM
##SAMPLE DESCRIPTION=A.A.Kutin, Moscow, Russia
##NAMES=HP
##CAS NAME=Thiophene-3-carboxylic acid, 2-phenylsulfonyl-, methyl ester
##MOLFORM=C12H10O4S2
##CAS REGISTRY NO=98010-14-1
##MP= -300
##BP= -300
##MW= 282
##$RETENTION INDEX=0
##$CONDENSED SPECTRUM=NO
##NPOINTS= 146
##XYDATA=(XY..XY) 1 
    33         36
    34         44
    36          5
    37         52
    38        186
    39        361
    40        282
    41         59
    42         15
    43         60
    44        131
    45        305
    46         10
    47         22
    48         28
    50        366
    51        999
    52         76
    53        140
    54         50
    55         32
    56         19
    57         48
    58         67
    59         97
    60          6
    61         11
    62         33
    63        114
    64         46
    65        127
    66         28
    67          4
    68          9
    69        190
    70         82
    71         57
    72         13
    73         18
    74         74
    75         89
    76        117
    77        988
    78        116
    79         51
    81        194
    82        224
    83        102
    84        211
    85         41
    86         32
    87         47
    88         21
    89        125
    90         29
    91         93
    92         10
    93         19
    94          7
    95         13
    97        190
    98         57
    99         41
   100          8
   101         39
   102         46
   103         33
   104          9
   105         48
   107         29
   108         25
   109         56
   110        154
   111        416
   112         40
   113         82
   114         96
   115        423
   116         57
   117         11
   121         28
   123         10
   125        268
   126        104
   127         40
   128         25
   129         48
   130         30
   131         39
   132          8
   133          6
   134         13
   135         12
   136          7
   137         34
   141         17
   142          9
   143         14
   145          7
   147         27
   152          7
   153         16
   157         63
   158        178
   159         84
   160         30
   161         10
   163          9
   168         21
   169         15
   170          2
   171          3
   172          7
   173         24
   174         28
   175         12
   183          2
   185         20
   186         48
   187        430
   188         62
   189         82
   190         13
   191          6
   200         35
   201          4
   202         37
   203         23
   205         17
   210          5
   211         30
   215          6
   216         24
   217        656
   218        224
   219         63
   220          8
   223          6
   248         59
   249          5
   250          5
   251        171
   252         20
   253         12
   282         70
   283          5