##TITLE=Library Entry 49406
##JCAMP-DX=Revision 4.10 
##DATA TYPE=MASS SPECTRUM
##SAMPLE DESCRIPTION=Chemical Concepts
##NAMES=HP
##CAS NAME=2,3-Dicyanopropionamide
##MOLFORM=C5H5N3O
##CAS REGISTRY NO=98024-59-0
##MP= -300
##BP= -300
##MW= 123
##$RETENTION INDEX=0
##$CONDENSED SPECTRUM=NO
##NPOINTS= 46
##XYDATA=(XY..XY) 1 
    25          8
    26         63
    27         75
    28        114
    29         14
    30          3
    36          3
    37          8
    38         27
    39         42
    40         45
    41         24
    42         13
    43         45
    44        957
    45         37
    46          2
    49          5
    50          8
    51         77
    52        227
    53        344
    54         44
    55         12
    57          5
    58          3
    66          4
    67         16
    68          3
    69          4
    70          4
    76          8
    77         29
    78         18
    79        345
    80        999
    81         59
    82          2
    83          3
    84          4
    86          2
    94          4
    95          3
    96         30
    97          3
   123         11