##TITLE=Library Entry 14821
##JCAMP-DX=Revision 4.10 
##DATA TYPE=MASS SPECTRUM
##SAMPLE DESCRIPTION=LAC, NIDDK, NIH, Bethesda, MD 20892
##NAMES=HP
##CAS NAME=16-Allopregnen-3.beta.,7.alpha.,11.alpha.-triol-20-one, triacetat
e
##MOLFORM=C27H38O7
##CAS REGISTRY NO=98024-20-5
##MP= -300
##BP= -300
##MW= 474
##$RETENTION INDEX=0
##$CONDENSED SPECTRUM=NO
##NPOINTS= 232
##XYDATA=(XY..XY) 1 
    41         42
    42          5
    43        999
    44         25
    45          8
    47         14
    48          6
    49          0
    50          1
    51          0
    53         12
    54          3
    55         54
    56          3
    57         12
    61         68
    62          1
    65          7
    66          3
    67         39
    68          5
    69         16
    70          2
    71          5
    77         26
    78          6
    79         54
    80          8
    81         44
    82          5
    83         12
    84         36
    85          3
    86         24
    88          3
    91         64
    92         12
    93         57
    94         13
    95         34
    96          4
    97          6
    98          1
    99          1
   103          6
   104          2
   105         57
   106         12
   107         44
   108          9
   109         23
   110          3
   111          6
   112          1
   113          1
   115         11
   116          5
   117         23
   118          8
   119         40
   120         10
   121         25
   122         14
   123         13
   124          2
   125          2
   126          1
   127          3
   128         11
   129         27
   130         10
   131         30
   132         10
   133         29
   134         47
   135         37
   136          9
   137          8
   138          2
   139          2
   140          1
   141         20
   142         12
   143         64
   144          8
   145         70
   146         14
   147         53
   148         16
   149         10
   150          4
   151          2
   152          2
   153          4
   154          2
   155         17
   156          8
   157         34
   158          5
   159         30
   160          8
   161         15
   162          4
   163          5
   164          2
   165          6
   166          2
   167          7
   168          2
   169         23
   170          5
   171         59
   172         13
   173         14
   174          6
   175          9
   176          2
   177          2
   178          2
   179          4
   180          2
   181         10
   182          4
   183         13
   184         10
   185         25
   186         27
   187         18
   188          7
   189          6
   190          2
   191          2
   192          1
   193          4
   194          2
   195         12
   196          3
   197         17
   198          7
   199          7
   200          9
   201          5
   202          3
   203          4
   205          3
   206          1
   207          4
   208          1
   209          8
   210          3
   211          9
   212          3
   213          4
   214          1
   215          1
   217          1
   219          2
   220          1
   221          5
   222          2
   223          8
   224          2
   225          5
   226          2
   227          2
   233          1
   234          1
   235          7
   236          5
   237         13
   238          3
   239          4
   240          2
   241          1
   244          2
   246          1
   247          5
   249          4
   250          1
   251         47
   252         10
   253         10
   254          2
   255          1
   261          4
   262          1
   263          2
   265          2
   266          1
   267          3
   269          1
   276          1
   277          3
   278          1
   279         82
   280         16
   281         10
   282          2
   292          1
   293          3
   294         25
   295         12
   296          5
   297          4
   310          4
   311         39
   312         10
   313          7
   314          1
   325          1
   327          3
   328          2
   329          1
   337          1
   339         36
   340          7
   341         12
   342          2
   352          3
   354        245
   355         54
   356         43
   357          9
   358          1
   370         10
   371          9
   372          4
   399         43
   400         10
   401          1
   414         12
   415          5