##TITLE=Library Entry 10494
##JCAMP-DX=Revision 4.10 
##DATA TYPE=MASS SPECTRUM
##SAMPLE DESCRIPTION=Div. of Experiment Therapeutics WRAIR, WRAMC, Washingto
n DC 20307
##NAMES=HP
##CAS NAME=9-.beta.-d-Arabinofuranosyl-9H-purine-6-thiol triacetate ester
##MOLFORM=C16H18N4O7S
##CAS REGISTRY NO=98028-94-5
##MP= -300
##BP= -300
##MW= 410
##$RETENTION INDEX=0
##$CONDENSED SPECTRUM=NO
##NPOINTS= 141
##XYDATA=(XY..XY) 1 
    41         12
    43        999
    44         17
    45         18
    46          0
    47          1
    49          6
    51          4
    53          8
    55         11
    57          9
    58          1
    60          9
    61          5
    63          0
    64          1
    65          1
    66          2
    68          2
    69         50
    70         13
    71         11
    73         10
    77          2
    78          1
    79          1
    80          1
    81         10
    82          4
    83          9
    84          1
    85         27
    86         12
    87          2
    88          0
    89          1
    91          0
    92          2
    93          1
    94          1
    97        270
    98         13
    99          5
   100          0
   101          0
   103          5
   104          0
   105          0
   106          2
   107          0
   109          4
   110          1
   111          2
   113          6
   115         27
   116          1
   117          0
   119          6
   121          6
   122          0
   123          1
   125         23
   126          6
   127          5
   128         20
   129          2
   131          0
   133          1
   134          1
   136          4
   137          0
   138          1
   139        253
   140         15
   141          1
   143          2
   144          0
   145          0
   149          3
   150          2
   152         90
   153         74
   154          7
   155          2
   157         28
   158          1
   161          0
   162          0
   163          2
   165          7
   166          2
   167          2
   168          0
   170         33
   171          1
   175          0
   176          0
   177          3
   178          2
   179          3
   181         22
   182          1
   183          0
   187          0
   190          0
   192          3
   193          2
   194          0
   195         23
   196          2
   197          0
   199          1
   202          0
   203          0
   204          0
   205          1
   207          5
   215          1
   219          3
   223          2
   231          5
   232          0
   235          5
   237          2
   247          0
   249          3
   259         77
   260          2
   261          0
   279          0
   291          6
   292          0
   337          0
   350          0
   351          9
   352          1
   367          6
   368          0
   410         15
   411          4
   412          1