##TITLE=Library Entry 30936
##JCAMP-DX=Revision 4.10 
##DATA TYPE=MASS SPECTRUM
##SAMPLE DESCRIPTION=A.MOSANDL,INST. PHARM. LEBENSMITTELCHEM.,UNIV. WURZBURG
,W.GER.
##NAMES=HP
##CAS NAME=2,2,4-Trimethyl-1,3-oxathiane
##MOLFORM=C7H14OS
##CAS REGISTRY NO=98033-18-2
##MP= -300
##BP= -300
##MW= 146
##$RETENTION INDEX=0
##$CONDENSED SPECTRUM=NO
##NPOINTS= 22
##XYDATA=(XY..XY) 1 
    41        480
    42        110
    43        600
    44        210
    45        300
    46        180
    47        210
    54        220
    55        630
    57        120
    58        130
    59        800
    60        999
    61        150
    72        120
    73        220
    88        650
    89        150
   131        330
   146        450
   147         30
   148         30