##TITLE=Library Entry 26353
##JCAMP-DX=Revision 4.10 
##DATA TYPE=MASS SPECTRUM
##SAMPLE DESCRIPTION=Chemical Concepts
##NAMES=HP
##CAS NAME=1,3-Dioxolane-4-carbothioic acid, 2-(1,1-dimethylethyl)-4-(1-hydr
oxy-1-phenylethyl)-, S-(1,1-dimethylethyl) ester
##MOLFORM=C20H30O4S
##CAS REGISTRY NO=98041-33-9
##MP= -300
##BP= -300
##MW= 366
##$RETENTION INDEX=0
##$CONDENSED SPECTRUM=NO
##NPOINTS= 145
##XYDATA=(XY..XY) 1 
    26          4
    27         51
    28          4
    29        176
    30          5
    31          9
    37          3
    38          8
    39         67
    40          9
    41        277
    42         34
    43        602
    44         51
    45         30
    46          2
    47          8
    49         13
    50         27
    51         71
    52         10
    53         15
    54          4
    55         67
    56         28
    57        999
    58         55
    59         30
    60          3
    61         13
    62          4
    63          8
    65         11
    67          6
    68          2
    69        230
    70         34
    71         53
    72          7
    73          5
    74         18
    75         26
    76         14
    77        205
    78         38
    79         13
    81          2
    82          2
    83          6
    84          6
    85         30
    86         23
    87        339
    88         24
    89         11
    90          6
    91         44
    92          7
    93          9
    95          2
    97          3
    98          2
    99          7
   100         10
   101          3
   102          5
   103         43
   104        779
   105        274
   106         64
   107         19
   108          2
   109          2
   111          5
   113          3
   114          2
   115         16
   116          6
   117         45
   118         32
   119         11
   120         69
   121        201
   122         22
   123          2
   127          4
   128         10
   129        107
   130         11
   131         27
   132          7
   133         47
   134          5
   135         62
   136          6
   137          2
   141          3
   142          4
   143          3
   144          3
   145         21
   146          8
   147         51
   148          7
   149         12
   155          2
   156          2
   157          2
   159          3
   160         81
   161         22
   162          8
   163        124
   164         15
   165          3
   172          3
   173          6
   174          2
   175         12
   176          2
   189         59
   190        232
   191         35
   192         17
   193          2
   207          5
   215          2
   217          3
   219          3
   232          3
   233          2
   246        229
   247         39
   248         16
   249         36
   250          6
   251          2
   253          2
   271          2
   281          1
   295          1
   305          1
   309          3
   310          3
   366          4