##TITLE=Library Entry 54208
##JCAMP-DX=Revision 4.10 
##DATA TYPE=MASS SPECTRUM
##SAMPLE DESCRIPTION=A.Pleshkova, Nesmeyanov Inst.Org.Elem.Cpds, Moscow
##NAMES=HP
##CAS NAME=N-(2-Carbomethoxyvinyl)methylamine
##MOLFORM=C5H9NO2
##CAS REGISTRY NO=98071-13-7
##MP= -300
##BP= -300
##MW= 115
##$RETENTION INDEX=0
##$CONDENSED SPECTRUM=NO
##NPOINTS= 29
##XYDATA=(XY..XY) 1 
    27         30
    28        150
    29         74
    30         22
    31         40
    32         22
    40         14
    41        122
    42        420
    43         30
    44         10
    45         20
    53         20
    54         36
    55         80
    56         98
    57         80
    58         10
    59         10
    73         10
    82        110
    83        140
    84        999
    85        120
    86         11
   100         30
   115        780
   116         80
   117         10