##TITLE=Library Entry 14698
##JCAMP-DX=Revision 4.10 
##DATA TYPE=MASS SPECTRUM
##SAMPLE DESCRIPTION=Div. of Experiment Therapeutics WRAIR, WRAMC, Washingto
n DC 20307
##NAMES=HP
##CAS NAME=5-Acetamino-2-methoxy-4-nitro-3'-trifluoromethyl diphenyl ether
##MOLFORM=C16H13F3N2O5
##CAS REGISTRY NO=98081-50-6
##MP= -300
##BP= -300
##MW= 370
##$RETENTION INDEX=0
##$CONDENSED SPECTRUM=NO
##NPOINTS= 232
##XYDATA=(XY..XY) 1 
    42         54
    43        999
    44         33
    45          4
    47          9
    48          4
    49          4
    50         33
    51          4
    52        101
    53         52
    54         13
    55         13
    56          5
    57         16
    58          6
    59          8
    61          3
    62         16
    63         32
    64         42
    65         31
    66         38
    67         15
    68         50
    69         34
    70         13
    71          4
    74          5
    75         35
    76         34
    77         25
    78         21
    79         15
    80         17
    81         11
    82         17
    83         12
    84          3
    85          2
    86          2
    87          2
    88         10
    89          6
    90          8
    91         13
    92         13
    93         18
    94        150
    95         47
    96          6
    99          6
   100          3
   101          3
   102          1
   103          1
   104          9
   105          3
   106         12
   107         14
   108         11
   109         14
   110         13
   111          2
   112          3
   113          8
   114         10
   115          7
   118          1
   119          9
   120         18
   121          8
   122          5
   123          3
   124          3
   125         31
   126         33
   127          8
   128          1
   130          4
   132          4
   133         15
   134          4
   135          2
   136          3
   137          3
   138          5
   139          3
   140         11
   141          9
   142          1
   143         14
   144          1
   145        110
   146         10
   148          5
   149          5
   151          8
   152          7
   153          3
   154          1
   155          3
   156          1
   157          4
   158          8
   159         24
   160          3
   161          3
   162         15
   163         11
   164          6
   165          3
   167          4
   168          4
   169          8
   170         19
   171          9
   172          6
   173         11
   174          1
   175          5
   176          2
   177          3
   178          5
   180          2
   181          3
   182         10
   183         28
   184         15
   185          4
   186          7
   188          1
   189          4
   190          4
   191          6
   192          3
   193          4
   194          4
   195          8
   196          7
   197          3
   198         18
   199         11
   200          3
   201          3
   202          9
   203          1
   204          1
   207          3
   208          3
   209          6
   210          4
   211         15
   212         19
   213          5
   214          9
   217          1
   218         15
   219          8
   220          2
   222          4
   223         11
   224         17
   225          3
   226          1
   227          8
   228          1
   230          1
   231          2
   232          5
   234          4
   235          1
   236          3
   237         10
   238        119
   239         40
   240          6
   244         43
   245         11
   246          1
   247          4
   248          6
   249          1
   250          9
   251         20
   252          7
   253          2
   254          9
   255          5
   261          3
   262          6
   263          2
   266         14
   267         25
   268          6
   269          1
   270         13
   275          2
   278          2
   280          9
   281          3
   282         45
   283          7
   285         55
   286          6
   288          8
   292          3
   293          4
   296          8
   297          7
   298         22
   299          1
   308         15
   309          7
   310          1
   311          4
   312          5
   313        451
   314         61
   315          7
   324        440
   325         73
   327          7
   328        898
   329        142
   330         17
   351         50
   352          7
   354          1
   370        465
   371         81
   372         11