##TITLE=Library Entry 83667
##JCAMP-DX=Revision 4.10 
##DATA TYPE=MASS SPECTRUM
##SAMPLE DESCRIPTION=Chemical Concepts
##NAMES=HP
##CAS NAME=Benzene, [1-(1-methylethoxy)-3-butenyl]-
##MOLFORM=C13H18O
##CAS REGISTRY NO=98088-47-2
##MP= -300
##BP= -300
##MW= 190
##$RETENTION INDEX=0
##$CONDENSED SPECTRUM=NO
##NPOINTS= 55
##XYDATA=(XY..XY) 1 
    27         57
    28          5
    29          8
    31          3
    38          4
    39         48
    40          6
    41         88
    42          8
    43        147
    44          6
    45          2
    50         13
    51         55
    52         14
    53         20
    54          3
    55          3
    62          3
    63         13
    64          5
    65         18
    69          2
    71          4
    74          4
    75          6
    76          8
    77        150
    78         34
    79        344
    80         26
    89         13
    90          8
    91         87
    92          8
   102          8
   103         18
   104          9
   105         55
   106         11
   107        999
   108         93
   109          5
   115         29
   116         21
   117          5
   127         11
   128         23
   129         27
   130         11
   131        104
   132         12
   149        284
   150         36
   151          3