##TITLE=Library Entry 88139
##JCAMP-DX=Revision 4.10 
##DATA TYPE=MASS SPECTRUM
##SAMPLE DESCRIPTION=NIST Mass Spectrometry Data Center
##NAMES=HP
##CAS NAME=(R)-3-Methylene-6-((S)-1,2,2-trimethylcyclopentyl)cyclohex-1-ene
##MOLFORM=C15H24
##CAS REGISTRY NO=98093-94-8
##MP= -300
##BP= -300
##MW= 204
##$RETENTION INDEX=1549
##$CONDENSED SPECTRUM=NO
##NPOINTS= 99
##XYDATA=(XY..XY) 1 
    27         11
    28          1
    29         15
    38          1
    39         43
    40          8
    41        120
    42         10
    43         27
    44          1
    50          3
    51         17
    52          8
    53         42
    54          6
    55        309
    56         20
    57         34
    58          2
    62          1
    63          9
    64          4
    65         55
    66         10
    67         49
    68          7
    69        909
    70         53
    71          7
    72          1
    74          1
    75          1
    76          2
    77        147
    78         36
    79         88
    80         16
    81         42
    82         13
    83         18
    84          2
    89          4
    90          2
    91        216
    92         45
    93        144
    94        308
    95         69
    96         29
    97          5
   102          3
   103         17
   104          9
   105         86
   106         27
   107         22
   108         10
   109         30
   110          7
   111        999
   112         88
   113          4
   115         23
   116          8
   117         30
   118          7
   119         56
   120         42
   121         18
   122          3
   123          6
   124          1
   127          3
   128          7
   129          6
   130          3
   131         11
   132          4
   133         38
   134         12
   135          3
   136          3
   137          4
   144          1
   145          3
   146          1
   147          9
   148          4
   150          1
   159          1
   161          6
   162          1
   170          1
   175          1
   176          1
   189          5
   190          1
   204          9
   205          2