##TITLE=Library Entry 1671
##JCAMP-DX=Revision 4.10 
##DATA TYPE=MASS SPECTRUM
##SAMPLE DESCRIPTION=Chemical Concepts
##NAMES=HP
##CAS NAME=7-Oxabicyclo[4.1.0]heptane, 2-methylene-
##MOLFORM=C7H10O
##CAS REGISTRY NO=98126-49-9
##MP= -300
##BP= -300
##MW= 110
##$RETENTION INDEX=0
##$CONDENSED SPECTRUM=NO
##NPOINTS= 83
##XYDATA=(XY..XY) 1 
    24          1
    25          8
    26         99
    27        713
    29        399
    30         13
    31         28
    35          4
    36          2
    37         36
    38        106
    39        999
    40        269
    41        892
    42        132
    43         72
    44         16
    45         11
    46          1
    47          3
    48          2
    49          9
    50        103
    51        187
    52        107
    53        561
    54        470
    55        377
    56         59
    57         54
    58         10
    59         12
    60          4
    61          9
    62         21
    63         48
    64         14
    65        151
    66        193
    67        595
    68        102
    69         39
    70         30
    71         29
    72          2
    73          5
    74          7
    75         15
    76          4
    77        192
    78         43
    79        336
    80         76
    81        600
    82        443
    83         42
    84          3
    85          1
    86          6
    87          1
    88          0
    89          5
    90          8
    91        156
    92         67
    93         32
    94         43
    95        376
    96         27
    97          1
    98          0
   101          0
   102          3
   103          3
   104          4
   105          3
   106          3
   107          7
   108          6
   109         80
   110        415
   111         36
   112          2