##TITLE=Library Entry 18045
##JCAMP-DX=Revision 4.10 
##DATA TYPE=MASS SPECTRUM
##SAMPLE DESCRIPTION=Susan Richardson
##NAMES=HP
##CAS NAME=Bromochloroacetaldehyde
##MOLFORM=C2H2BrClO
##CAS REGISTRY NO=98136-99-3
##MP= -300
##BP= -300
##MW= 156
##$RETENTION INDEX=0
##$CONDENSED SPECTRUM=NO
##NPOINTS= 56
##XYDATA=(XY..XY) 1 
    36          9
    37         12
    38          7
    40          2
    46          2
    47         85
    48        198
    49        999
    50         76
    51        370
    52         29
    53          6
    57          4
    59          7
    60          3
    61          3
    62          2
    63          4
    64         13
    65          1
    66         12
    75          2
    76         53
    77         27
    78         29
    79         82
    80         19
    81         76
    82          2
    91         37
    92        168
    93        148
    94        162
    95        109
    96          2
   103          1
   104          2
   105          3
   106          4
   114          2
   116          3
   120         21
   121         13
   122         19
   123         13
   126          4
   127         72
   128        645
   129         98
   130        808
   131         28
   132        206
   133          2
   156         46
   158         57
   160         14