##TITLE=Library Entry 47297
##JCAMP-DX=Revision 4.10 
##DATA TYPE=MASS SPECTRUM
##SAMPLE DESCRIPTION=A.A.Kutin, Moscow, Russia
##NAMES=HP
##CAS NAME=2-Amino-5-bromo-3,4-dicyanopyrrole
##MOLFORM=C6H3BrN4
##CAS REGISTRY NO=98130-58-6
##MP= -300
##BP= -300
##MW= 210
##$RETENTION INDEX=0
##$CONDENSED SPECTRUM=NO
##NPOINTS= 56
##XYDATA=(XY..XY) 1 
    36         16
    38        148
    39         55
    40         14
    41         16
    42         60
    43        101
    44          7
    45          7
    48         11
    50         91
    51        126
    53        240
    54         36
    55          7
    62        149
    63         27
    64         54
    65        141
    66         91
    67         21
    69          3
    74          4
    76        477
    77        999
    78        115
    79        206
    80         59
    81        200
    82         32
    88         55
    89         14
    91         14
    93         10
   102         65
   103        158
   104        545
   105         85
   106        113
   108        156
   109         14
   117          3
   119          3
   129         28
   130        137
   131        639
   132         67
   155          2
   182         50
   183         22
   184         44
   185          8
   208          8
   210        560
   212        561
   213         33