##TITLE=Library Entry 100656
##JCAMP-DX=Revision 4.10 
##DATA TYPE=MASS SPECTRUM
##SAMPLE DESCRIPTION=Div. of Experiment Therapeutics WRAIR, WRAMC, Washingto
n DC 20307
##NAMES=HP
##CAS NAME=6-Chloro-4-methoxypyrazolo[3,4-d]pyrimidine
##MOLFORM=C6H5ClN4O
##CAS REGISTRY NO=98138-75-1
##MP= -300
##BP= -300
##MW= 184
##$RETENTION INDEX=0
##$CONDENSED SPECTRUM=NO
##NPOINTS= 112
##XYDATA=(XY..XY) 1 
    42        129
    43         35
    44          6
    45          6
    47         65
    48          2
    49         52
    50         25
    51        266
    52        251
    53        263
    54         69
    55         19
    56          6
    57         12
    58          5
    59          2
    61         41
    62         86
    63         70
    64        241
    65        118
    66        177
    67         76
    68         20
    69         13
    70          4
    71          3
    72          1
    73         23
    74          6
    75         11
    76         28
    77        121
    78        144
    79         33
    80          9
    81          6
    82         32
    83          5
    84         12
    85          3
    86          8
    87         16
    88          6
    89         32
    90          2
    91         35
    92         24
    93         73
    94         41
    95          7
    97          3
    98          9
    99          3
   100          5
   101          1
   102          2
   103          1
   105          7
   106          7
   107         11
   108          1
   109          6
   110          0
   111          5
   112          4
   114          5
   115          5
   117          1
   118         24
   119        999
   120         69
   121         18
   122          4
   123          3
   124          3
   126          1
   127          1
   128          1
   129         62
   131         23
   133          8
   134        110
   135         21
   136          2
   141          4
   147         26
   148         15
   149         70
   150          8
   151          1
   153         29
   154        334
   155        253
   156        113
   157         85
   158          5
   159          1
   163          1
   165          1
   166          1
   169         14
   170          3
   171          3
   179          5
   180         11
   183        548
   184        980
   185        102
   186        475
   187         33