##TITLE=Library Entry 53211
##JCAMP-DX=Revision 4.10 
##DATA TYPE=MASS SPECTRUM
##SAMPLE DESCRIPTION=Chemical Concepts
##NAMES=HP
##CAS NAME=1-Benzenesulfinate-4-methyl, 2-(1-methylethyl)-5-methylcyclohexyl
 ester
##MOLFORM=C17H26O2S
##CAS REGISTRY NO=98147-48-9
##MP= -300
##BP= -300
##MW= 294
##$RETENTION INDEX=0
##$CONDENSED SPECTRUM=NO
##NPOINTS= 98
##XYDATA=(XY..XY) 1 
    26          9
    27        110
    28         17
    29        103
    31          5
    37          5
    38         13
    39        167
    40         21
    41        388
    42         45
    43        228
    44          9
    45         31
    48          9
    49          4
    50         23
    51         42
    52         18
    53         71
    54         38
    55        396
    56         61
    57        230
    58         11
    59          3
    60          1
    61          4
    62         15
    63         49
    64         13
    65        160
    66         19
    67        135
    68         42
    69        389
    70         37
    71         62
    72          4
    73          1
    74          6
    75          6
    76          4
    77         86
    78         34
    79         67
    80         20
    81        252
    82         59
    83        999
    84         71
    85         10
    86          2
    87          2
    89         42
    90         25
    91        345
    92        213
    93         35
    94         18
    95        246
    96         61
    97        221
    98         17
    99          7
   105          3
   106          2
   107         18
   108         10
   109         20
   110          6
   111         26
   112         41
   113          2
   115          2
   116          2
   119          1
   121         15
   122         10
   123         74
   124         25
   125          3
   127          2
   137          8
   138        103
   139        590
   140        127
   141         27
   142          7
   153          1
   154         10
   155          8
   156         17
   157         98
   158          7
   159          2
   278          5
   294          7