##TITLE=Library Entry 50465
##JCAMP-DX=Revision 4.10 
##DATA TYPE=MASS SPECTRUM
##SAMPLE DESCRIPTION=G. SPITELLER, LEHR. ORG. CHEM., UNIV. BAYREUTH, BAYREUT
H, GER.
##NAMES=HP
##CAS NAME=Methyl 7-(2-furyl)heptanoate
##MOLFORM=C12H18O3
##CAS REGISTRY NO=98188-02-4
##MP= -300
##BP= -300
##MW= 210
##$RETENTION INDEX=0
##$CONDENSED SPECTRUM=NO
##NPOINTS= 18
##XYDATA=(XY..XY) 1 
    39         70
    41        150
    53        180
    55         90
    59         70
    69         70
    74         50
    79         40
    81        999
    82        230
    87         50
    94        120
    95        560
   166         20
   178         50
   179         70
   192         10
   210        130