##TITLE=Library Entry 80897
##JCAMP-DX=Revision 4.10 
##DATA TYPE=MASS SPECTRUM
##SAMPLE DESCRIPTION=NIST Mass Spectrometry Data Center, 1994
##NAMES=HP
##CAS NAME=Dibenzylamine, 4,4'-dimethyl-
##MOLFORM=C16H19N
##CAS REGISTRY NO=98180-43-9
##MP= -300
##BP= -300
##MW= 225
##$RETENTION INDEX=0
##$CONDENSED SPECTRUM=NO
##NPOINTS= 74
##XYDATA=(XY..XY) 1 
     4          1
    15          4
    17          1
    18         10
    26          4
    27         79
    28         79
    29          7
    30          6
    38         10
    39         88
    40         10
    41         19
    42         11
    44          0
    50         17
    51         62
    52         22
    53         30
    54          4
    62          6
    63         36
    64         13
    65         95
    66         11
    67          2
    74          4
    75          6
    77        218
    78         67
    79        175
    80         13
    86          2
    88          2
    89         30
    90         16
    91        241
    92         32
    93         65
    94          7
   101          2
   102         11
   103        105
   104          2
   105        999
   106        225
   107         17
   115          2
   116          7
   117         11
   118         62
   119          2
   120        712
   121         62
   122          2
   130          6
   131          7
   132         49
   133         18
   134         15
   135          1
   165          6
   166          2
   178          3
   179          2
   180          2
   208          3
   210         13
   211          2
   222          7
   223         13
   224         60
   225         77
   226         13