##TITLE=Library Entry 73731
##JCAMP-DX=Revision 4.10 
##DATA TYPE=MASS SPECTRUM
##SAMPLE DESCRIPTION=Chuck Anderson, Aldrich Chemical Co.
##NAMES=HP
##CAS NAME=(S)-(-)-Methyl 3-bromo-2-methylpropionate
##MOLFORM=C5H9BrO2
##CAS REGISTRY NO=98190-85-3
##MP= -300
##BP= -300
##MW= 180
##$RETENTION INDEX=0
##$CONDENSED SPECTRUM=NO
##NPOINTS= 98
##XYDATA=(XY..XY) 1 
    13          0
    14          3
    15        131
    16          2
    20          0
    25          3
    26         28
    27         96
    28         20
    29         92
    30          8
    31         15
    32          0
    33          3
    36          1
    37          9
    38         20
    39        144
    40         25
    41        407
    42        141
    43         13
    44          2
    45         15
    46          0
    50          1
    51          1
    52          0
    53          5
    54          1
    55         29
    56          3
    57          2
    58          1
    59        328
    60         10
    61          3
    68          1
    69         94
    70          5
    71          1
    72          0
    73         18
    74          1
    79          4
    80          2
    81          4
    82          2
    83          1
    85          1
    87          5
    91          1
    92          1
    93         20
    94          7
    95         21
    96          6
    97          2
    99          2
   100          2
   101        999
   102         51
   103          5
   104          0
   105          4
   106          1
   107          4
   108          0
   109          1
   117          0
   118          0
   119          2
   120         10
   121        152
   122         14
   123        156
   124          5
   125          1
   133         12
   135         11
   136          0
   137          1
   139         14
   140          0
   141         13
   142          0
   147          0
   149         47
   150          2
   151         46
   152          2
   153          0
   165         13
   166          0
   167         13
   168          0
   180          1
   182          1