##TITLE=Library Entry 54189
##JCAMP-DX=Revision 4.10 
##DATA TYPE=MASS SPECTRUM
##SAMPLE DESCRIPTION=Chemical Concepts
##NAMES=HP
##CAS NAME=4'-Methoxy-4-oxo-4-piperidinocrotonanilide
##MOLFORM=C16H20N2O3
##CAS REGISTRY NO=98251-45-7
##MP= -300
##BP= -300
##MW= 288
##$RETENTION INDEX=0
##$CONDENSED SPECTRUM=NO
##NPOINTS= 85
##XYDATA=(XY..XY) 1 
    33         23
    34          1
    36          3
    39         57
    41        152
    42         74
    43         20
    44         32
    50         15
    51         28
    52         22
    54        139
    55        182
    56         45
    57         27
    62         12
    64         15
    65          6
    67         26
    68         43
    69         50
    70         24
    74          1
    75          3
    77         24
    78         30
    79          9
    80         14
    82         87
    84        999
    88          1
    90          7
    91          5
    92          5
    96        285
   102          2
   103          2
   104          3
   106         30
   107          7
   108         13
   111        594
   115          1
   116          1
   117          1
   118          2
   119          2
   120          4
   121          7
   122          9
   123         18
   124          5
   128          1
   130          7
   132          5
   134         44
   135          4
   136          2
   138         41
   143          1
   144          1
   145          1
   146          1
   149         42
   158          1
   160          6
   161          2
   162          3
   174          1
   175          2
   177         19
   178          2
   188          6
   189          1
   190          1
   203         15
   205         79
   223          1
   233          1
   245          1
   257          1
   259          1
   286          3
   288         36
   289          2