##TITLE=Library Entry 82141
##JCAMP-DX=Revision 4.10 
##DATA TYPE=MASS SPECTRUM
##SAMPLE DESCRIPTION=Chemical Concepts
##NAMES=HP
##CAS NAME=Imidazolidin-4-one, 1-benzoyl-5-benzyl-2-t-butyl-3,5-dimethyl-
##MOLFORM=C23H28N2O2
##CAS REGISTRY NO=98262-56-7
##MP= -300
##BP= -300
##MW= 364
##$RETENTION INDEX=0
##$CONDENSED SPECTRUM=NO
##NPOINTS= 196
##XYDATA=(XY..XY) 1 
    26          1
    27          5
    29         14
    30          1
    31          1
    36          0
    37          0
    38          1
    39          9
    40          1
    41         24
    42         49
    43         12
    44          1
    45          2
    50          4
    51         20
    52          2
    53          2
    54          1
    55         12
    56          6
    57         26
    58          1
    59          1
    60          2
    61          0
    62          0
    63          2
    64          1
    65          9
    66          1
    67          3
    68          2
    69         10
    70          4
    71          9
    72          0
    73          1
    74          1
    75          1
    76          8
    77        209
    78         18
    79          3
    80          0
    81          5
    82          3
    83          7
    84          4
    85          6
    86          0
    87          0
    88          0
    89          3
    90          1
    91         50
    92          6
    93          1
    94          1
    95          4
    96          3
    97          7
    98          3
    99          2
   100          1
   101          1
   102          1
   103          4
   104          6
   105        999
   106         87
   107          6
   108          0
   109          3
   110          1
   111          5
   112          3
   113          2
   114          0
   115          9
   116          3
   117          9
   118          3
   119          1
   120          0
   121          1
   122          0
   123          2
   124          1
   125          3
   126          1
   127          1
   128          0
   129          1
   130          1
   131          1
   132          1
   133          1
   134          2
   135          1
   136          1
   137          2
   138          1
   139          1
   140          0
   144          1
   145          4
   146          1
   147          0
   148          0
   152          1
   153          1
   154          0
   158          0
   159          1
   160          1
   161          1
   162          0
   163          1
   164          0
   165          2
   166          1
   167          1
   168          1
   169          3
   170          0
   171          0
   172          0
   173          0
   174          1
   175          1
   176          0
   177          1
   178          2
   179          2
   180          2
   181          9
   182          2
   183          0
   185          0
   186          0
   187          1
   188          0
   189          0
   190          0
   191          0
   192          0
   193          0
   194          0
   195          1
   196          0
   197          0
   200          0
   201          1
   202          2
   203          1
   204          0
   205          0
   206          0
   207          0
   208          0
   209          0
   210          0
   211          0
   213          0
   214          0
   215          0
   216          1
   217          4
   218          0
   219          0
   221          0
   222          0
   223          0
   236          0
   237          0
   238          0
   239          0
   243          1
   259          1
   260          0
   261          0
   273          9
   274          2
   275          1
   305          0
   306          0
   307        348
   308         78
   309          9
   310          0
   313          0
   349          2
   350          0
   365          0