##TITLE=Library Entry 966
##JCAMP-DX=Revision 4.10 
##DATA TYPE=MASS SPECTRUM
##SAMPLE DESCRIPTION=O.S. Chizhov, N.D. Zelinskii Inst. Org. Chem., Acad. Sc
i., Moscow, USSR
##NAMES=HP
##CAS NAME=1-Hexanamine, N-nitro-
##MOLFORM=C6H14N2O2
##CAS REGISTRY NO=98275-81-1
##MP= -300
##BP= -300
##MW= 146
##$RETENTION INDEX=0
##$CONDENSED SPECTRUM=NO
##NPOINTS= 17
##XYDATA=(XY..XY) 1 
    28        263
    29        258
    30        999
    39        201
    41        501
    42        274
    43        819
    44         97
    46        121
    55        603
    56        307
    69        105
    75        390
    83        132
    84        109
    85         20
   100         96