##TITLE=Library Entry 82082
##JCAMP-DX=Revision 4.10 
##DATA TYPE=MASS SPECTRUM
##SAMPLE DESCRIPTION=M.V. GEORGE, DEP. CHEM., INDIAN INST. TECHNOL., KANPUR,
 INDIA
##NAMES=HP
##CAS NAME=5-Benzyl-2,3-dibenzoyl-cis-4,5-diphenyl-.delta.(2)-pyrroline
##MOLFORM=C37H29NO2
##CAS REGISTRY NO=98304-67-7
##MP= -300
##BP= -300
##MW= 519
##$RETENTION INDEX=0
##$CONDENSED SPECTRUM=NO
##NPOINTS= 19
##XYDATA=(XY..XY) 1 
    77         40
    91         70
   105        999
   178         40
   192         30
   234         20
   248         70
   249         30
   270         50
   283        110
   284         50
   285         20
   414         30
   427         50
   428         40
   441         90
   442         20
   518         80
   519         20