##TITLE=Library Entry 79378
##JCAMP-DX=Revision 4.10 
##DATA TYPE=MASS SPECTRUM
##SAMPLE DESCRIPTION=A.A.Kutin, Moscow, Russia
##NAMES=HP
##CAS NAME=2-(Benzylidenehydrazino)-2-oxo-N-(1-phenylethyl)acetamide
##MOLFORM=C17H17N3O2
##CAS REGISTRY NO=98308-85-1
##MP= -300
##BP= -300
##MW= 295
##$RETENTION INDEX=0
##$CONDENSED SPECTRUM=NO
##NPOINTS= 78
##XYDATA=(XY..XY) 1 
    37          7
    38         31
    39        172
    40         34
    41         39
    42        117
    43         51
    44        113
    45          5
    46          0
    50        132
    51        401
    52         66
    53         26
    54          3
    55          3
    57          1
    60          0
    61          4
    62         37
    63        130
    64         63
    65        217
    66         19
    67          1
    68          0
    69          5
    70          5
    71          0
    74         25
    75         31
    77        800
    78        159
    79        297
    80         15
    86          1
    87          2
    89        176
    90        132
    91        103
    92        101
    93         29
    94          2
   102         26
   103        240
   104        296
   105        999
   106        211
   107         12
   117          1
   118         21
   119         95
   120        140
   121         16
   122          2
   130          1
   132         34
   133          3
   134          3
   135          5
   137          0
   147        714
   148         77
   149         21
   150          0
   165          0
   174          6
   175          0
   177          1
   190         15
   191         21
   192          9
   207          0
   239         10
   240          0
   294          1
   295         25
   296          2