##TITLE=Library Entry 24528
##JCAMP-DX=Revision 4.10 
##DATA TYPE=MASS SPECTRUM
##SAMPLE DESCRIPTION=Chemical Concepts
##NAMES=HP
##CAS NAME=1-Decyloxy-2-nitrobenzene
##MOLFORM=C16H25NO3
##CAS REGISTRY NO=98311-79-6
##MP= -300
##BP= -300
##MW= 279
##$RETENTION INDEX=0
##$CONDENSED SPECTRUM=NO
##NPOINTS= 140
##XYDATA=(XY..XY) 1 
    26          7
    27         98
    28         14
    29        257
    30         24
    31          3
    33          3
    36          4
    37          2
    38         12
    39        134
    40         23
    41        575
    42        140
    43        986
    44         47
    45          4
    50         22
    51         53
    52         28
    53         60
    54         39
    55        558
    56        335
    57        999
    58         47
    59          4
    61          2
    62          7
    63         45
    64         61
    65         73
    66         22
    67         77
    68         53
    69        408
    70        363
    71        516
    72         27
    73          3
    74          5
    75          8
    76         17
    77         34
    78         77
    79         40
    80         15
    81         88
    82         90
    83        449
    84        339
    85        511
    86         34
    87          3
    88          5
    89          3
    90          3
    91         19
    92         57
    93         50
    94         71
    95         36
    96         76
    97        445
    98        248
    99         88
   100          7
   103          5
   104          3
   105          7
   106         81
   107         22
   108         13
   109        114
   110         39
   111        291
   112        182
   113         18
   114          2
   115          4
   117          3
   118          3
   119          6
   120         15
   121          6
   122         88
   123        266
   124         45
   125         24
   126          7
   127          3
   131          3
   132          3
   133         10
   134          5
   135         22
   136          6
   137         19
   138         11
   139        428
   140        708
   141        120
   142          9
   146          5
   147          5
   148          5
   149         11
   150          2
   151          3
   152          4
   153          2
   154          6
   155         17
   156          2
   157          3
   176          2
   177          2
   178          4
   179          2
   190          2
   191          3
   204          3
   205          2
   218          3
   224          2
   231          4
   232          2
   244         13
   245          7
   246          2
   249         17
   250          3
   251          2
   261          6
   262         10
   263          5
   279        279
   280         61
   281         10
   282          2