##TITLE=Library Entry 29492
##JCAMP-DX=Revision 4.10 
##DATA TYPE=MASS SPECTRUM
##SAMPLE DESCRIPTION=Drug Lab
##NAMES=HP
##CAS NAME=Finasteride
##MOLFORM=C23H36N2O2
##CAS REGISTRY NO=98319-26-7
##MP= -300
##BP= -300
##MW= 372
##$RETENTION INDEX=0
##$CONDENSED SPECTRUM=NO
##NPOINTS= 190
##XYDATA=(XY..XY) 1 
    40         21
    41        356
    42         81
    43        113
    44         37
    51          7
    53        106
    54         51
    55        315
    56        414
    57        704
    58        999
    59         94
    60         37
    65         61
    66         27
    67        178
    68         69
    69         94
    70         37
    72        325
    73         26
    74         67
    77        165
    78         42
    79        359
    80        270
    81        218
    82         71
    83         39
    84         23
    85        120
    86         72
    88         16
    91        310
    92         61
    93        211
    94        149
    95        186
    96         95
    97         29
    98         18
    99         10
   100         29
   103         34
   104         36
   105        167
   106         75
   107        133
   108        202
   109        146
   110        791
   111         74
   112         16
   114          8
   115        214
   116         43
   117         91
   118         36
   119         92
   120         56
   121        117
   122        180
   123        230
   124         68
   125          9
   126         29
   127          6
   128        303
   129         83
   130         37
   131         84
   132         46
   133         87
   134         88
   135         91
   136        210
   137         91
   138         31
   140          6
   141        179
   142        148
   143        100
   144         28
   145         75
   146         51
   147         91
   148         92
   149         69
   150         43
   151          6
   152          6
   154          8
   155         30
   156         23
   157         39
   158         28
   159         58
   160         55
   161         59
   162         78
   163         59
   164         50
   165          7
   169         11
   171         31
   172         24
   173         39
   174         38
   175         20
   176         52
   177         25
   178         62
   179          9
   180          8
   181         24
   182          4
   183         23
   185         30
   186         28
   187         21
   188         24
   189          5
   190         35
   191          7
   192         26
   193         10
   194         42
   195         22
   197         12
   199         11
   200         21
   201         31
   202         27
   208          9
   209          5
   212          4
   213         23
   214         20
   215          9
   216         87
   217         21
   218         14
   227          4
   228         22
   229          7
   230        239
   231        124
   232        113
   233         12
   234         57
   235         16
   244        124
   245        202
   246         54
   248         27
   249         29
   250         48
   254          6
   256         66
   258        286
   259         55
   263         81
   264         20
   267         39
   270         47
   271         23
   272        592
   273        141
   274         41
   282          7
   283          8
   284         58
   298         28
   299         28
   300         87
   301        104
   302         29
   315         41
   316         23
   317        221
   318         57
   329         12
   355         12
   357        511
   358        142
   359         18
   372        822
   373        193
   374         33