##TITLE=Library Entry 64741
##JCAMP-DX=Revision 4.10 
##DATA TYPE=MASS SPECTRUM
##SAMPLE DESCRIPTION=A.A.Kutin, Moscow, Russia
##NAMES=HP
##CAS NAME=Pyrimidine, 6-amino-4-benzyl(cyano)amino-2-benzylthio-
##MOLFORM=C19H17N5S
##CAS REGISTRY NO=98322-50-0
##MP= -300
##BP= -300
##MW= 347
##$RETENTION INDEX=0
##$CONDENSED SPECTRUM=NO
##NPOINTS= 109
##XYDATA=(XY..XY) 1 
    39         53
    40         18
    41         24
    43         44
    45         31
    46          3
    50          9
    51         34
    52         18
    53          8
    55          8
    57          3
    58          6
    59          3
    60          9
    63         41
    65        230
    67         97
    68         13
    69          5
    74          5
    75          3
    77         41
    78         11
    79         10
    82          4
    84          5
    85          9
    89         40
    91        999
    92         72
    93          5
    94         10
    95          7
   103          6
   104         17
   106         25
   108         14
   109         14
   111          4
   116         12
   117          5
   121         47
   122         11
   123          8
   125          3
   126         46
   128         17
   129          5
   131         52
   132          5
   134          3
   135          3
   136          3
   143          5
   148         27
   149          7
   151          8
   153          6
   155         21
   156          4
   157          4
   165          4
   167          6
   168          5
   170          5
   178         11
   179          3
   180          5
   181          5
   182          3
   183          3
   195         18
   197         12
   198          5
   199          3
   202          7
   208          3
   209          3
   214          3
   217         10
   223        135
   224         58
   225        119
   226         17
   229          6
   230          3
   238          3
   239          3
   253          5
   256        428
   257         86
   258         26
   259          4
   269          3
   270         13
   271          3
   305          3
   313          3
   314         62
   315         13
   321         20
   322          5
   344          5
   346         18
   347        760
   348        183
   349         57
   350          9