##TITLE=Library Entry 46592
##JCAMP-DX=Revision 4.10 
##DATA TYPE=MASS SPECTRUM
##SAMPLE DESCRIPTION=A.A.Kutin, Moscow, Russia
##NAMES=HP
##CAS NAME=2-Propenoic acid, 3-phenylseleno-
##MOLFORM=C9H8O2Se
##CAS REGISTRY NO=98324-71-1
##MP= -300
##BP= -300
##MW= 228
##$RETENTION INDEX=0
##$CONDENSED SPECTRUM=NO
##NPOINTS= 164
##XYDATA=(XY..XY) 1 
    33          0
    34          3
    36         13
    37         58
    38         67
    39        302
    40         25
    41         16
    42         23
    43         47
    44         21
    45        244
    46          5
    47          4
    48          4
    49         36
    50        451
    51        938
    52         88
    53         64
    54         13
    55         16
    56          1
    57          4
    58          1
    60          5
    61         23
    62         28
    63         72
    64         12
    65        167
    66         23
    67          2
    69         51
    70          4
    71         19
    72          5
    73         30
    74        138
    75        122
    76        153
    77        999
    78        549
    79         69
    80         57
    81         27
    82         14
    83          6
    84          2
    85          1
    86          1
    87          2
    88          1
    89         31
    90         30
    91        297
    92         40
    93         70
    94        231
    95         53
    96          4
    97          9
    98          2
    99          3
   100          4
   101         26
   102        288
   103        282
   104        125
   105         92
   106         78
   107         68
   108         16
   109         10
   110          0
   111          2
   113         23
   114         21
   115         52
   116         11
   117        100
   118         21
   119         36
   120         19
   121         14
   122          4
   123         25
   124          1
   125          9
   126          9
   127         17
   128         27
   129         44
   130        144
   131        238
   132        252
   133         65
   134        467
   135         69
   136         83
   137         11
   138          1
   139          1
   140          0
   141          3
   142          0
   143          1
   145          7
   147        190
   148         38
   149         42
   151         98
   153         97
   154         76
   155        146
   156         55
   157        280
   158         39
   159         48
   160          6
   161          0
   165          0
   166          0
   167          2
   168          0
   169          5
   170          0
   171          2
   172          0
   173          0
   174          1
   175          1
   176          6
   177         14
   178         62
   179        138
   180        203
   181        221
   182        275
   183        389
   184         84
   185         68
   186          6
   187          0
   206          0
   207          2
   208          2
   209          5
   210          2
   211          8
   212          0
   213          1
   220          0
   221          3
   222         11
   223         10
   224         90
   225         85
   226        204
   228        400
   229         38
   230         64
   231          6
   232          0