##TITLE=Library Entry 79128
##JCAMP-DX=Revision 4.10 
##DATA TYPE=MASS SPECTRUM
##SAMPLE DESCRIPTION=G. Lange, Inst. Org. Chem., Univ. Wurzburg, Wurzburg, G
ermany
##NAMES=HP
##CAS NAME=2(5H)-Oxepinone, 3-(4-nitrophenyl)-7-phenyl-
##MOLFORM=C18H13NO4
##CAS REGISTRY NO=98386-57-3
##MP= -300
##BP= -300
##MW= 307
##$RETENTION INDEX=0
##$CONDENSED SPECTRUM=NO
##NPOINTS= 52
##XYDATA=(XY..XY) 1 
    39         12
    50         11
    51         46
    52          6
    55          5
    63         18
    65          6
    75         10
    76         18
    77        222
    78         25
    89         21
    91         12
   101         18
   102         26
   103          8
   104          5
   105        999
   106         78
   107          8
   115         43
   116         10
   117          6
   126          9
   127         38
   128         65
   129         17
   131          7
   144          5
   147          6
   156          9
   157         54
   158          6
   165          7
   178          9
   189         10
   190          8
   201          6
   202         32
   203         30
   204         23
   205          9
   215         18
   216          8
   231         10
   232         22
   233         15
   278         23
   279         33
   280          6
   307         37
   308          7