##TITLE=Library Entry 29622
##JCAMP-DX=Revision 4.10 
##DATA TYPE=MASS SPECTRUM
##SAMPLE DESCRIPTION=R.D.Bowen ET AL, Org. Mass Spectrom., 26,421(1991)
##NAMES=HP
##CAS NAME=4-Methoxy-1-pentene
##MOLFORM=C6H12O
##CAS REGISTRY NO=98386-09-5
##MP= -300
##BP= -300
##MW= 100
##$RETENTION INDEX=0
##$CONDENSED SPECTRUM=NO
##NPOINTS= 17
##XYDATA=(XY..XY) 1 
    39        110
    40         20
    41        140
    42         30
    43         70
    45         30
    53         40
    55         40
    58         10
    59        999
    60         40
    67         30
    68         10
    69         40
    85         50
    99          5
   100          5