##TITLE=Library Entry 45195
##JCAMP-DX=Revision 4.10 
##DATA TYPE=MASS SPECTRUM
##SAMPLE DESCRIPTION=Chemical Concepts
##NAMES=HP
##CAS NAME=Pentalene-1,5-dione, 3a-(2,2-dimethoxy)ethyl-hexahydro
##MOLFORM=C12H18O4
##CAS REGISTRY NO=98395-31-4
##MP= -300
##BP= -300
##MW= 226
##$RETENTION INDEX=0
##$CONDENSED SPECTRUM=NO
##NPOINTS= 155
##XYDATA=(XY..XY) 1 
    25          0
    26          9
    27        116
    28         19
    29         39
    30          3
    31         88
    33          6
    38          3
    39         91
    40         25
    41        137
    42         23
    43         68
    44          1
    45         43
    46          1
    47        122
    48          2
    50          6
    51         25
    52         27
    53         90
    54         14
    55         75
    56          8
    57          7
    58        176
    59         38
    60          2
    61          1
    62          1
    63          5
    64          2
    65         33
    66         26
    67        104
    68         16
    69         12
    70          2
    71         14
    72          3
    73          1
    74          5
    75        999
    76         35
    77         45
    78         14
    79         81
    80         41
    81        107
    82         12
    83          7
    84          4
    85          7
    86          0
    87          5
    88          5
    89          1
    90          1
    91         18
    92          7
    93         19
    94          9
    95         22
    96          6
    97         18
    98         20
    99          2
   101          2
   102          0
   103          0
   104          1
   105          7
   106          6
   107         17
   108         27
   109         51
   110         12
   111          9
   112          3
   113          2
   114          2
   115          2
   116          0
   117          2
   118          1
   119          5
   120          3
   121         14
   122          4
   123         10
   124          3
   125          5
   126          2
   127          1
   128          1
   129          0
   130          0
   131          1
   132          0
   133          3
   134          6
   135         16
   136         11
   137         68
   138         10
   139          5
   140          5
   141          1
   142          0
   145          0
   147          0
   148          0
   149          5
   150          2
   151          3
   152          4
   153          5
   154          1
   155          2
   156          3
   157          0
   159          0
   161          1
   162          3
   163         11
   164          2
   165          2
   166          6
   167          3
   168         14
   169          5
   170          0
   179          1
   180          2
   181          1
   182          1
   183          0
   185          0
   193          0
   194         25
   195         54
   196          7
   197          2
   198          2
   207          0
   208          1
   209          0
   210          1
   211          0
   224          0
   225          0
   226          8
   227          1