##TITLE=Library Entry 71364
##JCAMP-DX=Revision 4.10 
##DATA TYPE=MASS SPECTRUM
##SAMPLE DESCRIPTION=LAC, NIDDK, NIH, Bethesda, MD 20892
##NAMES=HP
##CAS NAME=Tetrahydro-22-desoxy-tomatillidine
##MOLFORM=C27H47NO
##CAS REGISTRY NO=984-81-6
##MP= -300
##BP= -300
##MW= 401
##$RETENTION INDEX=0
##$CONDENSED SPECTRUM=NO
##NPOINTS= 85
##XYDATA=(XY..XY) 1 
    41         31
    42          9
    43         29
    44          7
    45          1
    47          1
    49         11
    51          3
    53          5
    54          3
    55         54
    56         24
    57         20
    58          7
    65          1
    67         23
    68         11
    69         22
    70         13
    71          7
    77          4
    79         18
    80          4
    81         30
    82         12
    83         11
    84         13
    85          4
    86          5
    91         11
    92          2
    93         18
    94          5
    95         16
    96          9
    97         11
    98        999
    99         72
   100          2
   105          8
   106          2
   107         13
   108          4
   109          8
   110          4
   111          8
   112          3
   113          0
   114          5
   116          0
   117          1
   119          4
   120          2
   121          5
   122          2
   123          3
   124          5
   125          8
   126          8
   127          1
   128          2
   129          0
   131          2
   133          3
   134          0
   135          3
   136          0
   137          1
   138          0
   145          2
   147          3
   149          2
   150          1
   152          2
   156          5
   159          1
   161          1
   163          1
   164          0
   166          1
   167          1
   198          4
   386          1
   400          2
   401          3