##TITLE=Library Entry 7096
##JCAMP-DX=Revision 4.10 
##DATA TYPE=MASS SPECTRUM
##SAMPLE DESCRIPTION=CARL DJERASSI DEPT OF CHEM STANFORD UNIV STANFORD CALIF
 94305
##NAMES=HP
##CAS NAME=Cholestan-3-one, 4-methyl-, (4.alpha.,5.alpha.)-
##MOLFORM=C28H48O
##CAS REGISTRY NO=984-87-2
##MP= -300
##BP= -300
##MW= 400
##$RETENTION INDEX=0
##$CONDENSED SPECTRUM=NO
##NPOINTS= 120
##XYDATA=(XY..XY) 1 
    41        580
    42        120
    43        999
    44        180
    45         20
    51         10
    53         80
    54         30
    55        600
    56         80
    57        300
    58         60
    59         10
    65         20
    66         10
    67        220
    68        100
    69        240
    70         30
    71        100
    72         10
    77         50
    78         20
    79        150
    80         40
    81        260
    82         80
    83        110
    84         20
    85         30
    91        100
    92         20
    93        160
    94         60
    95        260
    96         40
    97         70
    98         20
   105         80
   106         20
   107        140
   108         70
   109        160
   110         30
   111         50
   115         10
   117         20
   118         10
   119         60
   120         30
   121        130
   122         50
   123        150
   124         50
   125         40
   131         20
   133         50
   134         20
   135         70
   136         50
   137         60
   138        120
   139         20
   145         20
   147         50
   148         20
   149         60
   150         20
   151         30
   152         10
   159         30
   161         40
   162         10
   163         50
   164         10
   165         20
   173         20
   174         10
   175         40
   176         20
   177        140
   178         40
   179         30
   187         10
   188         10
   189         30
   190         20
   191         30
   192         20
   193         20
   198         10
   199         20
   200         20
   201         20
   202         30
   203         30
   204         30
   205         20
   206         10
   207         20
   217         30
   218         40
   219         10
   227         20
   229         30
   231        130
   232         40
   244         20
   245        520
   246        330
   247        100
   248         10
   260        100
   261         30
   275         20
   287         20
   385        100
   386         30
   400        260
   401         80