##TITLE=Library Entry 8998
##JCAMP-DX=Revision 4.10 
##DATA TYPE=MASS SPECTRUM
##SAMPLE DESCRIPTION=Chemical Concepts
##NAMES=HP
##CAS NAME=2,6,6,10-Tetramethyl-undeca-8,10-diene-3,7-dione
##MOLFORM=C15H24O2
##CAS REGISTRY NO=98419-16-0
##MP= -300
##BP= -300
##MW= 236
##$RETENTION INDEX=1786
##$CONDENSED SPECTRUM=NO
##NPOINTS= 152
##XYDATA=(XY..XY) 1 
    26          6
    27        102
    28         94
    29         68
    31          4
    37          2
    38          5
    39        133
    40         25
    41        478
    42         50
    43        999
    44         28
    45         10
    50          5
    51         18
    52         13
    53         45
    54         12
    55        191
    56         54
    57         88
    58          4
    59         12
    62          1
    63          6
    64          2
    65         53
    66         21
    67        311
    68         38
    69        264
    70         45
    71        867
    72         39
    73          8
    74         15
    75          8
    76          2
    77         32
    78          7
    79         40
    80         11
    81         95
    82         20
    83         60
    84         13
    85         70
    86          6
    87          9
    89          1
    91         36
    92          7
    93         28
    94         10
    95        700
    96        188
    97         54
    98         12
    99         39
   100          2
   103          3
   104          2
   105         27
   106          6
   107         32
   108         11
   109         53
   110         14
   111         27
   112          7
   113         10
   115          4
   116          1
   117          4
   118          1
   119         18
   120          7
   121         30
   122         14
   123        270
   124         29
   125         21
   126          5
   127          6
   128          2
   129          4
   130          1
   131          4
   132          2
   133         15
   134          4
   135         18
   136         11
   137        161
   138         47
   139         26
   140         11
   141        549
   142         50
   143          6
   145          5
   147         19
   148          4
   149          9
   150          4
   151         17
   152          7
   153          6
   154          5
   155          3
   157          2
   159          2
   161          4
   162          3
   163          7
   164          2
   165         61
   166          8
   167          6
   168          2
   169          6
   170          1
   171          1
   175          8
   176          2
   177          4
   178          2
   179          5
   180         12
   181          3
   182          2
   183          2
   189          2
   190          2
   191          3
   193         38
   194          6
   195          3
   203          3
   205         16
   206          3
   207          6
   208          8
   209          2
   218          4
   220          2
   221         11
   222          2
   235          3
   236         24
   237          5