##TITLE=Library Entry 69259
##JCAMP-DX=Revision 4.10 
##DATA TYPE=MASS SPECTRUM
##SAMPLE DESCRIPTION=Chemical Concepts
##NAMES=HP
##CAS NAME=7-Isopropenyl-4,4,8,8-tetramethylbicyclo[4.2.0]octane-1,5-diol
##MOLFORM=C15H26O2
##CAS REGISTRY NO=98419-18-2
##MP= -300
##BP= -300
##MW= 238
##$RETENTION INDEX=0
##$CONDENSED SPECTRUM=NO
##NPOINTS= 141
##XYDATA=(XY..XY) 1 
    26          6
    27         91
    28         28
    29        101
    30          2
    31         18
    35          2
    37          4
    38          7
    39        142
    40         39
    41        451
    42         53
    43        335
    44         13
    45         22
    47          4
    48          1
    50          7
    51         30
    52         15
    53        123
    54         40
    55        200
    56         59
    57         65
    58          6
    59         27
    60          1
    62          1
    63          9
    64          3
    65         52
    66         19
    67        220
    68         39
    69         97
    70         31
    71        197
    72         16
    73          4
    74          1
    75          2
    76          2
    77         93
    78         19
    79        105
    80         21
    81        516
    82         42
    83         52
    84         11
    85         62
    86        305
    87         32
    88          2
    89          2
    90          1
    91         82
    92         14
    93         67
    94         18
    95         73
    96        999
    97        206
    98         25
    99         15
   100          1
   103          6
   104          4
   105         46
   106         12
   107         93
   108         18
   109         45
   110         10
   111         37
   112          6
   113          2
   115          7
   116          2
   117          9
   118          2
   119         34
   120          9
   121         44
   122         12
   123         51
   124         12
   125        113
   126         11
   127          8
   128          4
   129          4
   130          1
   131          6
   132          2
   133         19
   134          5
   135         27
   136          8
   137         10
   138          3
   139          7
   140          4
   141         59
   142         20
   143          4
   144          0
   145          6
   146          2
   147          8
   148          6
   149         10
   150          3
   151          5
   152          1
   154          1
   155          1
   157          0
   158          1
   159          4
   160          1
   161          1
   162          0
   163          2
   164          3
   165         14
   166          2
   167          1
   177          7
   178          1
   182          4
   187          5
   195          3
   196          0
   202          1
   205          4
   220          4
   223          2
   238          1