##TITLE=Library Entry 11673
##JCAMP-DX=Revision 4.10 
##DATA TYPE=MASS SPECTRUM
##SAMPLE DESCRIPTION=Chemical Concepts
##NAMES=HP
##CAS NAME=4,4-Dimethyl-3-(3-methylbut-2-enylidene)octane-2,7-dione
##MOLFORM=C15H24O2
##CAS REGISTRY NO=98419-10-4
##MP= -300
##BP= -300
##MW= 236
##$RETENTION INDEX=0
##$CONDENSED SPECTRUM=NO
##NPOINTS= 145
##XYDATA=(XY..XY) 1 
    26          6
    27         33
    28          4
    29         31
    31          6
    38          2
    39         36
    40          6
    41         98
    42          6
    43        999
    44         12
    45          5
    50          3
    51         13
    52          5
    53         32
    54          3
    55         56
    56          7
    57         22
    58          4
    59         14
    60          1
    62          1
    63          6
    64          3
    65         25
    66          5
    67         33
    68          5
    69         52
    70          7
    71         26
    72          1
    73          1
    75          2
    76          1
    77         44
    78          7
    79         49
    80         12
    81         48
    82         11
    83         20
    84          3
    85          7
    89          2
    91         81
    92         15
    93         42
    94          5
    95         54
    96         14
    97         12
    99          6
   102          1
   103          8
   104          3
   105         57
   106          6
   107         79
   108         15
   109         36
   110          6
   111         10
   112          4
   113         15
   114          2
   115         12
   116          4
   117         10
   118          2
   119         64
   120          9
   121         47
   122         12
   123        149
   124         16
   125         12
   126          2
   127          2
   128          7
   129          8
   130          5
   131          8
   132          3
   133         45
   134          7
   135         69
   136         10
   137         17
   138          3
   139          4
   140          1
   141          4
   142          2
   143          3
   144          2
   145         16
   146          3
   147         41
   148          6
   149          8
   150          8
   151          9
   152          3
   153          3
   155          1
   157          2
   159          6
   160          5
   161         19
   162          4
   163         13
   164          2
   165         78
   166         12
   167          3
   168          1
   170          1
   173          1
   175         60
   176          9
   177          3
   178          2
   179          3
   180          1
   181          1
   182          1
   183          1
   185          2
   193          3
   194          1
   203         15
   204          2
   218         17
   219          3
   220          1
   221         82
   222         12
   223          1
   235          1
   236         11
   237          1