##TITLE=Library Entry 29133
##JCAMP-DX=Revision 4.10 
##DATA TYPE=MASS SPECTRUM
##SAMPLE DESCRIPTION=P. VAINIOTALO, DEPT. CHEM., UNIV. JOENSUU, JOENSUU, FIN
LAND
##NAMES=HP
##CAS NAME=Diethyl 2-methoxyethyl phosphate
##MOLFORM=C7H17O5P
##CAS REGISTRY NO=98425-27-5
##MP= -300
##BP= -300
##MW= 212
##$RETENTION INDEX=0
##$CONDENSED SPECTRUM=NO
##NPOINTS= 35
##XYDATA=(XY..XY) 1 
    15         47
    27         66
    29        159
    31         90
    43         70
    44         22
    45        532
    58        999
    59        199
    65         31
    81        158
    82         43
    91         47
    95         74
    96         42
    99        357
   109        226
   110         39
   111         41
   113        155
   123         25
   125         55
   126         23
   127        351
   137         53
   138         27
   139        178
   141         38
   153         23
   154         35
   155        617
   156         28
   167        136
   169         22
   182        152