##TITLE=Library Entry 7860
##JCAMP-DX=Revision 4.10 
##DATA TYPE=MASS SPECTRUM
##SAMPLE DESCRIPTION=NIST Mass Spectrometry Data Center
##NAMES=HP
##CAS NAME=N-Butyryl-DL-homoserine lactone
##MOLFORM=C8H13NO3
##CAS REGISTRY NO=98426-48-3
##MP= -300
##BP= -300
##MW= 171
##$RETENTION INDEX=1530
##$CONDENSED SPECTRUM=NO
##NPOINTS= 87
##XYDATA=(XY..XY) 1 
    14          1
    15          6
    18          1
    25          1
    26         10
    27        112
    28        105
    29         63
    30         21
    31          6
    37          2
    38          7
    39         89
    40         18
    41        257
    42         95
    43        999
    44         84
    45         13
    46          2
    48          2
    50          1
    51          2
    52          5
    53          7
    54         35
    55        119
    56        312
    57        946
    58         47
    59         36
    60          3
    66          1
    67          2
    68          7
    69         14
    70         27
    71        384
    72         51
    73          8
    74         18
    75          1
    80          1
    81          1
    82          4
    83         70
    84         45
    85         64
    86         12
    87         12
    88          4
    89          1
    94          1
    95          1
    96          4
    97          5
    98         22
    99          9
   100         44
   101         61
   102         40
   103          2
   108          1
   109          1
   110          2
   112          8
   113         44
   114          8
   115         10
   116          1
   125         42
   126         31
   127          9
   128         21
   129          1
   138          4
   140          1
   141          4
   143        372
   144         27
   145          3
   153         22
   154          2
   156          4
   170          1
   171         19
   172          2