##TITLE=Library Entry 66450
##JCAMP-DX=Revision 4.10 
##DATA TYPE=MASS SPECTRUM
##SAMPLE DESCRIPTION=Japan AIST/NIMC Database- Spectrum MS-IW-6249
##NAMES=HP
##CAS NAME=4-Benzyloxy-2-butynal 4-phenylsemicarbazone
##MOLFORM=C18H17N3O2
##CAS REGISTRY NO=98438-64-3
##MP= -300
##BP= -300
##MW= 307
##$RETENTION INDEX=0
##$CONDENSED SPECTRUM=NO
##NPOINTS= 193
##XYDATA=(XY..XY) 1 
    14          1
    15          1
    17         16
    18          7
    25          1
    26          6
    27         22
    28         68
    29          9
    30          7
    31          8
    32          9
    33          1
    36          1
    37         19
    38         39
    39         93
    40         26
    41         45
    42         11
    43         15
    44         22
    45         33
    46         47
    47          3
    49          5
    50         42
    51        103
    52         55
    53         39
    54         77
    55         38
    56          6
    57          5
    58          1
    59         34
    60          4
    61         10
    62         18
    63         62
    64        124
    65        199
    66        275
    67         29
    68          4
    69          9
    70          2
    71          4
    73          3
    74         11
    75          8
    76         15
    77        191
    78         36
    79         50
    80         10
    81        108
    82        210
    83         15
    84          2
    85          2
    86          1
    87          2
    88          3
    89         13
    90         17
    91        686
    92        211
    93        999
    94         76
    95          6
    96          3
    97          9
    98          1
    99          5
   101          1
   102          6
   103          9
   104          9
   105         70
   106         51
   107         34
   108         28
   109          4
   110          1
   111         15
   112          1
   113          1
   114          3
   115         21
   116         12
   117         11
   118          9
   119        797
   120        100
   121          8
   122          3
   123          1
   124          1
   125          1
   126          1
   127          9
   128         66
   129         46
   130         58
   131         16
   132          9
   133          3
   134          2
   135         60
   136         52
   137          5
   138          1
   139          1
   140          5
   141         11
   142         31
   143         16
   144         15
   145          9
   146          2
   147          1
   149          1
   151          1
   152          1
   153          2
   154          1
   155          7
   156          6
   157         56
   158         25
   159         31
   160          7
   161          3
   162          2
   163          1
   165          3
   166          1
   167          3
   168          3
   169          9
   170         16
   171         11
   172         15
   173          3
   174          2
   175          1
   178          1
   179          2
   180          3
   181          2
   182          1
   183          3
   184         10
   185         12
   186         11
   187         38
   188         16
   189          3
   197          1
   198         16
   199          4
   200          8
   201         79
   202         10
   203          1
   207          1
   208          1
   211          1
   212          2
   213          7
   214          6
   215          3
   216          4
   217          1
   218          1
   219          1
   228          1
   233          2
   234          1
   235          2
   263         11
   264          2
   276          2
   277        159
   278         33
   279          4
   280          2
   306          9
   307        298
   308         63
   309          9
   310          1