##TITLE=Library Entry 54614
##JCAMP-DX=Revision 4.10 
##DATA TYPE=MASS SPECTRUM
##SAMPLE DESCRIPTION=A.A.Kutin, Moscow, Russia
##NAMES=HP
##CAS NAME=2H-Pyrane, tetrahydro-2-(9-iodo-8-nonynyloxy)-
##MOLFORM=C14H23IO2
##CAS REGISTRY NO=98442-66-1
##MP= -300
##BP= -300
##MW= 350
##$RETENTION INDEX=0
##$CONDENSED SPECTRUM=NO
##NPOINTS= 177
##XYDATA=(XY..XY) 1 
    33          0
    37          2
    38         18
    39         81
    40         23
    41        293
    42         35
    43        144
    44         14
    45          7
    47          3
    50          7
    51         20
    52         29
    53         38
    54         26
    55        227
    56        170
    57        111
    58          5
    59          4
    60          1
    61          0
    62          0
    63          3
    64          4
    65         24
    66         32
    67        155
    68         15
    69         31
    70          5
    71         18
    72          2
    73          2
    74          3
    77         48
    78         14
    79        164
    80        103
    81        110
    82         11
    83         46
    84         75
    85        999
    86         62
    87          5
    88          1
    89          0
    91         35
    92          8
    93        119
    94         22
    95         31
    96          4
    97         14
    98          4
    99          5
   100          9
   101        222
   102         12
   103          2
   104          0
   105         11
   106          4
   107         37
   108          4
   109          7
   110          1
   111          6
   112          1
   113          2
   114          1
   115          9
   116          1
   117          1
   118          0
   119          5
   120          2
   121         17
   122         20
   123         10
   124          3
   125          7
   126          2
   127          5
   128          6
   129          0
   131          2
   132          0
   133          1
   134          0
   135          3
   136          1
   137          7
   138          1
   139          3
   140          2
   141          1
   142          0
   143          0
   144          0
   145          2
   146          0
   147          0
   148          0
   149          1
   150          0
   151          0
   152          0
   153          1
   154          1
   155          1
   156          0
   157          0
   159          0
   160          0
   161          1
   162          0
   163          1
   164          1
   165         24
   166          3
   167          6
   168          0
   169          1
   170          1
   171          0
   175          0
   176          0
   178          9
   179          2
   180         35
   181          3
   182          0
   183          1
   184          0
   185          0
   186          0
   187          0
   188          0
   191          0
   192          0
   193          2
   194          0
   195          0
   196          0
   197          0
   205          1
   206          1
   207          6
   208          0
   209          0
   210          0
   211          0
   213          0
   219          0
   220          1
   221          0
   222          0
   223          9
   224          1
   225          0
   233          0
   235          0
   237          0
   248          0
   249          0
   250          0
   254          0
   264          0
   277          1
   278          0
   293          0
   297          1
   349          0
   350          0