##TITLE=Library Entry 15522
##JCAMP-DX=Revision 4.10 
##DATA TYPE=MASS SPECTRUM
##SAMPLE DESCRIPTION=Japan AIST/NIMC Database- Spectrum MS-IW-6205
##NAMES=HP
##CAS NAME=Ethyl(hydroxymethyl)malonic acid
##MOLFORM=C6H10O5
##CAS REGISTRY NO=98485-66-6
##MP= -300
##BP= -300
##MW= 162
##$RETENTION INDEX=0
##$CONDENSED SPECTRUM=NO
##NPOINTS= 126
##XYDATA=(XY..XY) 1 
    12          4
    13          1
    14          5
    15         15
    16         19
    17         37
    18        185
    19          9
    22          6
    25          4
    26         43
    27        284
    28        145
    29        370
    30        181
    31         76
    32          6
    33          1
    34          1
    36          2
    37         16
    38         31
    39        283
    40         44
    41        291
    42        106
    43        144
    44        999
    45        226
    46         15
    47          9
    48          1
    49          7
    50         25
    51         34
    52         12
    53        126
    54        174
    55        861
    56        113
    57         80
    58         38
    59         12
    60        383
    61          9
    62          2
    63          1
    65          2
    66          2
    67          9
    68         41
    69        107
    70        179
    71         87
    72        105
    73        361
    74         22
    75          2
    77          2
    79          2
    80          4
    81         32
    82        290
    83         97
    84         10
    85        308
    86        739
    87         82
    88        139
    89         25
    90         11
    91          3
    93          1
    94          1
    95         14
    96         25
    97         31
    98         27
    99        558
   100        830
   101         69
   102          6
   103          1
   104        329
   105         12
   106          3
   107          2
   108          3
   109          2
   110          1
   111          2
   112          1
   113         39
   114        683
   115        123
   116         35
   117         75
   118          5
   119          4
   121          1
   122          1
   123          2
   124          2
   125          2
   126          3
   127          2
   128          3
   129          2
   130          1
   131          3
   132        223
   133         46
   134         27
   135          2
   136          1
   142          3
   143          5
   144          4
   145         18
   146          2
   147          1
   159          1
   160          2
   161          1
   163         10
   164          1