##TITLE=Library Entry 52212
##JCAMP-DX=Revision 4.10 
##DATA TYPE=MASS SPECTRUM
##SAMPLE DESCRIPTION=Chemical Concepts
##NAMES=HP
##CAS NAME=Cyclopropane, 2-chloro-1,1,3-trimethyl-
##MOLFORM=C6H11Cl
##CAS REGISTRY NO=98485-99-5
##MP= -300
##BP= -300
##MW= 118
##$RETENTION INDEX=0
##$CONDENSED SPECTRUM=NO
##NPOINTS= 73
##XYDATA=(XY..XY) 1 
    25          2
    26         26
    27        171
    28         14
    29         97
    30          2
    31          3
    35          2
    36          6
    37         16
    38         43
    39        399
    40         55
    41        614
    42         48
    43        156
    44          5
    45          1
    47          2
    48          5
    49         17
    50         28
    51         56
    52         15
    53        101
    54         27
    55        967
    56         45
    57         10
    58          1
    59          2
    60          2
    61          7
    62         10
    63         27
    64          3
    65         87
    66         13
    67        345
    68         24
    69          7
    70          2
    71          5
    72          1
    73          5
    74          2
    75        103
    76         15
    77         38
    78          5
    79         15
    80          2
    81         15
    82          8
    83        999
    84         57
    85          4
    86          1
    87          2
    88          1
    89          5
    90          4
    91          4
    92          2
   103         67
   104          5
   105         26
   106          1
   107          0
   117          0
   118          2
   119          0
   120          1