##TITLE=Library Entry 57271
##JCAMP-DX=Revision 4.10 
##DATA TYPE=MASS SPECTRUM
##SAMPLE DESCRIPTION=L. Tsai, LB, NHLBI, NIH, Bethesda, MD 20892
##NAMES=HP
##CAS NAME=Butyramide, 2,2,3,3-tetramethyl-
##MOLFORM=C8H17NO
##CAS REGISTRY NO=98486-62-5
##MP= -300
##BP= -300
##MW= 143
##$RETENTION INDEX=0
##$CONDENSED SPECTRUM=NO
##NPOINTS= 46
##XYDATA=(XY..XY) 1 
    41        204
    42         38
    43        186
    44         94
    45          5
    46          4
    49          2
    50          3
    51          7
    52          2
    53         20
    55         50
    57        259
    58         81
    59         37
    60          1
    63          1
    65          5
    67         10
    69         37
    70         54
    72        147
    73          5
    74          0
    77          1
    78          1
    79          1
    81          1
    83         14
    84         11
    85         53
    87        999
    88        124
    89          6
    91          3
    92          1
    94          0
    95          0
    96          0
    97          1
    99         37
   100          2
   112          0
   128          4
   143         63
   144          4