##TITLE=Library Entry 67371
##JCAMP-DX=Revision 4.10 
##DATA TYPE=MASS SPECTRUM
##SAMPLE DESCRIPTION=Philip Morris R&D
##NAMES=HP
##CAS NAME=4-Isobutylpyrimidine
##MOLFORM=C8H12N2
##CAS REGISTRY NO=98489-37-3
##MP= -300
##BP= -300
##MW= 136
##$RETENTION INDEX=0
##$CONDENSED SPECTRUM=NO
##NPOINTS= 50
##XYDATA=(XY..XY) 1 
    36          1
    37          3
    38         10
    39         79
    40         27
    41         65
    42         11
    43         27
    44          2
    49          0
    50          6
    51         11
    52         48
    53         39
    54         11
    55          5
    56          0
    59          1
    60          0
    61          0
    62          0
    63          3
    64          4
    65         16
    66         18
    67         57
    68          8
    76          0
    77          5
    78          3
    79         19
    80         20
    81         12
    86          0
    91          1
    92          4
    93         17
    94        999
    95         61
   104          0
   105          1
   107          7
   118          2
   119         14
   120         10
   121        209
   122         18
   133          1
   135         52
   136         17