##TITLE=Library Entry 1961
##JCAMP-DX=Revision 4.10 
##DATA TYPE=MASS SPECTRUM
##SAMPLE DESCRIPTION=Chemical Concepts
##NAMES=HP
##CAS NAME=Cyclopropane, 1,1-dibromo-2,2-bis(chloromethyl)-
##MOLFORM=C5H6Br2Cl2
##CAS REGISTRY NO=98577-44-7
##MP= -300
##BP= -300
##MW= 294
##$RETENTION INDEX=0
##$CONDENSED SPECTRUM=NO
##NPOINTS= 167
##XYDATA=(XY..XY) 1 
    25         22
    26        170
    27        127
    29         16
    31         16
    35         22
    36         50
    37        138
    38        255
    39        999
    40         94
    41         24
    47         30
    48         28
    49        299
    50        259
    51        557
    52         74
    53         80
    54          5
    55          4
    60         14
    61         90
    62         69
    63        160
    64         40
    65        400
    66         38
    67          1
    68          4
    70          3
    71         16
    72         27
    73        157
    74         45
    75        462
    76         21
    77        127
    78          1
    79         61
    80         42
    81         56
    82         32
    83         17
    84          8
    85         44
    86         37
    87        120
    88         24
    89         50
    90         11
    91         23
    92          6
    93         21
    94          4
    95         16
    97          8
    98          4
    99        426
   100        409
   101        175
   102        136
   103         16
   104          9
   105        124
   106         13
   107        125
   108          6
   109         33
   110         67
   111         25
   112         54
   113          9
   114          7
   116          5
   117         21
   118          6
   119         62
   120          2
   121         28
   123          3
   124          5
   127         13
   128          5
   129         35
   130         16
   131         28
   132         12
   133         13
   135        562
   136         35
   137        336
   138         17
   139         54
   140          4
   141          9
   142          7
   143         38
   144         35
   145         38
   146         30
   147          4
   151          3
   153         61
   154         10
   155         75
   156         10
   157         16
   158          3
   160          5
   162          3
   165         65
   166         89
   167        100
   168        104
   169         24
   170         25
   171          5
   172          6
   173          4
   174          5
   175          4
   177          3
   179        108
   180         11
   181        128
   182          8
   183         31
   184        120
   185          8
   186        185
   187          9
   188        104
   189          5
   197          7
   199         10
   201         16
   203         22
   205         13
   207         12
   209         26
   211         30
   213         17
   214          3
   215         60
   216          7
   217        121
   218         10
   219         61
   220          8
   221         17
   222          3
   223          8
   225          5
   227          4
   235          2
   245        283
   246         24
   247        793
   248         35
   249        506
   250         17
   251         77
   252          5
   258          3
   260          5
   262          6