##TITLE=Library Entry 82315
##JCAMP-DX=Revision 4.10 
##DATA TYPE=MASS SPECTRUM
##SAMPLE DESCRIPTION=A. Brossi, LAC, NIDDK, NIH, Bethesda, MD 20892
##NAMES=HP
##CAS NAME=7-(Acetylamino)-2-(benzoyloxy)-3-methoxy-10-(methylsulfanyl)-9-ox
o-5,6,7,9-tetrahydrobenzo[a]heptalen-1-yl benzoate  #
##MOLFORM=C34H29NO7S
##CAS REGISTRY NO=98599-89-4
##MP= -300
##BP= -300
##MW= 595
##$RETENTION INDEX=0
##$CONDENSED SPECTRUM=NO
##NPOINTS= 12
##XYDATA=(XY..XY) 1 
    51         29
    77        276
   105        999
   106         73
   121        113
   490        209
   508         73
   536        328
   537         36
   562         40
   595        142
   596         37