##TITLE=Library Entry 7732
##JCAMP-DX=Revision 4.10 
##DATA TYPE=MASS SPECTRUM
##SAMPLE DESCRIPTION=LAC, NIDDK, NIH, Bethesda, MD 20892
##NAMES=HP
##CAS NAME=Cholest-5-ene, 3-ethoxy-, (3.beta.)-
##MOLFORM=C29H50O
##CAS REGISTRY NO=986-19-6
##MP= -300
##BP= -300
##MW= 414
##$RETENTION INDEX=0
##$CONDENSED SPECTRUM=NO
##NPOINTS= 231
##XYDATA=(XY..XY) 1 
    41        371
    43        999
    44         36
    45         10
    47         10
    51          2
    53         45
    55        409
    57        550
    58         29
    59         22
    65         16
    67        152
    69        191
    71        185
    72         13
    73          4
    77         49
    79        185
    81        295
    82         15
    83         87
    85        207
    86         12
    87         12
    91        179
    93        168
    95        242
    96         10
    97         55
    99         43
   101          6
   103         10
   105        189
   106          8
   107        239
   108         60
   109        116
   111         66
   112          3
   113          7
   115         17
   117         73
   119        164
   120         78
   121        113
   122         22
   123         41
   124          9
   125         22
   126          1
   127         11
   128         11
   129         22
   131         88
   132         18
   133        119
   134         36
   135         77
   136         13
   137         18
   138          5
   139          5
   141          7
   142          3
   143         54
   145        165
   146         33
   147         68
   148         22
   149         40
   150          7
   151         16
   152         10
   153         11
   155          7
   156          1
   157         30
   158          4
   159        113
   160         62
   161         87
   162         23
   163         47
   164          3
   165         12
   166          2
   167          2
   169          8
   170          1
   171         28
   172          2
   173         46
   174         14
   175         22
   176          4
   177         16
   178          1
   179         11
   180          1
   181          3
   183          6
   185         22
   186          8
   187         22
   188          6
   189         22
   190          2
   191          9
   192          1
   193         11
   194          1
   197          8
   198          1
   199         27
   200          7
   201         16
   202          3
   203         18
   204          1
   205         13
   206         14
   207         11
   208          1
   211          4
   212          1
   213         54
   214         16
   215         32
   216         12
   217         16
   218          1
   219         11
   220          4
   221          2
   225          3
   227          9
   228         10
   229         13
   230          5
   231          7
   233         13
   234          1
   239          3
   240          2
   241         10
   242          3
   243          6
   244          2
   245          7
   246          7
   247         51
   248         11
   249          1
   253          5
   254          1
   255         49
   256         12
   257         15
   258          3
   259         13
   260         11
   261          8
   262          2
   269          2
   271          4
   273          6
   274         15
   275         44
   276         10
   283          5
   284          2
   285          2
   286          2
   287          4
   288          2
   297          2
   298          2
   299          7
   300          5
   301         31
   302          8
   303          0
   311          3
   313          7
   314          5
   315          2
   325          2
   326         26
   327         17
   328         23
   329        152
   330         40
   331          5
   339          4
   340          8
   341          3
   342          3
   343          1
   351          3
   353         85
   354         25
   355         28
   356          9
   357          2
   358          0
   365          1
   366          5
   367         38
   368        344
   369        225
   370        123
   371         27
   372          6
   381          0
   382          1
   383          1
   384          8
   385          6
   386          7
   387          1
   399         16
   400          7
   401          1
   404          0
   411          1
   412          7
   413         27
   414        102
   415         25
   416          3