##TITLE=Library Entry 97248
##JCAMP-DX=Revision 4.10 
##DATA TYPE=MASS SPECTRUM
##SAMPLE DESCRIPTION=Chemical Concepts
##NAMES=HP
##CAS NAME=3a,6-Methano-3aH-indene, 2,3,6,7-tetrahydro-
##MOLFORM=C10H12
##CAS REGISTRY NO=98640-29-0
##MP= -300
##BP= -300
##MW= 132
##$RETENTION INDEX=0
##$CONDENSED SPECTRUM=NO
##NPOINTS= 105
##XYDATA=(XY..XY) 1 
    26         14
    27        131
    28          9
    29         19
    30          0
    31          0
    35          0
    36          0
    37          8
    38         30
    39        222
    40         28
    41         80
    42         20
    43         39
    44          2
    45          0
    47          1
    48          1
    49          4
    50         75
    51        169
    52         73
    53        101
    54         23
    55         16
    56         10
    57         38
    58          9
    59          5
    60          1
    61          9
    62         33
    63         96
    64         57
    65        132
    66         38
    67         31
    68          3
    69         12
    70          6
    71         12
    72          3
    73          3
    74         26
    75         25
    76         22
    77        255
    78        181
    79        218
    80         26
    81          5
    82          2
    83          6
    84          9
    85          6
    86          6
    87          9
    88          3
    89         36
    90         11
    91        538
    92         82
    93         12
    94          2
    95          3
    96          2
    97          3
    98          4
    99          2
   100          1
   101          7
   102         34
   103         95
   104        320
   105        113
   106         14
   107          3
   108          1
   109          1
   110          1
   111          2
   112          1
   113          1
   114          4
   115        249
   116        140
   117        999
   118        118
   119         13
   120          2
   121          2
   122          2
   123          1
   124          0
   125          1
   126          5
   127         27
   128         54
   129         62
   130         18
   131        386
   132        414
   133         53
   134          6