##TITLE=Library Entry 80383
##JCAMP-DX=Revision 4.10 
##DATA TYPE=MASS SPECTRUM
##SAMPLE DESCRIPTION=Chemical Concepts
##NAMES=HP
##CAS NAME=3a,6-Methano-3aH-indene, 2,3,4,5,6,7-hexahydro-
##MOLFORM=C10H14
##CAS REGISTRY NO=98640-10-9
##MP= -300
##BP= -300
##MW= 134
##$RETENTION INDEX=0
##$CONDENSED SPECTRUM=NO
##NPOINTS= 95
##XYDATA=(XY..XY) 1 
    26         13
    27        133
    28         23
    29         32
    30          0
    31          0
    37          5
    38         19
    39        229
    40         33
    41        147
    42          9
    43          4
    44          1
    45          1
    49          3
    50         41
    51        123
    52         61
    53         96
    54         14
    55         31
    56          6
    57          4
    58         10
    59          2
    60          1
    61          4
    62         16
    63         56
    64         21
    65        114
    66         46
    67         46
    68          7
    69          5
    70          1
    71          2
    73          1
    74         11
    75         13
    76         11
    77        296
    78        171
    79        296
    80        118
    81         17
    82          4
    83          1
    84          2
    85          2
    86          3
    87          4
    88          1
    89         17
    90          9
    91        624
    92        338
    93        132
    94         18
    95          4
    96          1
    97          1
    98          2
    99          1
   100          1
   101          4
   102         13
   103         72
   104         40
   105        999
   106        335
   107         34
   108          4
   109          1
   110          0
   113          1
   114          2
   115         33
   116         12
   117         44
   118         11
   119        551
   120         58
   121          6
   127          3
   128          6
   129          4
   130          1
   131          7
   132          2
   133         74
   134        452
   135         56
   136          7