##TITLE=Library Entry 76636
##JCAMP-DX=Revision 4.10 
##DATA TYPE=MASS SPECTRUM
##SAMPLE DESCRIPTION=L.A. SUMMERS, DEP. CHEM., UNIV. NEWCASTLE, N.S.W., AUST
.
##NAMES=HP
##CAS NAME=3-Phenyl-4-(N-methyl-4-chlorophenylhydrazono)isoxazol-5-one
##MOLFORM=C16H12ClN3O2
##CAS REGISTRY NO=98664-23-4
##MP= -300
##BP= -300
##MW= 313
##$RETENTION INDEX=0
##$CONDENSED SPECTRUM=NO
##NPOINTS= 27
##XYDATA=(XY..XY) 1 
    63        130
    73         60
    74         70
    75        290
    76        330
    77        490
    90         60
    99        150
   101         60
   103        999
   104        160
   105        120
   111        320
   113        110
   125        190
   127         50
   138        150
   139        540
   140        720
   141        450
   142        250
   143        100
   151        220
   153         80
   166        160
   313        220
   315         70