##TITLE=Library Entry 62460
##JCAMP-DX=Revision 4.10 
##DATA TYPE=MASS SPECTRUM
##SAMPLE DESCRIPTION=Chemical Concepts
##NAMES=HP
##CAS NAME=Cobalt, [(1,2,3,4-.eta.)-1,3,5-cycloheptatriene][(1,2,3,4,5-.eta.
)-1-(trimethylsilyl)-2,4-cyclopentadien-1-yl]-
##MOLFORM=C15H21CoSi
##CAS REGISTRY NO=98704-44-0
##MP= -300
##BP= -300
##MW= 288
##$RETENTION INDEX=0
##$CONDENSED SPECTRUM=NO
##NPOINTS= 172
##XYDATA=(XY..XY) 1 
    25          3
    26         15
    27         20
    28          4
    29         22
    31          9
    37          5
    38          8
    39         85
    40          7
    41         19
    42          4
    43         94
    44         22
    45        110
    46          7
    47          4
    49          2
    50         11
    51         22
    52         12
    53         34
    54          4
    55         22
    57          6
    58         12
    59        276
    60          7
    61          4
    62          4
    63         28
    64          4
    65        161
    66         17
    67         42
    68          8
    69         30
    70          5
    71          4
    72          3
    73        367
    74         32
    75         17
    76          2
    77         18
    78         16
    79         13
    81         31
    82          2
    83         28
    84         17
    85         20
    86          5
    87         69
    88         14
    89         25
    90          6
    91        999
    92        110
    93        249
    94         28
    95         70
    96         20
    97         22
    98         29
    99          8
   100          9
   101         65
   102         53
   103         92
   104          8
   105         41
   106         33
   107        351
   108         46
   109         21
   110          6
   111         14
   112         30
   113         32
   114          3
   115          7
   116          2
   117        125
   118         10
   119         59
   120         11
   121         68
   122         26
   123         35
   124        122
   125         63
   126         11
   127         19
   128          5
   129         14
   130          4
   131         61
   132          5
   133         17
   134          3
   135        100
   136         16
   137        153
   138         29
   139         20
   140          5
   141          9
   142          4
   143          5
   144          3
   145          4
   147          3
   148          6
   149         14
   150        368
   151        119
   152         38
   153         25
   154         11
   155         28
   156          5
   163          6
   164          7
   165         33
   166         36
   167         29
   168         17
   176          3
   177         13
   178         29
   179         25
   180        226
   181        114
   182         79
   183         12
   184          3
   187          2
   189          8
   190          5
   191         12
   192        101
   193         35
   194        321
   195         60
   196         92
   197         13
   198          3
   204         20
   205          5
   206         64
   207         10
   208         84
   209         17
   210         50
   211         14
   212          3
   213         24
   214          4
   215        243
   216         34
   217          3
   222          6
   223          3
   229          2
   245          2
   261          2
   273          6
   287          7
   288        184
   289         42
   290         10