##TITLE=Library Entry 95159
##JCAMP-DX=Revision 4.10 
##DATA TYPE=MASS SPECTRUM
##SAMPLE DESCRIPTION=Chemical Concepts
##NAMES=HP
##CAS NAME=Cobalt, [(1,2,5,6-.eta.)-1,5-hexadiene][(1,2,3,3a,7a-.eta.)-1H-in
den-1-yl]-
##MOLFORM=C15H17Co
##CAS REGISTRY NO=98704-30-4
##MP= -300
##BP= -300
##MW= 256
##$RETENTION INDEX=0
##$CONDENSED SPECTRUM=NO
##NPOINTS= 128
##XYDATA=(XY..XY) 1 
    25          3
    26         28
    27        132
    28          8
    29         54
    37         20
    38         37
    39        288
    40          8
    41        304
    42         36
    43         35
    44          3
    49          7
    50         50
    51         48
    52         14
    53         42
    54        103
    55         26
    56         25
    57         27
    58          7
    59        251
    60         11
    61         21
    62         55
    63        120
    64         13
    65         79
    66         11
    67        183
    68         10
    69          5
    70          2
    71          4
    73          3
    74         20
    75         18
    76         10
    77         14
    78          3
    79         14
    80          1
    81         18
    82         28
    83          3
    84         13
    85         23
    86         20
    87         27
    88         26
    89        135
    90         11
    91          5
    96          4
    97         17
    98         23
    99         47
   100         16
   101         18
   102          4
   103          2
   104          2
   108          4
   109          5
   110          4
   111          4
   112          7
   113         37
   114         50
   115        999
   116        169
   117         14
   121          9
   122          5
   123          4
   124         21
   125          3
   127          2
   128         11
   129          4
   130          2
   131          5
   132          6
   135          2
   137         19
   138         57
   139          7
   140         14
   141         18
   147         14
   148          2
   149          2
   152          4
   153          3
   165          2
   172          2
   173         10
   174        700
   175        248
   176         28
   177          4
   178          3
   187          8
   188         17
   189          4
   200         15
   201          3
   202          2
   211          1
   214         13
   215         11
   228         11
   229          5
   230         13
   231          3
   239        100
   240         19
   241         18
   242          3
   252          5
   253         66
   254         26
   255         14
   256        590
   257         97
   258          7