##TITLE=Library Entry 67232
##JCAMP-DX=Revision 4.10 
##DATA TYPE=MASS SPECTRUM
##SAMPLE DESCRIPTION=Mark Whitten, Florida Museum of Natural History, U. of
 Florida
##NAMES=HP
##CAS NAME=Santalol, trans-.beta.-
##MOLFORM=C15H24O
##CAS REGISTRY NO=98718-53-7
##MP= -300
##BP= -300
##MW= 220
##$RETENTION INDEX=0
##$CONDENSED SPECTRUM=NO
##NPOINTS= 79
##XYDATA=(XY..XY) 1 
    41        290
    42         24
    43        277
    44         12
    45         15
    50          7
    51         33
    52         18
    53         92
    54         14
    55        118
    56         12
    57         33
    58          5
    63          9
    65         69
    66         23
    67        109
    68         15
    69         38
    70          9
    71         12
    77        172
    78         38
    79        290
    80         33
    81         61
    82          8
    83         16
    84         11
    85          2
    91        214
    92         44
    93        325
    94        999
    95        113
    96          8
    97          9
    98          5
   103         11
   104          5
   105         73
   106         30
   107         74
   108         15
   109         17
   110          3
   115         10
   116          3
   117         15
   118          8
   119         46
   120         17
   121         68
   122        238
   123         35
   128          4
   129          4
   131         17
   132         10
   133         31
   134         31
   135         18
   145         11
   146          6
   147         18
   148          5
   152          6
   159         14
   160          4
   161         22
   162          5
   173          6
   174          5
   187          9
   188          4
   189         40
   190          7
   202          8