##TITLE=Library Entry 10347
##JCAMP-DX=Revision 4.10 
##DATA TYPE=MASS SPECTRUM
##SAMPLE DESCRIPTION=Div. of Experiment Therapeutics WRAIR, WRAMC, Washingto
n DC 20307
##NAMES=HP
##CAS NAME=N,N-Bis[2,4-diamino-6-pteridylmethyl]adamantylamine
##MOLFORM=C24H29N13
##CAS REGISTRY NO=98747-18-3
##MP= -300
##BP= -300
##MW= 499
##$RETENTION INDEX=0
##$CONDENSED SPECTRUM=NO
##NPOINTS= 43
##XYDATA=(XY..XY) 1 
    41        504
    42        370
    43        999
    44        103
    45        170
    51         81
    52         26
    53        240
    54        110
    55        259
    57        164
    60         59
    65         63
    66        154
    67        147
    69         97
    71         81
    73         26
    77        120
    79        194
    80         59
    81        139
    82         52
    91        126
    92         26
    93        325
    94        896
    95         78
   105         28
   106        128
   107         99
   121         48
   133        165
   134        118
   135        834
   136        138
   151        109
   175        727
   176        666
   323         61
   324        243
   325        145
   499         11