##TITLE=Library Entry 76579
##JCAMP-DX=Revision 4.10 
##DATA TYPE=MASS SPECTRUM
##SAMPLE DESCRIPTION=J.RONTANI, CENT. OCEANOL., FAC. SCI. DE LUMINY, MARSEIL
LE, FR.
##NAMES=HP
##CAS NAME=Methyl 4-phenyl-3-hydroxybutanoate
##MOLFORM=C11H14O3
##CAS REGISTRY NO=98753-06-1
##MP= -300
##BP= -300
##MW= 194
##$RETENTION INDEX=0
##$CONDENSED SPECTRUM=NO
##NPOINTS= 14
##XYDATA=(XY..XY) 1 
    33        132
    39        157
    43        684
    59        134
    61        486
    65        474
    71        626
    91        972
    92        905
   103        999
   117        323
   121        191
   145        208
   176        527