##TITLE=Library Entry 42708
##JCAMP-DX=Revision 4.10 
##DATA TYPE=MASS SPECTRUM
##SAMPLE DESCRIPTION=O A MAMER, MCGILL UNIVERSITY, MONTRE?
##NAMES=HP
##CAS NAME=3-Ketovaleric acid, bis(trimethylsilyl)-
##MOLFORM=C11H24O3Si2
##CAS REGISTRY NO=98779-01-2
##MP= -300
##BP= -300
##MW= 260
##$RETENTION INDEX=1290
##$CONDENSED SPECTRUM=NO
##NPOINTS= 110
##XYDATA=(XY..XY) 1 
    14          8
    15         32
    16          5
    26          7
    27         26
    28         31
    29         58
    30          4
    31         10
    39         16
    40          4
    41         12
    42         10
    43         75
    44         55
    45        250
    46         17
    47         52
    51          7
    52         11
    53         32
    54          9
    55         21
    56          6
    57         82
    58         19
    59         55
    60          9
    61         26
    66         20
    67         13
    68          4
    69        113
    70         10
    71          9
    72         35
    73        999
    74         88
    75        203
    76         15
    77         14
    79         13
    81         15
    83          7
    85         20
    86          5
    87          5
    95          4
    96          4
    97          6
    98         29
    99         61
   100          8
   101          9
   103          5
   105          4
   111          9
   113         20
   114          6
   115         20
   116         10
   117         13
   118          3
   119          5
   127         13
   128          8
   129          5
   131         31
   132          6
   133         59
   134          9
   135          7
   141          9
   142         14
   143         27
   144          4
   147        659
   148        106
   149         65
   150          8
   151          7
   155         42
   156          7
   157          8
   163         43
   164          7
   165          4
   169         13
   170        131
   171        158
   172         27
   173         16
   174          6
   204          7
   215          4
   217          4
   229          5
   231        253
   232         54
   233         25
   234          3
   243          5
   244          7
   245        302
   246         66
   247         30
   248          6
   260         59
   261         15
   262          7