##TITLE=Library Entry 63958
##JCAMP-DX=Revision 4.10 
##DATA TYPE=MASS SPECTRUM
##SAMPLE DESCRIPTION=J.B. KYZIOL, INST. CHEM., SCH. PEDAGOG. UNIV., OPOLE, P
OLAND
##NAMES=HP
##CAS NAME=3,6-Bis(N-methyl-N-tosylamino)-9-methylcarbazole
##MOLFORM=C29H29N3O4S2
##CAS REGISTRY NO=98785-96-7
##MP= -300
##BP= -300
##MW= 547
##$RETENTION INDEX=0
##$CONDENSED SPECTRUM=NO
##NPOINTS= 81
##XYDATA=(XY..XY) 1 
    27         25
    28         19
    32         21
    38         17
    39        126
    40         17
    41         49
    45         21
    48         25
    49         17
    50         37
    51         61
    52         17
    61         13
    62         24
    63         72
    64         24
    65        360
    66         23
    67         17
    69         16
    77         36
    78         31
    79         24
    87         17
    89         73
    91        999
    92        176
    93         20
    95         14
   107         14
   108         15
   111         17
   138         14
   139         53
   140         25
   151         26
   152         41
   153         37
   154         17
   155        145
   156         37
   157         17
   164         25
   165         24
   166         47
   167         73
   168         18
   177         29
   178         53
   179         57
   180        100
   182         41
   183         17
   192         57
   193         61
   194         57
   195         49
   196         41
   205         17
   206         32
   207        137
   208        217
   209         88
   210         40
   211         12
   220         33
   221         33
   222        105
   223         29
   224         24
   234         32
   235         71
   236        744
   237        536
   238        232
   239         40
   392        424
   394         48
   547         53
   548         24