##TITLE=Library Entry 49980
##JCAMP-DX=Revision 4.10 
##DATA TYPE=MASS SPECTRUM
##SAMPLE DESCRIPTION=W. ADAM, INST. ORG. CHEM., UNIV. WURZBURG, WURZBURG, W.
 GER.
##NAMES=HP
##CAS NAME=6-Exo-chlorobicyclo[3.2.0]heptan-3-one
##MOLFORM=C7H9ClO
##CAS REGISTRY NO=98816-49-0
##MP= -300
##BP= -300
##MW= 144
##$RETENTION INDEX=0
##$CONDENSED SPECTRUM=NO
##NPOINTS= 52
##XYDATA=(XY..XY) 1 
    38         60
    39        740
    40         90
    41        810
    42         80
    43         20
    44         20
    49         60
    50         70
    51        140
    52         80
    53        240
    54        960
    55         90
    61         20
    62         40
    63         30
    64         10
    65        120
    66         70
    67        790
    68         90
    69        180
    70          8
    73         10
    74         10
    75        680
    76         30
    77        270
    78         20
    79        220
    80        660
    81        999
    82        300
    83         20
    88         40
    89          9
    90         10
    95         20
   101         10
   102        300
   103         30
   104        100
   108         10
   109        130
   110         10
   116         70
   117          7
   118         20
   144        210
   145         20
   146         70