##TITLE=Library Entry 27139
##JCAMP-DX=Revision 4.10 
##DATA TYPE=MASS SPECTRUM
##SAMPLE DESCRIPTION=F. FARINA, INST. QUIM. ORG. GEN., MADRID, SPAIN
##NAMES=HP
##CAS NAME=6-Ethyl-6-hydroxy-5,6,7,8-tetrahydro-1,4-naphthoquinone
##MOLFORM=C12H14O3
##CAS REGISTRY NO=98828-57-0
##MP= -300
##BP= -300
##MW= 206
##$RETENTION INDEX=0
##$CONDENSED SPECTRUM=NO
##NPOINTS= 15
##XYDATA=(XY..XY) 1 
    57        999
    77        280
    91        170
   103        120
   107        130
   121        170
   131        170
   135        110
   148        700
   149        710
   159        110
   177        770
   188         40
   189         30
   206        300