##TITLE=Library Entry 42548
##JCAMP-DX=Revision 4.10 
##DATA TYPE=MASS SPECTRUM
##SAMPLE DESCRIPTION=W.E. COLEMAN, US ENVIRON. PROT. AGENCY, CINCINNATI, OHI
O, USA
##NAMES=HP
##CAS NAME=Propanedioic acid, 2TBDMS derivative
##MOLFORM=C15H32O4Si2
##CAS REGISTRY NO=98830-30-9
##MP= -300
##BP= -300
##MW= 332
##$RETENTION INDEX=1641
##$CONDENSED SPECTRUM=NO
##NPOINTS= 99
##XYDATA=(XY..XY) 1 
    15         12
    18          3
    26          2
    27         20
    28         32
    29        112
    30          3
    31         16
    38          2
    39         37
    40          8
    41        153
    42         31
    43         94
    44         28
    45        185
    46         12
    47         99
    48          4
    49          3
    51          3
    52          3
    53          6
    55         21
    56         27
    57        137
    58        115
    59        235
    60         35
    61         41
    62          2
    66         87
    67         15
    69         31
    70          4
    71          9
    73        999
    75        379
    76         37
    77         20
    79          2
    83          7
    85         27
    86          7
    87         12
    88         14
    89          5
    97          5
    99         82
   100         13
   101         35
   102          7
   103         15
   104          3
   105          7
   109         33
   113          5
   115        186
   116         38
   117         54
   118          7
   119         20
   120          2
   131         31
   132          7
   133        250
   134         29
   135         24
   136          2
   141          4
   143         36
   144          4
   145          3
   147        488
   148        115
   149         89
   150          9
   151          4
   157          2
   159          4
   161         19
   162          1
   173          7
   175          3
   176          2
   185          4
   189        258
   190         48
   191         19
   192          2
   201          2
   217          3
   231          3
   275        174
   276         34
   277         12
   278          1
   317          7
   318          2