##TITLE=Library Entry 42551
##JCAMP-DX=Revision 4.10 
##DATA TYPE=MASS SPECTRUM
##SAMPLE DESCRIPTION=J.M. Halket, Trace Anal. Unit (TAU), London, UK
##NAMES=HP
##CAS NAME=Ethylmalonic acid, 2TBDMS derivative
##MOLFORM=C17H36O4Si2
##CAS REGISTRY NO=98830-32-1
##MP= -300
##BP= -300
##MW= 360
##$RETENTION INDEX=1722
##$CONDENSED SPECTRUM=NO
##NPOINTS= 92
##XYDATA=(XY..XY) 1 
    39         37
    40          9
    41        163
    42         16
    43         48
    44         12
    45        115
    46          9
    47         58
    48          3
    49          2
    53          6
    55        154
    56         34
    57        164
    58         51
    59        121
    60         17
    61         22
    66          5
    67          3
    68          4
    69         48
    70          9
    71          7
    73        999
    74         90
    75        290
    76         20
    77         11
    83          9
    84          2
    85         20
    86          3
    87          4
    97         19
    98          3
    99         33
   100          6
   101          6
   102          2
   103          6
   105          3
   113          3
   115         60
   116          9
   117         14
   118          2
   119          8
   123         17
   127          5
   129         70
   130          8
   131         14
   133         87
   134         12
   135         10
   143         23
   144          5
   145         11
   147        443
   148         75
   149         69
   150          8
   151          3
   157          3
   159          4
   169          3
   171          7
   173         14
   174          3
   177          4
   185          4
   187          2
   189        214
   190         39
   191         18
   203         18
   204          7
   217         19
   218          4
   231          3
   245          3
   287          2
   300          2
   301          3
   303        210
   304         47
   305         21
   306          3
   345          9
   346          3