##TITLE=Library Entry 41551
##JCAMP-DX=Revision 4.10 
##DATA TYPE=MASS SPECTRUM
##SAMPLE DESCRIPTION=J.M. Halket, Trace Anal. Unit (TAU), London, UK
##NAMES=HP
##CAS NAME=Pentanedioic acid, 2TBDMS derivative
##MOLFORM=C17H36O4Si2
##CAS REGISTRY NO=98830-34-3
##MP= -300
##BP= -300
##MW= 360
##$RETENTION INDEX=1856
##$CONDENSED SPECTRUM=NO
##NPOINTS= 110
##XYDATA=(XY..XY) 1 
    39         41
    40         10
    41        161
    42         35
    43         46
    44         10
    45        103
    46          8
    47         79
    48          4
    49          3
    53          7
    55        199
    56         35
    57        107
    58         45
    59         88
    60         23
    61         32
    62          2
    67          2
    68          4
    69         10
    70          4
    71          7
    72         67
    73        999
    74        110
    75        572
    76         38
    77         21
    81          4
    83          3
    84          1
    85         34
    86          9
    87          7
    88         12
    89          3
    95          1
    97         34
    98          4
    99         24
   100          6
   101         28
   102          5
   103          5
   105          1
   111          1
   113          4
   114          3
   115         56
   116         68
   117         17
   118          5
   119          7
   123         47
   127          9
   129        132
   130         14
   131         13
   133         76
   134         10
   135          8
   142          2
   143          6
   144          3
   145          2
   147        357
   148         65
   149         53
   150          7
   151          3
   155          1
   159          1
   161          9
   171         12
   173          2
   175          1
   176          3
   185          2
   189         25
   190          9
   191          6
   195          2
   200          3
   201          4
   203          6
   204          4
   213         12
   214          2
   229         20
   230          4
   231          3
   245         18
   246          4
   275         11
   276          3
   298          1
   299          2
   300          1
   301          1
   302          3
   303        392
   304         95
   305         40
   306          7
   345         16
   346          5
   347          1