##TITLE=Library Entry 47289
##JCAMP-DX=Revision 4.10 
##DATA TYPE=MASS SPECTRUM
##SAMPLE DESCRIPTION=F. TURECEK,HEYROVSKY INST PHYS CHEM & ELECTROCHEM,PRAGU
E,CZECH
##NAMES=HP
##CAS NAME=Ethyl 9,9-diformylnona-2,4,6,8-tetraenoate
##MOLFORM=C13H14O4
##CAS REGISTRY NO=98834-95-8
##MP= -300
##BP= -300
##MW= 234
##$RETENTION INDEX=0
##$CONDENSED SPECTRUM=NO
##NPOINTS= 174
##XYDATA=(XY..XY) 1 
    26        107
    27        710
    29        840
    30         22
    31         65
    37         25
    38         83
    39        692
    40        213
    41        355
    42         59
    43        178
    44        118
    45         59
    50        190
    51        645
    52        237
    53        237
    54         40
    55        402
    56         58
    57        172
    58         26
    59         13
    60         20
    61         23
    62         71
    63        225
    64         95
    65        349
    66        195
    67        118
    68         42
    69        142
    70         36
    71         83
    73         25
    74         62
    75         95
    76         83
    77        999
    78        391
    79        538
    80         56
    81        124
    82         54
    83         77
    84        189
    85         38
    86         13
    87         25
    88         15
    89         83
    90         50
    91        331
    92         71
    93         89
    94         59
    95         83
    96         25
    97        172
    98         23
    99         21
   101         30
   102        105
   103        805
   104        408
   105        651
   106         83
   107         95
   108         25
   109         89
   110         45
   111         36
   112         64
   113         24
   114         38
   115        485
   116        189
   117        112
   118        157
   119        107
   120         28
   121         65
   122         30
   123         36
   124         14
   125        118
   126         19
   127         38
   128         60
   129        107
   130         54
   131        852
   132        414
   133        396
   134         52
   135         45
   136         16
   137         17
   138         12
   139         23
   140         13
   141         71
   142         38
   143         89
   144         70
   145         46
   146         32
   147         83
   148         21
   149        116
   150         19
   151         19
   152         25
   153         19
   154         15
   155         20
   156         12
   157         52
   158         52
   159        373
   160        450
   161        302
   162         43
   163         13
   164          9
   165         30
   166         12
   167         20
   168         23
   169         34
   170         23
   171         28
   172         12
   173         15
   174          9
   175         19
   176         11
   177         34
   178         25
   179         24
   180         12
   181         16
   182         12
   183         20
   184         16
   185         26
   186        165
   187        154
   188        357
   189        148
   190         27
   191         19
   192         16
   193         15
   194         11
   195         13
   197         12
   198         11
   199         11
   201         11
   202         12
   203         12
   204         10
   205        136
   206         37
   207         12
   209         10
   210         11
   211         21
   212         13
   234         71
   235         13