##TITLE=Library Entry 51220
##JCAMP-DX=Revision 4.10 
##DATA TYPE=MASS SPECTRUM
##SAMPLE DESCRIPTION=LAC, NIDDK, NIH, Bethesda, MD 20892
##NAMES=HP
##CAS NAME=Histamine, N-t-butyloxycarbonyl-
##MOLFORM=C10H17N3O2
##CAS REGISTRY NO=98870-64-5
##MP= -300
##BP= -300
##MW= 211
##$RETENTION INDEX=0
##$CONDENSED SPECTRUM=NO
##NPOINTS= 40
##XYDATA=(XY..XY) 1 
    41        491
    42         42
    43        106
    44         13
    45         12
    47          3
    52         31
    53         37
    54        169
    55         75
    56         66
    57        717
    58         15
    59        130
    60          1
    62          3
    66          9
    67         13
    68         38
    69          6
    74          8
    78          2
    81        425
    82        999
    83         67
    93         15
    94        687
    95        147
    96          7
   109         11
   110         38
   111         19
   137          2
   138        150
   139          8
   150          3
   155        165
   156         25
   211         49
   212         19