##TITLE=Library Entry 1334
##JCAMP-DX=Revision 4.10 
##DATA TYPE=MASS SPECTRUM
##SAMPLE DESCRIPTION=Japan AIST/NIMC Database- Spectrum MS-IW-2285
##NAMES=HP
##CAS NAME=N-(Ethoxycarbonyl)hexamethylenediamine
##MOLFORM=C9H20N2O2
##CAS REGISTRY NO=98952-25-1
##MP= -300
##BP= -300
##MW= 188
##$RETENTION INDEX=0
##$CONDENSED SPECTRUM=NO
##NPOINTS= 105
##XYDATA=(XY..XY) 1 
    14          1
    15          9
    17         19
    18          1
    26          6
    27         66
    28         84
    29        191
    30        999
    31         74
    32          2
    39         26
    40          7
    41        105
    42         65
    43         68
    44        189
    45        186
    46         32
    47          2
    51          1
    52          1
    53          9
    54         12
    55         97
    56        117
    57         19
    58         66
    59         76
    60         12
    61          1
    62         43
    63          1
    65          2
    66          1
    67         16
    68          8
    69         91
    70         31
    71          7
    72         73
    73         65
    74        277
    75         40
    76          4
    77          1
    79          5
    80          2
    81         21
    82         44
    83         20
    84         11
    85          7
    86        506
    87         44
    88         27
    89          6
    90         42
    91          2
    94          1
    95          1
    96          8
    97          9
    98         45
    99         11
   100         50
   101          5
   102        356
   103         58
   104          5
   111          1
   112          6
   113          9
   114          7
   115          9
   116         38
   117          6
   123          1
   124          2
   125          4
   126          9
   127          1
   128         36
   129          3
   130        685
   131         56
   132          6
   141          5
   142         25
   143         92
   144         18
   145          4
   146          3
   149          2
   156          2
   158         20
   159         71
   160          7
   170          6
   171         31
   172         13
   173          5
   187          2
   188         47
   189          9