##TITLE=Library Entry 81542
##JCAMP-DX=Revision 4.10 
##DATA TYPE=MASS SPECTRUM
##SAMPLE DESCRIPTION=LAC, NIDDK, NIH, Bethesda, MD 20892
##NAMES=HP
##CAS NAME=2-Benzamidoethyl trisulfide
##MOLFORM=C18H20N2O2S3
##CAS REGISTRY NO=98964-66-0
##MP= -300
##BP= -300
##MW= 392
##$RETENTION INDEX=0
##$CONDENSED SPECTRUM=NO
##NPOINTS= 90
##XYDATA=(XY..XY) 1 
    41          4
    42          7
    43         28
    44         22
    45         13
    46          4
    47          3
    49          2
    50         22
    51        120
    52          8
    53          1
    55          1
    56          1
    57          1
    58          6
    59         13
    60          6
    61          3
    62          1
    63          2
    64         24
    65          2
    66          2
    69          1
    70          1
    73          1
    74          4
    75          6
    76         17
    77        475
    78         35
    79         11
    80          1
    84          1
    85          1
    86          2
    89          0
    91          5
    92          0
    96          4
    97          0
    98          0
   103          2
   105        999
   106         72
   107          4
   108          0
   109          1
   117          1
   118          1
   121          2
   122         71
   123          6
   128          3
   130          0
   134         39
   135          3
   146          6
   147          1
   148        261
   149         30
   150          3
   152          1
   160          4
   162          1
   164          1
   179         31
   180        499
   181         79
   182         25
   183          4
   192          4
   194          1
   212          7
   213         42
   214          6
   215          4
   224          2
   239          9
   240          1
   241          0
   245          1
   256          1
   258          0
   360          2
   361          3
   362          0
   392          5
   393          1