##TITLE=Library Entry 27063
##JCAMP-DX=Revision 4.10 
##DATA TYPE=MASS SPECTRUM
##SAMPLE DESCRIPTION=Albert Lebedev, Moscow State University, Russia
##NAMES=HP
##CAS NAME=1-(1,1-Dimethylethyl) 3-ethyl 4-oxopiperidine-1,3-dicarboxylate
##MOLFORM=C13H21NO5
##CAS REGISTRY NO=98977-34-5
##MP= -300
##BP= -300
##MW= 271
##$RETENTION INDEX=0
##$CONDENSED SPECTRUM=NO
##NPOINTS= 93
##XYDATA=(XY..XY) 1 
    41        223
    42         72
    43         47
    44         13
    45         21
    46          5
    47          1
    50          1
    51          4
    52          3
    53         19
    54         30
    55        176
    56         76
    57        999
    58         48
    59         14
    60          1
    66          1
    67          8
    68         24
    69         32
    70         54
    71          8
    72          3
    73         13
    74          2
    78          1
    79          1
    80         15
    81          5
    82         13
    83          9
    84         21
    85          5
    86          2
    87          9
    88          1
    94          1
    95          6
    96         40
    97         32
    98        279
    99         38
   100          4
   101          8
   102          1
   107          1
   108         18
   109         17
   110          2
   112          1
   113          4
   114         10
   115          6
   116          1
   122          2
   123          9
   124        154
   125         17
   126         41
   127          8
   128          3
   129          1
   140          4
   141         26
   142         94
   143         10
   144          6
   151          1
   152          9
   153          2
   154          3
   155         24
   156          6
   166          9
   168        491
   169         51
   170         88
   171         12
   172          3
   180          1
   186         33
   187          3
   198         50
   199          5
   212          6
   213          3
   214        230
   215         59
   216         16
   217          2
   226          5