##TITLE=Library Entry 45893
##JCAMP-DX=Revision 4.10 
##DATA TYPE=MASS SPECTRUM
##SAMPLE DESCRIPTION=J.M. Halket, Trace Anal. Unit (TAU), London, UK
##NAMES=HP
##CAS NAME=3-Methylvaleric acid, TBDMS derivative
##MOLFORM=C12H26O2Si
##CAS REGISTRY NO=98983-20-1
##MP= -300
##BP= -300
##MW= 230
##$RETENTION INDEX=0
##$CONDENSED SPECTRUM=NO
##NPOINTS= 82
##XYDATA=(XY..XY) 1 
    39         72
    41        195
    42         29
    43         94
    44         10
    45        102
    46          7
    47         83
    48          4
    49          3
    50          2
    51          3
    52          2
    53         12
    54          3
    55         36
    56         23
    57         86
    58         33
    59         50
    60         16
    61         26
    62          2
    63          1
    66          1
    67          3
    68          2
    69         16
    70          5
    71         18
    72         20
    73        158
    75        999
    76         68
    77         36
    78          1
    79          2
    81         44
    82          3
    83          5
    84          1
    85         10
    86          4
    87          3
    88          4
    89          1
    93          1
    97         15
    98          2
    99         20
   100          3
   101         14
   102          3
   103          4
   105          1
   111          1
   113          2
   114          4
   115         28
   116         16
   117         39
   118          4
   119          2
   129         30
   130          3
   131          7
   132          1
   143          9
   144          2
   145          2
   155         24
   156          3
   157          2
   159          1
   169          1
   173        613
   174         86
   175         26
   176          2
   185          2
   215         10
   216          2