##TITLE=Library Entry 60868
##JCAMP-DX=Revision 4.10 
##DATA TYPE=MASS SPECTRUM
##SAMPLE DESCRIPTION=Humboldt-Universitat zu Berlin, Department of Chemistry
, Analytical Group
##NAMES=HP
##CAS NAME=N1-Benzyl-N2(bezylidenyl-benzylamino)-benzamidin
##MOLFORM=C28H25N3
##CAS REGISTRY NO=98984-51-1
##MP= -300
##BP= -300
##MW= 403
##$RETENTION INDEX=0
##$CONDENSED SPECTRUM=NO
##NPOINTS= 144
##XYDATA=(XY..XY) 1 
    12          1
    14          2
    15          2
    16          4
    17         11
    18         40
    26          3
    27          8
    28         51
    29         13
    30          4
    31          4
    32          6
    37          2
    38          3
    39         29
    40          4
    41         16
    42          4
    43         14
    44         26
    45          9
    46          3
    50         12
    51         43
    52         10
    53          3
    54          1
    55          4
    56          3
    57          4
    60          4
    61          1
    62          3
    63         16
    64          8
    65        128
    66          8
    67          1
    69          3
    70          2
    71          1
    73          2
    74          2
    75          4
    76         20
    77        135
    78         23
    79         35
    80          3
    82          2
    83          4
    84          1
    85          2
    87          1
    89         54
    90         58
    91        999
    92        125
    93          7
    96          3
    98          1
   102          4
   103         30
   104        309
   105         34
   106        171
   107         15
   110          1
   115          2
   116          6
   117          9
   118         41
   119          4
   120          2
   129          5
   130          1
   131          2
   132          1
   133          1
   139          1
   141          1
   148          1
   149          1
   151          1
   152          1
   153          1
   163          1
   164          1
   165         23
   166          9
   167          4
   168          0
   177          0
   178          1
   179          1
   180         16
   181          3
   182          1
   183          1
   190          1
   191          1
   192         18
   193        266
   194         70
   195          9
   196          2
   205          1
   206          1
   207          7
   208          3
   209         20
   210          4
   211          0
   220          0
   221          1
   222          0
   234          0
   236          0
   269          1
   270          1
   271          0
   283          0
   295          0
   296          1
   297          4
   298          2
   299          1
   300          1
   309          0
   310          2
   312         78
   313         19
   314          2
   315          0
   324          1
   325          0
   326          0
   340          0
   400          0
   402         50
   403         41
   404         11
   405          1