##TITLE=Library Entry 51508
##JCAMP-DX=Revision 4.10 
##DATA TYPE=MASS SPECTRUM
##SAMPLE DESCRIPTION=A.A.Kutin, Moscow, Russia
##NAMES=HP
##CAS NAME=8-Azabicyclo[3.2.1]octan-3-amine, 8-methyl-
##MOLFORM=C8H16N2
##CAS REGISTRY NO=98998-25-5
##MP= -300
##BP= -300
##MW= 140
##$RETENTION INDEX=0
##$CONDENSED SPECTRUM=NO
##NPOINTS= 80
##XYDATA=(XY..XY) 1 
    37          2
    38          7
    39         97
    40         23
    41        154
    42        554
    43         92
    44         98
    49          0
    50          6
    51         16
    52         17
    53         42
    54         85
    55        150
    56        199
    57        303
    58         49
    59         73
    60          1
    64          0
    65         26
    66         18
    67        172
    68        165
    69         71
    70        194
    71         39
    72          7
    73          0
    74          0
    76          0
    77         17
    78          6
    79         13
    80         76
    81        158
    82        999
    83        889
    84        214
    85         33
    86          2
    87          0
    89          0
    91         15
    92          5
    93         21
    94        156
    95         66
    96        641
    97        332
    98         38
    99          6
   100          0
   104          1
   105          1
   106          5
   107          6
   108         45
   109         64
   110         11
   111        101
   112        128
   113          9
   117          0
   118          1
   120          2
   121          1
   122         39
   123         29
   124        460
   125         58
   126          2
   127          0
   135          0
   137          1
   139         51
   140        458
   141         41
   142          2