##TITLE=Library Entry 31895
##JCAMP-DX=Revision 4.10 
##DATA TYPE=MASS SPECTRUM
##SAMPLE DESCRIPTION=D.HENNEBERG, MAX-PLANCK INSTITUTE, MULHEIM, WEST GERMAN
Y
##NAMES=HP
##CAS NAME=m-Nitroaniline
##MOLFORM=C6H6N2O2
##CAS REGISTRY NO=99-09-2
##MP= -300
##BP= -300
##MW= 138
##$RETENTION INDEX=1484
##$CONDENSED SPECTRUM=NO
##NPOINTS= 81
##XYDATA=(XY..XY) 1 
    26         12
    27         28
    28         77
    29          5
    30         32
    31          1
    32          0
    33          0
    36          2
    37         34
    38         88
    39        320
    40         32
    41         85
    42         30
    43          1
    44          4
    45          1
    46         17
    47          1
    48          0
    49          6
    50         34
    51         38
    52        110
    53         51
    54         28
    55          2
    56          0
    60          2
    61         24
    62         51
    63        126
    64        100
    65        999
    66        126
    67          8
    68          2
    69          1
    73          3
    74         15
    75         13
    76          7
    77          2
    78          9
    79         14
    80        126
    81          8
    82          0
    83          0
    84          1
    85          1
    86          1
    87          2
    88          3
    89          6
    90         17
    91         54
    92        951
    93         73
    94          3
    95          1
    96          1
   104          0
   105          3
   106          1
   107          1
   108         65
   109          6
   110          9
   111          0
   120          0
   121          1
   122          7
   123          0
   136          0
   137          6
   138        899
   139         69
   140          6
   141          0