##TITLE=Library Entry 62212
##JCAMP-DX=Revision 4.10 
##DATA TYPE=MASS SPECTRUM
##SAMPLE DESCRIPTION=Japan AIST/NIMC Database- Spectrum MS-NW-2183
##NAMES=HP
##CAS NAME=Benzene, 1-methyl-3-nitro-
##MOLFORM=C7H7NO2
##CAS REGISTRY NO=99-08-1
##MP= -300
##BP= -300
##MW= 137
##$RETENTION INDEX=1198
##$CONDENSED SPECTRUM=NO
##NPOINTS= 61
##XYDATA=(XY..XY) 1 
    15          1
    17          1
    18          3
    26          5
    27         17
    28          6
    29          1
    30         35
    37         10
    38         23
    39        168
    40         10
    41         46
    42          1
    43          4
    44          3
    46          5
    49          4
    50         41
    51         68
    52         17
    53         15
    54          1
    60          1
    61         11
    62         33
    63        104
    64         30
    65        463
    66         27
    73          2
    74          9
    75          9
    76          6
    77         64
    78         13
    79         73
    80          6
    84          1
    85          3
    86          6
    87          6
    88          2
    89         75
    90         41
    91        999
    92         79
    93          2
   104          2
   105          2
   106          7
   107         76
   108          6
   120          3
   121         15
   122          1
   135          1
   136          5
   137        511
   138         42
   139          3