##TITLE=Library Entry 55736
##JCAMP-DX=Revision 4.10 
##DATA TYPE=MASS SPECTRUM
##SAMPLE DESCRIPTION=Japan AIST/NIMC Database- Spectrum MS-NW-3257
##NAMES=HP
##CAS NAME=Tricarballylic acid
##MOLFORM=C6H8O6
##CAS REGISTRY NO=99-14-9
##MP= -300
##BP= -300
##MW= 176
##$RETENTION INDEX=0
##$CONDENSED SPECTRUM=NO
##NPOINTS= 92
##XYDATA=(XY..XY) 1 
    12          2
    13          4
    14         26
    15         43
    16          6
    17         11
    18         35
    24          2
    25          9
    26         66
    27        255
    28        103
    29        151
    30         18
    31         48
    32          2
    36          8
    37         35
    38         72
    39        460
    40        176
    41        800
    42        591
    43        251
    44        115
    45        541
    46         20
    47         10
    48          6
    49          3
    50          6
    51          3
    52          2
    53         31
    54         10
    55        249
    56         14
    57        140
    58        437
    59         18
    60        193
    61          5
    62          1
    63          9
    64          1
    65          2
    66          7
    67         16
    68        121
    69         49
    70          6
    71        123
    72          9
    73         88
    74          4
    80          2
    81         12
    82          3
    83          3
    84        136
    85        327
    86        999
    87         53
    88          9
    89         13
    90          1
    94          2
    95         33
    96          7
    97          1
    98          1
    99        242
   100         14
   101          4
   102          1
   111          3
   112        719
   113        307
   114        188
   115         13
   116          2
   117         42
   118          2
   130         73
   131         13
   132          2
   139          2
   140        441
   141        129
   142         11
   158         27
   159         10