##TITLE=Library Entry 41112
##JCAMP-DX=Revision 4.10 
##DATA TYPE=MASS SPECTRUM
##SAMPLE DESCRIPTION=RADIAN CORP
##NAMES=HP
##CAS NAME=Trehalose
##MOLFORM=C12H22O11
##CAS REGISTRY NO=99-20-7
##MP= -300
##BP= -300
##MW= 342
##$RETENTION INDEX=0
##$CONDENSED SPECTRUM=NO
##NPOINTS= 104
##XYDATA=(XY..XY) 1 
    15          5
    17          6
    18         33
    19         11
    26          7
    27         34
    28         83
    29        154
    30         25
    31        165
    32         31
    33          1
    38          8
    39         45
    40         13
    41         73
    42        112
    43        308
    44        353
    45        139
    46         12
    47         45
    49         10
    50          2
    51          9
    52          7
    53         27
    54         21
    55        136
    56        131
    57        340
    58         52
    59         33
    60        639
    61        243
    62         15
    63          2
    65          3
    66          1
    67         10
    68         23
    69        142
    70         81
    71        199
    72         90
    73        999
    74        135
    75         17
    76          6
    77         21
    79          4
    80         10
    81         27
    82          7
    83         20
    84         27
    85        174
    86         54
    87         80
    88         11
    89         39
    90         19
    91         59
    95         24
    96         30
    97        130
    98         88
    99         29
   100          6
   101         55
   102         52
   103         69
   104          5
   109         28
   110         32
   111          6
   112          3
   113         29
   114         17
   115         41
   116         36
   117          8
   119         17
   125          6
   126         47
   127         45
   128         10
   129          2
   130         10
   131         31
   132          8
   133         22
   143          6
   144         36
   145         64
   146         69
   147         11
   149         10
   155          1
   161          2
   162          5
   163         41
   173          4
   235          7