##TITLE=Library Entry 1413
##JCAMP-DX=Revision 4.10 
##DATA TYPE=MASS SPECTRUM
##SAMPLE DESCRIPTION=Japan AIST/NIMC Database- Spectrum MS-NW- 474
##NAMES=HP
##CAS NAME=Benzoic acid, 3,5-dinitro-
##MOLFORM=C7H4N2O6
##CAS REGISTRY NO=99-34-3
##MP= -300
##BP= -300
##MW= 212
##$RETENTION INDEX=0
##$CONDENSED SPECTRUM=NO
##NPOINTS= 106
##XYDATA=(XY..XY) 1 
    17          4
    18         18
    25          1
    26          4
    27          9
    28         25
    29         12
    30        999
    31          4
    36          4
    37         38
    38         58
    39         43
    40          5
    41          3
    42          3
    43          3
    44         16
    45         68
    46         24
    48          3
    49         13
    50        168
    51         44
    52         59
    53         72
    54          7
    55         24
    56          2
    57          2
    60          6
    61         34
    62         69
    63        168
    64        142
    65         19
    66         31
    67          9
    68          7
    69         57
    70          7
    71          2
    72          4
    73         55
    74        420
    75        704
    76         77
    77         10
    78          4
    79         21
    80         27
    81          4
    82         12
    83          2
    86          4
    87          8
    88          7
    89          3
    90         14
    91         42
    92        116
    93         25
    94          6
    95          3
    96          3
    98          4
    99          3
   101         48
   102        128
   103         38
   104          5
   106          1
   107          5
   108         17
   109          2
   110          5
   118          6
   119        435
   120        285
   121         41
   122          7
   123          3
   124          2
   134          4
   135          4
   136        150
   137         13
   138          2
   148         17
   149         35
   150          4
   151          3
   152          2
   165          1
   166        279
   167         24
   168         10
   182         12
   183          2
   195         25
   196         29
   197          3
   198          1
   212        795
   213         70
   214         12