##TITLE=Library Entry 36591
##JCAMP-DX=Revision 4.10 
##DATA TYPE=MASS SPECTRUM
##SAMPLE DESCRIPTION=Chemical Sci. & Tec. Lab., NIST, Gaithersburg, MD 20899
##NAMES=HP
##CAS NAME=4H-Pyran-2,6-dicarboxylic acid, 4-oxo-
##MOLFORM=C7H4O6
##CAS REGISTRY NO=99-32-1
##MP= -300
##BP= -300
##MW= 184
##$RETENTION INDEX=0
##$CONDENSED SPECTRUM=NO
##NPOINTS= 24
##XYDATA=(XY..XY) 1 
    41        203
    42         66
    44         42
    45        181
    49         22
    50          7
    52          7
    53        298
    54         22
    55         20
    66         16
    69        999
    70         56
    71         70
    84          6
    95         37
   111         14
   128         48
   139        161
   156        262
   157          6
   167         25
   184        327
   185         41