##TITLE=Library Entry 99630
##JCAMP-DX=Revision 4.10 
##DATA TYPE=MASS SPECTRUM
##SAMPLE DESCRIPTION=Zaikin V.G., TIPS RAS, Moscow, Russia
##NAMES=HP
##CAS NAME=Benzoic acid, 3-methyl-, methyl ester
##MOLFORM=C9H10O2
##CAS REGISTRY NO=99-36-5
##MP= -300
##BP= -300
##MW= 150
##$RETENTION INDEX=1206
##$CONDENSED SPECTRUM=NO
##NPOINTS= 42
##XYDATA=(XY..XY) 1 
    28          1
    29          2
    36          5
    38          5
    39         33
    40          3
    41          8
    44          4
    45          3
    50         13
    51         18
    52          6
    59          7
    61          3
    62         13
    63         38
    64         11
    65         88
    66          5
    74          9
    75          4
    76          3
    77          7
    78          3
    79          3
    86          3
    87          3
    89         46
    90         26
    91        404
    92         32
   105         11
   118          4
   119        999
   120         76
   121          5
   133          3
   135         11
   149         14
   150        362
   151         34
   152          3