##TITLE=Library Entry 51137
##JCAMP-DX=Revision 4.10 
##DATA TYPE=MASS SPECTRUM
##SAMPLE DESCRIPTION=N.W. Davies, Centr. Sci. Lab., Univ. Tasmania, Hobart,
 Australia
##NAMES=HP
##CAS NAME=Carvone
##MOLFORM=C10H14O
##CAS REGISTRY NO=99-49-0
##MP= -300
##BP= -300
##MW= 150
##$RETENTION INDEX=1242
##$CONDENSED SPECTRUM=NO
##NPOINTS= 42
##XYDATA=(XY..XY) 1 
    27         82
    29         20
    38         20
    39        341
    40         11
    41        228
    42         20
    43         12
    50         29
    51         67
    52         37
    53        166
    54        436
    55         45
    58         97
    63         19
    65         43
    66         21
    67         73
    68         20
    69         31
    77         70
    78         20
    79         98
    80         47
    82        999
    83         57
    91         81
    92         44
    93        261
    94         53
    95         32
   105         19
   106        111
   107        162
   108        254
   109         37
   121         14
   122         13
   135         28
   150         97
   151         11