##TITLE=Library Entry 56512
##JCAMP-DX=Revision 4.10 
##DATA TYPE=MASS SPECTRUM
##SAMPLE DESCRIPTION=Tox21 Consortium/NIST Mass Spectrometry Data Center, 20
12
##NAMES=HP
##CAS NAME=Benzoic acid, 4-amino-3-butoxy-, 2-(diethylamino)ethyl ester
##MOLFORM=C17H28N2O3
##CAS REGISTRY NO=99-43-4
##MP= -300
##BP= -300
##MW= 308
##$RETENTION INDEX=2393
##$CONDENSED SPECTRUM=NO
##NPOINTS= 102
##XYDATA=(XY..XY) 1 
    15          1
    18          1
    26          1
    27          8
    28         13
    29         32
    30         26
    31          1
    39          5
    40          1
    41         21
    42         17
    43          5
    44         15
    45          1
    50          1
    51          3
    52         11
    53         12
    54          4
    55          6
    56         31
    57         14
    58         41
    59          1
    63          3
    64          2
    65          3
    66          1
    67          1
    68          2
    69          2
    70         23
    71         63
    72         14
    73          1
    74          1
    76          1
    77          1
    78          6
    79         21
    80         34
    81          3
    82          1
    84         43
    86        999
    87         60
    88          2
    90          3
    91          8
    92          2
    93          2
    94          1
    96          3
    97          4
    99        371
   100         45
   101          2
   102          1
   104          1
   105          1
   106          7
   107         21
   108         21
   109          4
   110          1
   114          1
   116          1
   119          5
   120          2
   121          3
   122          2
   123          1
   124          2
   125          1
   134          2
   135         16
   136         57
   137          5
   138          1
   148          2
   150          3
   152          2
   153         13
   154          1
   162          2
   163          1
   164          5
   165          1
   166          1
   179         11
   180          5
   181          1
   190          2
   192         66
   193          8
   194          1
   209          6
   210          1
   236         13
   237          2
   265          1