##TITLE=Library Entry 16282
##JCAMP-DX=Revision 4.10 
##DATA TYPE=MASS SPECTRUM
##SAMPLE DESCRIPTION=AAFS Toxicology Section MS DB Committee, U. Alberta, Ca
nada
##NAMES=HP
##CAS NAME=Adrenalone
##MOLFORM=C9H11NO3
##CAS REGISTRY NO=99-45-6
##MP= -300
##BP= -300
##MW= 181
##$RETENTION INDEX=0
##$CONDENSED SPECTRUM=NO
##NPOINTS= 88
##XYDATA=(XY..XY) 1 
    40          6
    41         18
    42         83
    43         53
    44        999
    45         44
    49          4
    50         46
    51         92
    52         61
    53        108
    54         21
    55        107
    56         13
    57         14
    58         12
    60         20
    61         13
    62         46
    63         99
    64         23
    65         25
    66         18
    67         16
    68          7
    69         25
    70          9
    71         19
    73         16
    74         10
    75         14
    76          6
    77         57
    78         14
    79         37
    80         18
    81        167
    82         22
    83         18
    84          9
    85         10
    86          4
    87          8
    88          4
    89          8
    90          4
    91         35
    92         13
    93          9
    94          9
    95         11
    96          8
    97         14
    98         11
    99          4
   101          6
   104          5
   105         62
   106          7
   107         27
   108         20
   109        200
   110         87
   111         16
   112          4
   115          4
   121          6
   122          7
   123         65
   124          8
   129          5
   134          7
   135          5
   136         10
   137        360
   138         40
   139          6
   148          4
   149          4
   150          5
   152        527
   153         47
   154          8
   164          5
   178          4
   179          9
   181         42
   182          5