##TITLE=Library Entry 99549
##JCAMP-DX=Revision 4.10 
##DATA TYPE=MASS SPECTRUM
##SAMPLE DESCRIPTION=Japan AIST/NIMC Database- Spectrum MS-NW-7594
##NAMES=HP
##CAS NAME=Carveol
##MOLFORM=C10H16O
##CAS REGISTRY NO=99-48-9
##MP= -300
##BP= -300
##MW= 152
##$RETENTION INDEX=1219
##$CONDENSED SPECTRUM=NO
##NPOINTS= 114
##XYDATA=(XY..XY) 1 
    14          1
    15          8
    16          2
    17         26
    18          2
    26          6
    27         85
    28         12
    29         36
    30          1
    31          4
    37          4
    38         15
    39        212
    40         30
    41        291
    42         18
    43         45
    44          7
    45          5
    49          2
    50         33
    51        107
    52         39
    53         94
    54         27
    55        143
    56         38
    57         16
    58         14
    59          7
    60          3
    61          6
    62         18
    63         55
    64         24
    65        129
    66         32
    67         58
    68         21
    69         62
    70          6
    71          8
    72          6
    73          1
    74         10
    75         10
    76          9
    77        338
    78         95
    79        214
    80         80
    81         52
    82         51
    83         98
    84        228
    85         13
    86          5
    87          6
    88          2
    89         24
    90          9
    91        861
    92        380
    93        360
    94         64
    95         45
    96         22
    97         19
    98          2
    99          1
   101          4
   102         15
   103         71
   104         48
   105        281
   106        110
   107         52
   108         40
   109        228
   110         27
   111          6
   112          1
   113          2
   114          2
   115         86
   116         29
   117        178
   118         33
   119        999
   120        100
   121         12
   122          3
   123         26
   124          8
   125          1
   126          1
   127          4
   128          9
   129          6
   130          2
   131         20
   132         85
   133         52
   134        677
   135         78
   136          6
   137         34
   138          4
   148          2
   150          4
   151          1
   152         43
   153          5