##TITLE=Library Entry 86459
##JCAMP-DX=Revision 4.10 
##DATA TYPE=MASS SPECTRUM
##SAMPLE DESCRIPTION=NIST Mass Spectrometry Data Center, 1998.
##NAMES=HP
##CAS NAME=Benzene, 1,2-dichloro-4-nitro-
##MOLFORM=C6H3Cl2NO2
##CAS REGISTRY NO=99-54-7
##MP= -300
##BP= -300
##MW= 191
##$RETENTION INDEX=1386
##$CONDENSED SPECTRUM=NO
##NPOINTS= 111
##XYDATA=(XY..XY) 1 
    16          1
    24          1
    25          2
    26          3
    27          1
    30        182
    31          1
    35         12
    36         11
    37         61
    38         35
    39          8
    44          1
    46         36
    47         16
    48         10
    49         58
    50        135
    51         29
    52          3
    53          2
    54          6
    59          2
    60         29
    61         72
    62         61
    63         72
    64          8
    65          1
    66          1
    71          9
    72         45
    73        195
    74        640
    75        494
    76         35
    77          2
    82          2
    83         23
    84        175
    85        105
    86         67
    87         41
    88         13
    89          3
    90          2
    91          1
    94          5
    95          6
    96          8
    97         34
    98         16
    99         12
   100          5
   101          1
   104          1
   106          2
   107         33
   108         51
   109        999
   110        217
   111        331
   112         65
   113          3
   118          4
   119         25
   120          4
   121         16
   122          2
   123          3
   124         16
   125          2
   126         16
   127          1
   128          3
   131          1
   133        594
   134         34
   135        385
   136         21
   137         63
   138          3
   142          1
   143          1
   144         17
   145        929
   146         73
   147        596
   148         42
   149         98
   150          6
   156          1
   159          1
   161        394
   162         27
   163        256
   164         17
   165         41
   166          3
   171          1
   175         20
   176          1
   177         12
   178          1
   179          2
   191        737
   192         53
   193        478
   194         34
   195         79
   196          5