##TITLE=Library Entry 66220
##JCAMP-DX=Revision 4.10 
##DATA TYPE=MASS SPECTRUM
##SAMPLE DESCRIPTION=Japan AIST/NIMC Database- Spectrum MS-NW-9657
##NAMES=HP
##CAS NAME=.gamma.-Terpinene
##MOLFORM=C10H16
##CAS REGISTRY NO=99-85-4
##MP= -300
##BP= -300
##MW= 136
##$RETENTION INDEX=1060
##$CONDENSED SPECTRUM=NO
##NPOINTS= 71
##XYDATA=(XY..XY) 1 
    15          1
    26          1
    27         51
    28          4
    29         25
    38          3
    39         68
    40          9
    41         99
    42          5
    43        175
    44          6
    50          9
    51         40
    52         16
    53         40
    54          3
    55         27
    56          2
    57          8
    58         10
    59          5
    60          2
    62          4
    63         15
    64          5
    65         51
    66          8
    67         25
    68          9
    69          5
    74          2
    75          3
    76          2
    77        281
    78         42
    79        185
    80         77
    81         20
    82          2
    87          1
    89          8
    90          3
    91        372
    92        214
    93        999
    94         95
    95          7
   102          4
   103         21
   104          9
   105         97
   106         22
   107         72
   108         12
   109          1
   115         14
   116          4
   117         16
   118          3
   119         86
   120         10
   121        303
   122         29
   123          1
   133          1
   134         18
   135          8
   136        358
   137         41
   138          2