##TITLE=Library Entry 66201
##JCAMP-DX=Revision 4.10 
##DATA TYPE=MASS SPECTRUM
##SAMPLE DESCRIPTION=Chemical Concepts
##NAMES=HP
##CAS NAME=.alpha.-Phellandrene
##MOLFORM=C10H16
##CAS REGISTRY NO=99-83-2
##MP= -300
##BP= -300
##MW= 136
##$RETENTION INDEX=1005
##$CONDENSED SPECTRUM=NO
##NPOINTS= 90
##XYDATA=(XY..XY) 1 
    26          5
    27        101
    28         10
    29         27
    30          0
    31          0
    37          1
    38          7
    39        112
    40         16
    41        141
    42          6
    43         48
    44          1
    45          0
    46          0
    47          0
    49          0
    50         13
    51         50
    52         18
    53         38
    54          3
    55         17
    56          1
    57          3
    58          4
    59          2
    60          0
    61          1
    62          5
    63         19
    64          6
    65         58
    66          8
    67         14
    68          6
    69         39
    70          2
    71          1
    74          2
    75          3
    76          3
    77        306
    78         48
    79         64
    80         22
    81         10
    82          2
    83          1
    84          0
    85          0
    86          0
    87          1
    88          0
    89         13
    90          7
    91        332
    92        253
    93        999
    94         85
    95         10
    96          1
    97          1
   101          0
   102          2
   103          7
   104          3
   105         22
   106          5
   107          7
   108          1
   109          0
   110          1
   111          1
   115          6
   116          1
   117          5
   118          1
   119         33
   120          4
   121         20
   122          2
   123          0
   134          7
   135          1
   136        156
   137         17
   138          2
   139          0