##TITLE=Library Entry 100331
##JCAMP-DX=Revision 4.10 
##DATA TYPE=MASS SPECTRUM
##SAMPLE DESCRIPTION=Japan AIST/NIMC Database- Spectrum MS-NW- 748
##NAMES=HP
##CAS NAME=p-Cymene
##MOLFORM=C10H14
##CAS REGISTRY NO=99-87-6
##MP= -300
##BP= -300
##MW= 134
##$RETENTION INDEX=1025
##$CONDENSED SPECTRUM=NO
##NPOINTS= 86
##XYDATA=(XY..XY) 1 
    15          3
    26          1
    27         22
    28          7
    29          6
    37          1
    38          4
    39         48
    40          5
    41         59
    42          5
    43          9
    44          1
    50         10
    51         31
    52          9
    53         12
    54          2
    55         34
    56          5
    57         16
    58         15
    59          4
    61          2
    62          8
    63         22
    64         11
    65         47
    66          9
    67          5
    68          2
    69          9
    70          2
    71          1
    74          4
    75          4
    76          4
    77         52
    78         15
    79         22
    80          2
    81          9
    82          2
    83          3
    84          1
    85          1
    86          2
    87          2
    88          1
    89         12
    90          4
    91        158
    92         19
    93         24
    94          2
    95          4
    96         16
    97         29
    98          3
   101          2
   102          9
   103         32
   104         21
   105         27
   106          3
   107          1
   109          2
   110          1
   111          2
   114          1
   115         44
   116         13
   117         91
   118         19
   119        999
   120        100
   121          5
   127          1
   128          3
   129          2
   131          4
   132         17
   133         13
   134        254
   135         27
   136          2