##TITLE=Library Entry 62214
##JCAMP-DX=Revision 4.10 
##DATA TYPE=MASS SPECTRUM
##SAMPLE DESCRIPTION=Japan AIST/NIMC Database- Spectrum MS-NW-6817
##NAMES=HP
##CAS NAME=Benzene, 1-methyl-4-nitro-
##MOLFORM=C7H7NO2
##CAS REGISTRY NO=99-99-0
##MP= -300
##BP= -300
##MW= 137
##$RETENTION INDEX=1212
##$CONDENSED SPECTRUM=NO
##NPOINTS= 68
##XYDATA=(XY..XY) 1 
    15          2
    17          1
    18          8
    25          1
    26          9
    27         26
    28         22
    29          1
    30         50
    32          1
    36          1
    37         15
    38         31
    39        211
    40         14
    41         54
    42          2
    43          6
    44          2
    46          8
    48          1
    49          8
    50         66
    51         94
    52         28
    53         22
    54          1
    55          1
    60          2
    61         18
    62         49
    63        136
    64         37
    65        577
    66         33
    67          1
    73          4
    74         18
    75         15
    76          9
    77        117
    78         27
    79        123
    80          9
    84          2
    85          7
    86         12
    87         10
    88          4
    89        101
    90         40
    91        999
    92         79
    93          4
   104          3
   105          2
   106         11
   107        203
   108         16
   109          1
   120          2
   121         18
   122          2
   135          2
   136          1
   137        756
   138         62
   139          6