##TITLE=Library Entry 62202
##JCAMP-DX=Revision 4.10 
##DATA TYPE=MASS SPECTRUM
##SAMPLE DESCRIPTION=Chemical Concepts
##NAMES=HP
##CAS NAME=Benzoic acid, 4-methyl-
##MOLFORM=C8H8O2
##CAS REGISTRY NO=99-94-5
##MP= -300
##BP= -300
##MW= 136
##$RETENTION INDEX=1213
##$CONDENSED SPECTRUM=NO
##NPOINTS= 100
##XYDATA=(XY..XY) 1 
    26          7
    27         27
    28          7
    29          4
    30          0
    31          1
    35          0
    36          2
    37         11
    38         22
    39        102
    40         12
    41         24
    42          2
    43         14
    44          7
    45         37
    46          2
    48          0
    49          5
    50         45
    51         58
    52         11
    53         11
    54          3
    55          4
    56          0
    57          2
    58          0
    59         29
    60          2
    61         13
    62         32
    63         69
    64         17
    65        154
    66         11
    67          2
    68          1
    69          1
    70          0
    71          1
    72          0
    73          2
    74         11
    75          8
    76          4
    77         27
    78          6
    79          9
    80          1
    81          2
    82          0
    83          1
    84          2
    85          5
    86          9
    87          6
    88          2
    89         63
    90         45
    91        999
    92        154
    93          9
    94          0
    95          0
    96          0
    97          1
    98          0
    99          0
   101          0
   102          0
   103          0
   104          0
   105          6
   106          1
   107         29
   108          6
   109          1
   110          0
   111          0
   112          0
   113          0
   114          0
   115          0
   116          0
   117          0
   118         18
   119        641
   120         53
   121          4
   122          0
   131          0
   132          0
   133          0
   134          1
   135         20
   136        895
   137         63
   138          6