##TITLE=Library Entry 63282
##JCAMP-DX=Revision 4.10 
##DATA TYPE=MASS SPECTRUM
##SAMPLE DESCRIPTION=Leung Pu, NIH, Bethesda, Maryland, U.S.
##NAMES=HP
##CAS NAME=Tetrabenzyl pyrophosphate
##MOLFORM=C28H28O7P2
##CAS REGISTRY NO=990-91-0
##MP= -300
##BP= -300
##MW= 538
##$RETENTION INDEX=0
##$CONDENSED SPECTRUM=NO
##NPOINTS= 165
##XYDATA=(XY..XY) 1 
    41         32
    42          8
    43         24
    44          8
    45         33
    46          2
    47          2
    48          1
    49          2
    50         26
    51         66
    52         20
    53         10
    54          4
    55         14
    56          7
    57         14
    58          2
    59          1
    60          6
    61          6
    62         14
    63         53
    64         17
    65        198
    66         11
    67          3
    68          5
    69         12
    70          6
    71          6
    72          0
    73         14
    74          7
    75          6
    76          7
    77        133
    78         30
    79        122
    80          9
    81          9
    82          7
    83          6
    84          4
    85          4
    86          5
    87          5
    88          2
    89         69
    90         52
    91        999
    92        113
    93          6
    94          4
    95          4
    96          3
    97          5
    98          4
    99          4
   100          2
   101          4
   102          1
   103          1
   104          3
   105         52
   106         13
   107        238
   108         43
   109          4
   110          1
   111          3
   112          4
   113         14
   114          3
   115          7
   116          0
   119         14
   120          1
   121          7
   122         10
   123          1
   124          0
   125          1
   126          2
   127          1
   128          1
   129          3
   131          0
   132          0
   133          4
   137          1
   138          0
   139          4
   140          0
   141          4
   142          1
   143          1
   149          0
   150          1
   151          2
   152          5
   153          2
   154          1
   155          1
   157          2
   162          0
   163          5
   164          5
   165         82
   166         15
   167          9
   168          1
   169          2
   170          1
   171          4
   172          0
   175          0
   176          2
   177          1
   178         19
   179         35
   180        182
   181         28
   182          3
   183          1
   185          2
   186          0
   187        397
   188         33
   189          6
   190          0
   195          0
   197          4
   198          1
   199          0
   200          1
   201          0
   202          4
   203          1
   211          0
   213          3
   214          0
   215          8
   216          1
   224          0
   226          6
   227          3
   228          9
   229          2
   237          2
   238          0
   239         15
   240          5
   241         24
   242         20
   243         74
   244         20
   245          2
   256          0
   259          0
   270          0
   277        172
   278         24
   279          4
   367          2