##TITLE=Library Entry 27900
##JCAMP-DX=Revision 4.10 
##DATA TYPE=MASS SPECTRUM
##SAMPLE DESCRIPTION=OGDEN BioServices Corp., NCI, Rockville, MD 20852
##NAMES=HP
##CAS NAME=Pyrazolo[3,4,5-kl]acridine-2(6H)-propanamide, 9-methoxy-N,N-dimet
hyl-
##MOLFORM=C19H21N5O3
##CAS REGISTRY NO=99009-21-9
##MP= -300
##BP= -300
##MW= 367
##$RETENTION INDEX=0
##$CONDENSED SPECTRUM=NO
##NPOINTS= 202
##XYDATA=(XY..XY) 1 
    42        219
    43         67
    44         96
    45        107
    46          1
    47          8
    48         16
    52          5
    53          5
    54          3
    55          9
    56         41
    57         21
    58        999
    59         35
    60          1
    61          0
    62          3
    63         16
    64          9
    65         15
    66          2
    67          2
    68          6
    69          6
    70         64
    71         24
    72         38
    73          8
    74          3
    75          6
    76          4
    77          7
    78          9
    79         16
    80          3
    81         10
    82          8
    83         25
    84         92
    85         34
    86         13
    87          3
    88          6
    89          4
    90          2
    91          1
    92          0
    94          0
    95          0
    96         12
    97          1
    98          2
    99          4
   100          2
   101          2
   102          2
   103          3
   104          1
   105          0
   106          1
   109          0
   110          2
   111          2
   112          4
   113          3
   114          2
   115          1
   116          1
   117          2
   118          0
   122          0
   123          1
   124          2
   125          5
   126          3
   127          3
   128          1
   129          1
   131          1
   133          1
   135          0
   136          1
   137          6
   138          6
   139          4
   140          6
   141          1
   142          0
   147          0
   149          3
   150          5
   151          9
   152          8
   153          5
   154          2
   155          1
   159          0
   162          3
   163         12
   164         24
   165          9
   166          5
   167          1
   168          0
   175          4
   176          8
   177          9
   178         12
   179          9
   180          5
   181          1
   182          0
   183          6
   189          1
   190          2
   191          9
   192         10
   193         10
   194          4
   195          1
   203          0
   204          6
   205          9
   206         39
   207         46
   208         10
   209          2
   210          0
   217          3
   218          5
   219          7
   220         11
   221         10
   222          7
   223          2
   224          0
   230          1
   231          1
   232          2
   233          6
   234         14
   235         12
   236         12
   237          2
   238          0
   239          3
   240          1
   246          2
   247          5
   248         23
   249         41
   250         10
   251          2
   252          4
   253          8
   254          2
   260          1
   261          4
   262         11
   263          8
   264          6
   265          4
   266          1
   267          2
   268          8
   269          3
   275          2
   276          5
   277          5
   278         18
   279         52
   280         10
   281          6
   282         11
   283          3
   284          3
   285          1
   291          0
   292         22
   293         11
   294          6
   295         86
   296         33
   297          6
   305          1
   306          1
   307          1
   308          3
   309        202
   310         36
   311          4
   320          1
   321          2
   322          6
   323          6
   324          1
   350          1
   351          0
   367         39
   368         11
   369          1