##TITLE=Library Entry 60631
##JCAMP-DX=Revision 4.10 
##DATA TYPE=MASS SPECTRUM
##SAMPLE DESCRIPTION=Organic Synthesis Lab, MSU, Moscow.TRC 1128
##NAMES=HP
##CAS NAME=3-Benzyloxy-4-chloroisocoumarin
##MOLFORM=C16H11ClO3
##CAS REGISTRY NO=99033-23-5
##MP= -300
##BP= -300
##MW= 286
##$RETENTION INDEX=0
##$CONDENSED SPECTRUM=NO
##NPOINTS= 80
##XYDATA=(XY..XY) 1 
    38          2
    39         23
    40          1
    41          7
    43          2
    50          9
    51         14
    52          3
    55          1
    57          2
    61          5
    62         18
    63         26
    64          5
    65         72
    66          5
    69          0
    70          2
    71          1
    73         12
    74          2
    75         13
    76         13
    77         11
    78          3
    79          2
    84          0
    85          2
    86          6
    87         10
    88         14
    89         28
    90         17
    91        999
    92         78
    93          2
    96          1
    97         11
    99          4
   102          1
   104          6
   105          4
   111         26
   112          1
   113          5
   118          4
   123         78
   124          7
   125         26
   126          2
   128          1
   129          8
   133          2
   139          6
   141          1
   147          1
   149          2
   151          3
   152          1
   153          1
   165          4
   167         33
   168          3
   169         15
   176          3
   177          3
   178         10
   179          5
   195          4
   197          1
   205          1
   206          1
   207          0
   208          3
   250          2
   252          3
   286         21
   287          3
   288          6
   289          2