##TITLE=Library Entry 47890
##JCAMP-DX=Revision 4.10 
##DATA TYPE=MASS SPECTRUM
##SAMPLE DESCRIPTION=A.A.Kutin, Moscow, Russia
##NAMES=HP
##CAS NAME=Cyclohexene, 2-chloro-1,3-bis(phenyliminomethyl)-
##MOLFORM=C20H19ClN2
##CAS REGISTRY NO=99044-67-4
##MP= -300
##BP= -300
##MW= 322
##$RETENTION INDEX=0
##$CONDENSED SPECTRUM=NO
##NPOINTS= 229
##XYDATA=(XY..XY) 1 
    35         19
    36         56
    38         32
    39         20
    40          3
    41          6
    43          4
    44          1
    45          1
    50         31
    51        155
    52         24
    53          9
    54          3
    55          2
    56          1
    57          2
    59          0
    61          2
    62          8
    63         34
    64         20
    65         56
    66         15
    67          4
    68          2
    69          3
    70          2
    71          1
    72          1
    73          6
    74         13
    75         28
    77        999
    78        107
    79         38
    80          7
    81          4
    82          1
    83          2
    84          5
    85          3
    86          2
    87          5
    88          6
    89         28
    90         27
    91         86
    92         34
    93         48
    94          7
    95          2
    97          2
    98          3
    99          7
   101         17
   102         23
   104        456
   105         40
   106         60
   107          7
   108          2
   109          2
   111          4
   112          4
   113          7
   114         13
   115         42
   116         24
   117         43
   118         37
   119         10
   120          2
   121          3
   122          2
   123          3
   125         25
   126         18
   127         51
   128         44
   129         29
   130         46
   131          8
   132          3
   133          3
   135         46
   137          4
   138          6
   139         15
   140         22
   141         20
   142         39
   143         70
   144         18
   145          2
   146          0
   147          1
   148          1
   149          2
   150          6
   151         16
   152         49
   153         37
   154         61
   155         20
   156         39
   157          7
   158          2
   161        102
   162         32
   163          6
   165         57
   166         44
   167        132
   168         79
   169         17
   170          4
   171          2
   172          0
   175          0
   176          2
   177          8
   178         13
   179         23
   180        115
   181        150
   182        167
   183         39
   184         26
   185          4
   188          2
   189          3
   190         14
   191         21
   192         66
   193         80
   194        188
   195         61
   196          9
   197          1
   199          1
   200          1
   201          4
   202          7
   203          7
   204         10
   205         11
   206          9
   207         29
   209        158
   210         24
   211          3
   212          5
   213          2
   214          4
   215          6
   216         12
   217          9
   218         17
   219         18
   220          6
   221          5
   222          0
   226          1
   227          4
   228         15
   229         23
   230         96
   231         27
   232         31
   233          6
   234          0
   239          0
   240          0
   241          4
   242          4
   243         15
   244          7
   245          8
   246          3
   247          6
   248          1
   249          1
   252          0
   253          1
   254          2
   255          3
   256          8
   257         14
   258         16
   259          6
   260          1
   266          1
   267          2
   268         12
   269         15
   270         21
   271         24
   272          5
   273          0
   277          0
   278          1
   279          1
   281          4
   282         16
   283         25
   285        617
   286        216
   287        183
   288         36
   289          3
   293          0
   294          1
   304          6
   305         10
   306          4
   307          6
   308          1
   309          0
   315          0
   317          4
   318          6
   319          8
   321        134
   322        331
   323         99
   324        105
   325         21
   326          1