##TITLE=Library Entry 81969
##JCAMP-DX=Revision 4.10 
##DATA TYPE=MASS SPECTRUM
##SAMPLE DESCRIPTION=ASES Database, Dalian Institute, P.R. China
##NAMES=HP
##CAS NAME=1,3-Dibenzoyl-2,4-bis(4-ethoxycarbonylphenyl)-cyclobutane
##MOLFORM=C36H32O6
##CAS REGISTRY NO=99051-37-3
##MP= -300
##BP= -300
##MW= 560
##$RETENTION INDEX=0
##$CONDENSED SPECTRUM=NO
##NPOINTS= 12
##XYDATA=(XY..XY) 1 
    77        522
   105        999
   106        147
   207        410
   208         96
   235        124
   251        616
   294        147
   352          6
   483        298
   529         74
   560         74