##TITLE=Library Entry 114957
##JCAMP-DX=Revision 4.10 
##DATA TYPE=MASS SPECTRUM
##SAMPLE DESCRIPTION=Japan AIST/NIMC Database- Spectrum MS-IW-3155
##NAMES=HP
##CAS NAME=(O-Phenylene)diacetaldehyde dioxime
##MOLFORM=C10H12N2O2
##CAS REGISTRY NO=99068-24-3
##MP= -300
##BP= -300
##MW= 192
##$RETENTION INDEX=0
##$CONDENSED SPECTRUM=NO
##NPOINTS= 139
##XYDATA=(XY..XY) 1 
    15          2
    16          4
    17          8
    18          2
    26          3
    27         30
    28         32
    29          4
    30         11
    31          3
    37          3
    38         12
    39         74
    40          8
    41         13
    42          3
    43          7
    44         22
    45          3
    46         62
    47          1
    49          2
    50         43
    51        109
    52         43
    53         16
    54          3
    55          5
    56          1
    57         22
    58          6
    59          4
    60          1
    61          6
    62         26
    63         81
    64         24
    65         71
    66          8
    67          3
    68          1
    69          2
    70          3
    71          4
    72          2
    73          6
    74         19
    75         29
    76         37
    77        298
    78        131
    79         36
    80          4
    81          3
    83          2
    85          2
    86          6
    87         10
    88          9
    89         72
    90         46
    91        229
    92         26
    93         49
    94          5
    95          2
    96          1
    97          2
    98          2
    99          2
   100          3
   101         24
   102        147
   103        410
   104        274
   105         70
   106         14
   107         13
   108          1
   109          1
   110          1
   111          1
   112          1
   113          7
   114         17
   115        275
   116        217
   117        484
   118         77
   119         29
   120          8
   121         13
   122          2
   123          1
   125          1
   126          2
   127         29
   128        137
   129        429
   130        999
   131        154
   132         75
   133         15
   134        126
   135         12
   136          1
   137          1
   139          1
   140         12
   141         26
   142         30
   143         85
   144        136
   145         25
   146        133
   147         25
   148         14
   149          7
   150          1
   154          4
   155         51
   156         30
   157         35
   158         79
   159         57
   160         79
   161         10
   162        445
   163         52
   164          4
   172          2
   173          5
   174         20
   175        111
   176         14
   177          1
   192        135
   193         15
   194          2