##TITLE=Library Entry 72581
##JCAMP-DX=Revision 4.10 
##DATA TYPE=MASS SPECTRUM
##SAMPLE DESCRIPTION=Chemical Concepts
##NAMES=HP
##CAS NAME=2-Chlorocycloheptanone, ethylene ketal
##MOLFORM=C9H15ClO2
##CAS REGISTRY NO=99061-99-1
##MP= -300
##BP= -300
##MW= 190
##$RETENTION INDEX=0
##$CONDENSED SPECTRUM=NO
##NPOINTS= 80
##XYDATA=(XY..XY) 1 
    26         11
    27        117
    28         48
    29         65
    31          6
    36          9
    38          7
    39        103
    40         23
    41        154
    42         73
    43         51
    44         24
    45         27
    49          9
    50          5
    51         19
    52         10
    53         57
    54         21
    55        236
    56         54
    57          9
    61          7
    62         12
    63         10
    65         18
    66          8
    67         41
    68         15
    69         25
    73         25
    75         26
    76         23
    77         27
    78         15
    79         20
    80          6
    81         46
    82          8
    83         23
    84          9
    86        106
    87          8
    88          5
    89         32
    91         18
    93         15
    94          8
    95         17
    97          6
    98         10
    99        999
   100        137
   101         14
   106          5
   109          6
   111         18
   112          9
   113        194
   114         16
   120         22
   122          8
   125         14
   127         54
   128          6
   133        149
   134         12
   135         55
   141         10
   145          6
   154         13
   155        779
   156         99
   157         10
   161          8
   175          7
   189          6
   190         20
   192          6