##TITLE=Library Entry 62314
##JCAMP-DX=Revision 4.10 
##DATA TYPE=MASS SPECTRUM
##SAMPLE DESCRIPTION=Div. of Experiment Therapeutics WRAIR, WRAMC, Washingto
n DC 20307
##NAMES=HP
##CAS NAME=4-Carbamoyl-2-phenyl-2-oxazoline
##MOLFORM=C10H10N2O2
##CAS REGISTRY NO=99071-89-3
##MP= -300
##BP= -300
##MW= 190
##$RETENTION INDEX=0
##$CONDENSED SPECTRUM=NO
##NPOINTS= 66
##XYDATA=(XY..XY) 1 
    41         30
    43        534
    45          6
    46          0
    50         44
    51        454
    52         29
    53          9
    55         11
    57          2
    58          2
    59          0
    62         35
    63        119
    64          5
    65         50
    66          3
    67          0
    68          2
    69          3
    70          0
    71          4
    74         34
    75         19
    77        627
    78         33
    79          2
    85          3
    86         10
    87         11
    89        132
    91        999
    92         48
    93          2
    95          2
    99          1
   101          0
   102          1
   105        462
   106         19
   107          1
   114          3
   116         28
   118        466
   119         24
   120          1
   122          2
   128          0
   130          2
   131          0
   132          5
   146        956
   147        107
   148          8
   160          1
   161          0
   164          4
   165          0
   167          0
   172          0
   173          1
   174          0
   189          6
   190         46
   191          4
   192          0