##TITLE=Library Entry 10024
##JCAMP-DX=Revision 4.10 
##DATA TYPE=MASS SPECTRUM
##SAMPLE DESCRIPTION=E. Zissis, LC, NIDDK, NIH, Bethesda, MD 20892
##NAMES=HP
##CAS NAME=6-O-Acetyl-1,3:2,4:5,7-O-trimethylene-.beta.-sedoheptitol
##MOLFORM=C12H18O8
##CAS REGISTRY NO=99077-94-8
##MP= -300
##BP= -300
##MW= 290
##$RETENTION INDEX=0
##$CONDENSED SPECTRUM=NO
##NPOINTS= 125
##XYDATA=(XY..XY) 1 
    41         54
    42         45
    43        999
    44         78
    45        183
    46          4
    47          3
    49          4
    50          4
    51          8
    52          4
    53         15
    54         11
    55        180
    56         26
    57        140
    58         12
    59         10
    60          3
    61         10
    63          2
    65          4
    66          3
    67          8
    68         16
    69          7
    70         12
    71         44
    72         14
    73        149
    74          9
    75          3
    76          0
    77          8
    78         24
    79          5
    81         41
    82          9
    83         17
    84         12
    85        209
    86        486
    87         45
    88          4
    89          1
    91          1
    93          1
    94          3
    95         10
    96          5
    97         35
    98         63
    99         38
   100          5
   101          9
   102          3
   103         11
   105          1
   106         11
   107          4
   108          3
   109          4
   110          3
   111         14
   112          7
   113          7
   114          8
   115        221
   116         23
   117          7
   121          1
   123          9
   124         23
   125          6
   126          4
   127         48
   128         16
   129         11
   131          3
   133          2
   136          5
   137          2
   139          7
   140          3
   141         10
   142          3
   143          5
   144          6
   145        389
   146         26
   147          5
   149          3
   153          5
   154         10
   155          2
   156          1
   157         24
   158          4
   159          4
   161          1
   169         22
   170          8
   171          8
   172          0
   173          2
   174          3
   175        123
   176         10
   177          2
   182         13
   183          2
   184          6
   187         61
   188          6
   189          2
   199          1
   200          4
   201          3
   212          5
   217         21
   218          2
   229          5
   230          4
   289          2
   290          0