##TITLE=Library Entry 50367
##JCAMP-DX=Revision 4.10 
##DATA TYPE=MASS SPECTRUM
##SAMPLE DESCRIPTION=J.Khandelwal ET AL. J.Chromatogr.,343,249(1985)
##NAMES=HP
##CAS NAME=4-Imidazolacetic acid, butyl ester
##MOLFORM=C9H14N2O2
##CAS REGISTRY NO=99133-89-8
##MP= -300
##BP= -300
##MW= 182
##$RETENTION INDEX=0
##$CONDENSED SPECTRUM=NO
##NPOINTS= 11
##XYDATA=(XY..XY) 1 
    52         40
    53         46
    54        108
    55         30
    56          9
    57        108
    81        999
    82        334
   107         55
   108         24
   182         37