##TITLE=Library Entry 14983
##JCAMP-DX=Revision 4.10 
##DATA TYPE=MASS SPECTRUM
##SAMPLE DESCRIPTION=Div. of Experiment Therapeutics WRAIR, WRAMC, Washingto
n DC 20307
##NAMES=HP
##CAS NAME=p,p'-bis(Hexyloxy)benzalazine
##MOLFORM=C26H36N2O2
##CAS REGISTRY NO=99163-25-4
##MP= -300
##BP= -300
##MW= 408
##$RETENTION INDEX=0
##$CONDENSED SPECTRUM=NO
##NPOINTS= 222
##XYDATA=(XY..XY) 1 
    41        339
    43        999
    44         25
    45          1
    47          2
    48          0
    49         11
    50          7
    51         25
    52          7
    53         16
    55        166
    56         21
    57         82
    58          3
    60          1
    61          0
    62          1
    63         22
    64         16
    65         98
    66         11
    67          9
    68          0
    69         15
    70          1
    71          3
    73          1
    74          2
    75          5
    76         17
    77         51
    78         33
    79         12
    80          2
    81          3
    82          1
    83         13
    84         12
    85         22
    86          3
    87          0
    88          2
    89          8
    90          8
    91         20
    92         17
    93         72
    94         49
    95         11
    96          1
    97          1
    98          1
    99          1
   101          1
   102         10
   103          7
   104          8
   105         31
   106         21
   107         20
   108          4
   109          2
   111          2
   113          2
   114          1
   115          8
   116          1
   117          5
   118         13
   119         27
   120        193
   121         95
   122         25
   123          3
   125          0
   126          1
   127          5
   128          5
   129          6
   130          9
   131          7
   132         14
   133         14
   134          8
   135          2
   136          1
   137          1
   139          9
   140          6
   141          5
   142          1
   143          1
   144          0
   145         46
   146         30
   147        348
   148         25
   149          3
   151          3
   152          4
   153          4
   154          5
   155          5
   156          3
   157          5
   158          2
   159          3
   160          3
   161          1
   162          2
   163          0
   164          1
   165         14
   166         22
   167         28
   168          9
   169          3
   170          2
   171          1
   172          1
   173          2
   174          2
   175          0
   176          4
   177          3
   178          5
   179          1
   180          0
   181          6
   182          6
   183         15
   184         20
   185          8
   186          1
   187          1
   190          1
   191          2
   192          5
   193         11
   194          8
   195          6
   196          7
   197          8
   198          2
   199          0
   201          2
   202          3
   203          6
   204         21
   205         10
   206          3
   207          1
   208          1
   209          7
   210         12
   211         67
   212        128
   213         82
   214          9
   215          1
   217          0
   218          0
   221          7
   222          4
   223         24
   224          5
   225          1
   226          1
   228          0
   229          4
   231        522
   232         72
   233          6
   234          0
   235          0
   236          0
   237          4
   239        228
   240         39
   241          5
   242          0
   251          2
   252          0
   253          2
   255          1
   256          0
   259          1
   265          1
   267          1
   268          1
   269          1
   293          0
   295          4
   296          9
   297         16
   298          3
   307          5
   308          1
   309          1
   310          1
   321          1
   323        128
   324         57
   325         17
   326          2
   337          4
   338          1
   379          4
   380         16
   381         28
   382          7
   383          1
   393          1
   394          1
   403          0
   405          2
   407        211
   408        554
   409        161
   410         25
   411          2