##TITLE=Library Entry 51590
##JCAMP-DX=Revision 4.10 
##DATA TYPE=MASS SPECTRUM
##SAMPLE DESCRIPTION=NIST Mass Spectrometry Data Center
##NAMES=HP
##CAS NAME=Pseudoecgonine methyl ester
##MOLFORM=C10H17NO3
##CAS REGISTRY NO=99189-88-5
##MP= -300
##BP= -300
##MW= 199
##$RETENTION INDEX=1526
##$CONDENSED SPECTRUM=NO
##NPOINTS= 54
##XYDATA=(XY..XY) 1 
    27          7
    30          7
    39         21
    41         31
    42        146
    52          7
    53         26
    54         22
    55         86
    56         41
    59         14
    65         14
    66         13
    67         50
    68         68
    70         37
    79         15
    80         30
    81         49
    82        999
    83        511
    84         73
    92          5
    93         16
    94        130
    95         15
    96        626
    97        332
    98         36
   100         35
   108         14
   112        142
   113         10
   118          5
   120         10
   122         35
   124         18
   126         12
   138          8
   140         62
   152         14
   154         13
   155         35
   156         13
   168         84
   169          7
   170         10
   171         16
   182         74
   183          9
   198          4
   199        208
   200         22
   201          2