##TITLE=Library Entry 22097
##JCAMP-DX=Revision 4.10 
##DATA TYPE=MASS SPECTRUM
##SAMPLE DESCRIPTION=LAC, NIDDK, NIH, Bethesda, MD 20892
##NAMES=HP
##CAS NAME=4-Bromobutyric acid amide, N-cyclohexyl-
##MOLFORM=C10H18BrNO
##CAS REGISTRY NO=99191-34-1
##MP= -300
##BP= -300
##MW= 247
##$RETENTION INDEX=0
##$CONDENSED SPECTRUM=NO
##NPOINTS= 102
##XYDATA=(XY..XY) 1 
    41        670
    42        241
    43        407
    44        117
    45         10
    46          2
    49          1
    50          3
    51         10
    52          8
    53         44
    54         91
    55        247
    56        999
    57         63
    58         10
    59         28
    60        124
    61          3
    62          1
    63          2
    65         10
    66          3
    67        125
    68         30
    69         48
    70        104
    71         12
    72         10
    73          4
    74          2
    77         11
    78          2
    79         34
    80         33
    81         51
    82        131
    83        104
    84         19
    85          9
    86         83
    87         11
    88          3
    91          6
    93         14
    94          1
    95         14
    96         12
    97         13
    98         67
    99         75
   100         13
   101          1
   105          3
   106          4
   107          6
   108          4
   109          5
   110          3
   111          6
   112         11
   113          3
   119          2
   121         38
   122          2
   123         41
   124         25
   125          8
   126         23
   127          1
   137          6
   138          8
   139          0
   140          2
   141        225
   142         18
   149         44
   151         42
   152          4
   154          8
   155          1
   164          2
   166        381
   167          0
   168        491
   169         25
   178          0
   190          3
   192          2
   204         11
   206         11
   207          1
   218          1
   219          1
   220          0
   221          1
   246          1
   247         51
   248         20
   249         50
   250         19
   251          1