##TITLE=Library Entry 14512
##JCAMP-DX=Revision 4.10 
##DATA TYPE=MASS SPECTRUM
##SAMPLE DESCRIPTION=LAC, NIDDK, NIH, Bethesda, MD 20892
##NAMES=HP
##CAS NAME=3-Acetoxy-16-pregnenolone
##MOLFORM=C23H34O3
##CAS REGISTRY NO=99210-71-6
##MP= -300
##BP= -300
##MW= 358
##$RETENTION INDEX=0
##$CONDENSED SPECTRUM=NO
##NPOINTS= 206
##XYDATA=(XY..XY) 1 
    41         76
    43        999
    44         23
    45          1
    47          0
    48          0
    49          8
    51          5
    52          0
    53         26
    55         75
    56          0
    57          9
    58          1
    59          1
    61          4
    63          0
    65         12
    67         72
    68          6
    69         21
    71         41
    72          1
    73          0
    77         37
    78          9
    79         84
    80          2
    81        102
    83         16
    84         18
    85         72
    86          5
    88          0
    89          0
    91        101
    92         18
    93         78
    94         18
    95         61
    96          4
    97          6
    98          1
    99          2
   103          8
   105        111
   106         40
   107        115
   108         34
   109         30
   110          0
   111          7
   113          2
   115         12
   116          6
   117         35
   118         14
   119         53
   120         44
   121        121
   122         21
   123         11
   124          2
   125          6
   127          2
   128         11
   129         19
   130         10
   131         47
   132         15
   133         54
   134         13
   135         24
   136          4
   137         10
   138          2
   139          3
   141         10
   142          8
   143         36
   144         14
   145         77
   146         26
   147        115
   148         19
   149         28
   150          2
   151          5
   152          1
   153          2
   154          1
   155          6
   156          4
   157         23
   158         26
   159         74
   160         31
   161         45
   162          9
   163          6
   164          0
   165          2
   166          0
   167          2
   168          0
   169          9
   170          4
   171         15
   172          8
   173         22
   174          5
   175         13
   176          4
   177         25
   178          3
   179          3
   181          3
   182          0
   183          9
   184          3
   185         20
   186          5
   187          9
   188          0
   189         12
   190          6
   191          7
   192          2
   193          3
   195          5
   196          1
   197          7
   198          2
   199         11
   200          4
   201          6
   202          1
   203          3
   204          2
   205          2
   207          1
   209          9
   210          1
   211          9
   212          1
   213         64
   214         13
   215          9
   216          1
   217          2
   218          0
   223          3
   224          1
   225          6
   226          2
   227         10
   228         10
   229          3
   230          1
   231          0
   237          1
   238          0
   239          6
   240          6
   241          6
   242          2
   243          1
   244          2
   246          1
   251          3
   252          1
   253         11
   254          1
   255         38
   256         14
   257          4
   258          0
   265         13
   266          2
   267          0
   269          3
   270          2
   271          1
   279          0
   280          5
   281         11
   283         79
   284         16
   285          3
   294          0
   295          8
   296          1
   298        522
   299        139
   300         26
   301          4
   302          0
   314          2
   315          1
   317          0
   341          3
   342          1
   357          0
   358          7
   359          1
   360          0