##TITLE=Library Entry 29725
##JCAMP-DX=Revision 4.10 
##DATA TYPE=MASS SPECTRUM
##SAMPLE DESCRIPTION=Japan AIST/NIMC Database- Spectrum MS-NW-5420
##NAMES=HP
##CAS NAME=(R)-(-)-2-Methyl-2,4-pentanediol
##MOLFORM=C6H14O2
##CAS REGISTRY NO=99210-90-9
##MP= -300
##BP= -300
##MW= 118
##$RETENTION INDEX=0
##$CONDENSED SPECTRUM=NO
##NPOINTS= 68
##XYDATA=(XY..XY) 1 
    13          1
    14          8
    15         59
    16          3
    17         12
    18         55
    19         14
    25          2
    26         12
    27         76
    28         27
    29         65
    30          3
    31        116
    32          1
    33          1
    36          2
    37          6
    38         13
    39        107
    40         30
    41        314
    42        138
    43        721
    44         63
    45        253
    46          7
    47          5
    49          2
    50          9
    51         11
    52          3
    53         16
    54         11
    55         55
    56        354
    57        136
    58         41
    59        999
    60         36
    61         96
    62          3
    63          4
    65          6
    66          2
    67         52
    68          4
    69          6
    71          4
    72          1
    73          2
    74          5
    77          3
    79          4
    80          1
    81          6
    82         21
    83          9
    84          2
    85        111
    86          7
    87          4
    98          2
    99          2
   100          4
   101          2
   103         47
   104          3