##TITLE=Library Entry 49596
##JCAMP-DX=Revision 4.10 
##DATA TYPE=MASS SPECTRUM
##SAMPLE DESCRIPTION=Chemical Concepts
##NAMES=HP
##CAS NAME=1H-Pyrrole-1-propanoic acid, methyl ester
##MOLFORM=C8H11NO2
##CAS REGISTRY NO=99233-38-2
##MP= -300
##BP= -300
##MW= 153
##$RETENTION INDEX=0
##$CONDENSED SPECTRUM=NO
##NPOINTS= 80
##XYDATA=(XY..XY) 1 
    25          3
    26         45
    27        219
    28         66
    29         43
    30          9
    31         24
    33          1
    37         22
    38         48
    39        188
    40         59
    41        110
    42         28
    43          9
    44          4
    45         21
    46          0
    47         15
    49          2
    50         21
    51         51
    52         34
    53        194
    54         24
    55         75
    56          4
    57          2
    58          1
    59         72
    60          1
    61         10
    62          3
    63          4
    64          8
    65         38
    66         69
    67        206
    68         31
    69          2
    74          1
    76          1
    77         11
    78         69
    79         11
    80        999
    81         61
    82          6
    83          2
    84          1
    85          1
    87         34
    88          2
    91          2
    92         26
    93         75
    94        659
    95         84
    96         16
    97          3
    98          1
   106          2
   107          1
   109          1
   110         10
   111          2
   112          1
   120          5
   121          2
   122        135
   123         12
   124          0
   137          3
   138          2
   139          1
   140          2
   152          1
   153        590
   154         55
   155          7