##TITLE=Library Entry 83003
##JCAMP-DX=Revision 4.10 
##DATA TYPE=MASS SPECTRUM
##SAMPLE DESCRIPTION=A.A.Kutin, Moscow, Russia
##NAMES=HP
##CAS NAME=2-Amino-3-(2-pyridin-2-yl-ethylsulfanyl)-propionic acid
##MOLFORM=C10H14N2O2S
##CAS REGISTRY NO=99247-32-2
##MP= -300
##BP= -300
##MW= 226
##$RETENTION INDEX=0
##$CONDENSED SPECTRUM=NO
##NPOINTS= 161
##XYDATA=(XY..XY) 1 
    33          2
    34          4
    35          2
    36          4
    37          2
    38         11
    39         63
    40         59
    41         47
    42        111
    43        121
    44         85
    45         56
    46         34
    47         22
    48          7
    49          2
    50         33
    51        116
    52         77
    53         44
    54         21
    55         22
    56         10
    57         22
    58         13
    59         23
    60         10
    61         14
    62          4
    63         18
    64         12
    65         69
    66         38
    67         18
    68          6
    69         14
    70         17
    71         12
    72          3
    73         11
    74         42
    75         13
    76         18
    77         74
    78        257
    79        143
    80         33
    81          7
    82          6
    83          9
    84          7
    85          5
    86          5
    87          7
    88         14
    89          4
    90          4
    91         23
    92         71
    93        310
    94         70
    95          7
    96          4
    97          5
    98          3
    99          2
   100          1
   101          2
   102          3
   103          3
   104         78
   105         61
   106        999
   107        264
   108         27
   109          7
   110          4
   111          7
   112          5
   113          2
   114          0
   115          2
   116          1
   117         14
   118         69
   119         50
   120         17
   121          5
   122          2
   123          4
   124          5
   125         51
   126          4
   127          6
   128          5
   129          2
   130          3
   131          6
   132          8
   133          4
   134          3
   135          4
   136         65
   137         41
   138        880
   139        311
   140         79
   141         18
   142          3
   143          1
   144          0
   145          1
   146          2
   147          6
   148          2
   149          7
   150         42
   151          9
   152        355
   153        114
   154         27
   155          7
   156          0
   157          0
   158          1
   159          3
   160         17
   161          4
   162          2
   164          1
   165          2
   166          3
   167          1
   168          0
   171          3
   172          0
   173          0
   175          0
   176         20
   177          2
   180          1
   181          2
   182          1
   183          8
   184          1
   185          0
   186          0
   187          4
   188          4
   189          0
   191          4
   192          0
   196          0
   209         40
   210          5
   211          1
   213          0
   225          0
   226          2
   227          0