##TITLE=Library Entry 24066
##JCAMP-DX=Revision 4.10 
##DATA TYPE=MASS SPECTRUM
##SAMPLE DESCRIPTION=NIST Mass Spectrometry Data Center, 1990.
##NAMES=HP
##CAS NAME=3,4,4,-Trimethyl-1-pentyn-3-ol
##MOLFORM=C8H14O
##CAS REGISTRY NO=993-53-3
##MP= -300
##BP= -300
##MW= 126
##$RETENTION INDEX=0
##$CONDENSED SPECTRUM=NO
##NPOINTS= 43
##XYDATA=(XY..XY) 1 
    15         29
    26         15
    27         79
    29        126
    31         11
    38         35
    39        256
    40         61
    41        570
    42        100
    43        769
    44         23
    50         61
    51         97
    52         38
    53        138
    55        261
    57        999
    58         50
    59         10
    62         13
    63         20
    65         37
    66         14
    67         50
    69        479
    70        555
    71         78
    77        104
    78         17
    79         20
    81         37
    82         11
    83         77
    84         24
    85         11
    91         61
    93         88
    95         14
    96         13
   100         11
   111        234
   112         22