##TITLE=Library Entry 30143
##JCAMP-DX=Revision 4.10 
##DATA TYPE=MASS SPECTRUM
##SAMPLE DESCRIPTION=R.W.CRAWFORD UNIV. OF CALIFORNIA, LIVERMORE, CALIFORNIA
, USA
##NAMES=HP
##CAS NAME=Silane, trimethyl-
##MOLFORM=C3H10Si
##CAS REGISTRY NO=993-07-7
##MP= -300
##BP= -300
##MW= 74
##$RETENTION INDEX=377
##$CONDENSED SPECTRUM=NO
##NPOINTS= 53
##XYDATA=(XY..XY) 1 
     2         31
    12          3
    13          7
    14         20
    15         83
    16         20
    17          0
    18          0
    24          0
    25          0
    26          4
    27         11
    28         81
    29        131
    30         16
    31        121
    32          6
    33          3
    37          0
    38          0
    39          0
    40          2
    41         26
    42         95
    43        301
    44         40
    45        116
    46          7
    47          4
    52          4
    53         48
    54         10
    55         33
    56          5
    57         41
    58        195
    59        999
    60         78
    61         36
    62          1
    64          0
    65          3
    66          3
    67          1
    68          0
    69          0
    70          0
    71          1
    72          3
    73        479
    74         41
    75         17
    76          0