##TITLE=Library Entry 100162
##JCAMP-DX=Revision 4.10 
##DATA TYPE=MASS SPECTRUM
##SAMPLE DESCRIPTION=A.A.Kutin, Moscow, Russia
##NAMES=HP
##CAS NAME=Digermane, hexamethyl-
##MOLFORM=C6H18Ge2
##CAS REGISTRY NO=993-52-2
##MP= -300
##BP= -300
##MW= 238
##$RETENTION INDEX=0
##$CONDENSED SPECTRUM=NO
##NPOINTS= 118
##XYDATA=(XY..XY) 1 
    36          0
    38          0
    39          8
    40          2
    41         24
    42          6
    43         30
    44          5
    45          0
    53          0
    55          9
    56         16
    57         68
    58          2
    67          0
    69          6
    70         18
    71         32
    72         12
    73         26
    74         22
    75         29
    76          3
    77          7
    83          3
    85        146
    87        217
    88         69
    89        253
    90         19
    91         91
    92          3
    93          8
    95          2
    97          6
    98          4
    99         20
   100         41
   101         26
   102         49
   103         39
   104         68
   105         24
   106         13
   107          4
   111          3
   112          0
   115        650
   117        879
   118        290
   119        999
   121        250
   122          5
   127          0
   128          0
   129          0
   137          0
   142          1
   143          1
   144          3
   145          2
   146          4
   147          2
   148          2
   149          1
   150          0
   153          0
   155          5
   156          3
   157         12
   158          5
   159         15
   160          6
   161         13
   162          4
   163          6
   164          0
   165          1
   169          0
   170          0
   171          2
   172          1
   173          3
   174          2
   175          3
   176          2
   177          2
   178          1
   187          1
   189          2
   190          0
   191          2
   193          1
   203          1
   205          1
   207          1
   215         21
   217         63
   218         24
   219        112
   220         30
   221        113
   222         36
   223         78
   224         10
   225         24
   226          0
   227          2
   230          5
   232         20
   233          7
   234         33
   235         11
   236         35
   237         11
   238         24
   239          3
   240          7