##TITLE=Library Entry 19806
##JCAMP-DX=Revision 4.10 
##DATA TYPE=MASS SPECTRUM
##SAMPLE DESCRIPTION=M. RYSKA, MS LAB., PHARM. BIOCHEM. RES. INST., PRAGUE,
 CZECH.
##NAMES=HP
##CAS NAME=1,3-Cyclohexanediacetic acid, 2-oxo-
##MOLFORM=C10H14O5
##CAS REGISTRY NO=99323-26-9
##MP= -300
##BP= -300
##MW= 214
##$RETENTION INDEX=0
##$CONDENSED SPECTRUM=NO
##NPOINTS= 79
##XYDATA=(XY..XY) 1 
    45        320
    51         40
    52         30
    53        210
    54        370
    55        999
    56        190
    57        180
    58        110
    59         30
    60        100
    61         10
    65         50
    66         60
    67        280
    68        190
    69        160
    70        110
    71         80
    72         50
    73        130
    74         10
    77         60
    78         20
    79        180
    80        240
    81        330
    82        140
    83         80
    84        130
    85        280
    86         60
    87         30
    91         50
    92         10
    93         50
    94        130
    95        190
    96         80
    97         90
    98         40
    99         50
   100        110
   101         10
   102         20
   105         40
   107         20
   108         70
   109         60
   110         30
   111         20
   112         20
   113        170
   114         10
   121         10
   122        140
   123         90
   124         60
   125         10
   126         20
   133         10
   136        110
   137         80
   138         20
   139         10
   140        160
   141         10
   150        260
   151         80
   152         70
   154         90
   155         10
   168         80
   169         20
   178         40
   196        150
   197         20
   214         30
   215          5