##TITLE=Library Entry 83500
##JCAMP-DX=Revision 4.10 
##DATA TYPE=MASS SPECTRUM
##SAMPLE DESCRIPTION=A.A.Kutin, Moscow, Russia
##NAMES=HP
##CAS NAME=Benzene, 1-[(2,3-dichloro-2-propenyl)oxy]-4-methyl-
##MOLFORM=C10H10Cl2O
##CAS REGISTRY NO=99338-24-6
##MP= -300
##BP= -300
##MW= 216
##$RETENTION INDEX=0
##$CONDENSED SPECTRUM=NO
##NPOINTS= 117
##XYDATA=(XY..XY) 1 
    35          5
    36          7
    37         32
    38         79
    39        262
    40         23
    41         15
    42          1
    43          1
    44          4
    45          1
    47         15
    48          9
    49         54
    50         87
    51        202
    52        112
    53        131
    54          8
    55          8
    57          1
    60         14
    61         20
    62         32
    63         72
    65         88
    66          4
    69          1
    70          0
    72          8
    73         83
    74         30
    75         37
    76         21
    77        700
    78        166
    79        473
    80         30
    81          2
    83        103
    85         69
    86          4
    87         12
    88          0
    89         28
    90          9
    91         76
    92         10
    93          5
    94          2
    95          4
    96          1
    97          2
    98          0
    99          1
   101          1
   102          1
   103          3
   105         12
   106         14
   107        999
   109        429
   110         13
   111        204
   113         45
   114          2
   115         28
   116         11
   117         79
   118         13
   119          1
   120          1
   121          8
   122          1
   125          5
   126          3
   127          6
   128          2
   129          2
   131         10
   132          2
   133          9
   137          1
   139          7
   140          0
   141          2
   144          0
   145        232
   146         33
   147          3
   149          3
   151          2
   152          2
   153         66
   154          4
   155         18
   156          2
   163          0
   165         11
   166          1
   167          3
   173          1
   175          0
   179         20
   180         62
   181        383
   182         63
   183        121
   184         11
   201          1
   214          3
   216        439
   217         47
   218        285
   219         31
   220         46
   221          3