##TITLE=Library Entry 86215
##JCAMP-DX=Revision 4.10 
##DATA TYPE=MASS SPECTRUM
##SAMPLE DESCRIPTION=A.A.Kutin, Moscow, Russia
##NAMES=HP
##CAS NAME=Benzene, 1-[(3,3-dichloro-2-propenyl)oxy]4-methyl-
##MOLFORM=C10H10Cl2O
##CAS REGISTRY NO=99338-25-7
##MP= -300
##BP= -300
##MW= 216
##$RETENTION INDEX=0
##$CONDENSED SPECTRUM=NO
##NPOINTS= 111
##XYDATA=(XY..XY) 1 
    34          1
    35          7
    36         12
    37         23
    38         52
    39        186
    40         64
    41         18
    42          5
    43          8
    44         23
    47         14
    49         53
    50         57
    51        127
    52         65
    53         80
    55         14
    57          3
    60         13
    61         15
    62         19
    63         48
    64         10
    65         77
    67          2
    69          2
    70          0
    71          3
    73         74
    74         16
    75         27
    77        313
    78         82
    79        142
    80         15
    82          7
    83         63
    85         41
    86          2
    87          7
    89         21
    90         10
    91         72
    92          7
    93          7
    94          1
    95          3
    97          2
    98          1
    99          1
   102          1
   103          2
   105          8
   107        211
   108        147
   109        999
   111        653
   112         26
   113        103
   114          6
   115         12
   116          3
   117         15
   118          2
   119          1
   120          2
   121         23
   122          3
   123          4
   125          3
   126          1
   127          2
   128          1
   129          1
   131          2
   133         36
   134          3
   135          2
   139          3
   145         17
   146          2
   149         35
   150          4
   151          2
   153         16
   154          2
   155          5
   158          0
   159          0
   161          1
   167          2
   171          3
   177          7
   178          2
   179          8
   180          8
   181         67
   182          9
   183         19
   184          4
   185          1
   201          2
   203          1
   205          0
   216        307
   217         33
   218        191
   219         19
   220         33
   221          3