##TITLE=Library Entry 78726
##JCAMP-DX=Revision 4.10 
##DATA TYPE=MASS SPECTRUM
##SAMPLE DESCRIPTION=A.A.Kutin, Moscow, Russia
##NAMES=HP
##CAS NAME=cis-Cyclopentanecarboxylic acid, 2-benzoylthio-
##MOLFORM=C13H14O3S
##CAS REGISTRY NO=99397-53-2
##MP= -300
##BP= -300
##MW= 250
##$RETENTION INDEX=0
##$CONDENSED SPECTRUM=NO
##NPOINTS= 128
##XYDATA=(XY..XY) 1 
    34          0
    35          0
    37          2
    38         10
    39         83
    40         13
    41         80
    42          6
    43          8
    45         61
    46          2
    47         10
    48          0
    50         49
    51        168
    52         11
    53         13
    54          1
    55         18
    56          1
    57          6
    58         10
    59         10
    60          2
    61          4
    62          2
    63          5
    65         41
    66         13
    67         60
    68         11
    69          8
    70          1
    71         13
    72          2
    73          6
    74         11
    75          9
    77        469
    78         35
    79          1
    81          0
    82          1
    83          2
    84          2
    85          7
    86          1
    87          1
    88          0
    89          0
    92          0
    93          1
    94          0
    95          5
    97          3
    98          2
    99         19
   100         86
   101          6
   102          4
   103          1
   105        999
   106         81
   107          4
   108          1
   109          6
   110          2
   111          0
   112          4
   113          1
   114          0
   115          0
   116          0
   117          0
   121          4
   122          0
   123          2
   124          0
   125          0
   126          1
   127          2
   128          6
   129          0
   130          0
   131          0
   134          0
   136          0
   137          0
   138          6
   139          8
   140          0
   141          0
   142          0
   144          9
   145          1
   146          0
   147          0
   150          0
   151          0
   152          0
   163          0
   165          0
   171          0
   174          0
   175          0
   176          0
   177          0
   188          0
   189          0
   194          0
   198          0
   199          0
   204          3
   205          0
   206          0
   216          0
   217          0
   218          0
   222          1
   223          0
   224          0
   232          2
   233          0
   234          0
   250          8
   251          1
   252          0
   253          0