##TITLE=Library Entry 63495
##JCAMP-DX=Revision 4.10 
##DATA TYPE=MASS SPECTRUM
##SAMPLE DESCRIPTION=Chemical Concepts
##NAMES=HP
##CAS NAME=8aH-1-benzopyran-8a-ol, octahydro-3-nitro-2,4-diphenyl-
##MOLFORM=C21H23NO4
##CAS REGISTRY NO=99391-27-2
##MP= -300
##BP= -300
##MW= 353
##$RETENTION INDEX=0
##$CONDENSED SPECTRUM=NO
##NPOINTS= 234
##XYDATA=(XY..XY) 1 
    26          7
    27         71
    28         19
    29         78
    30         56
    31         11
    36          5
    37          6
    38          9
    39         88
    40         16
    41        187
    42         37
    43        116
    44         34
    45         24
    46          5
    47          3
    48          2
    49          4
    50         41
    51        113
    52         31
    53         47
    54         17
    55        147
    56         39
    57        130
    58         14
    59          9
    60         20
    61          8
    62          7
    63         31
    64         10
    65         83
    66         24
    67         84
    68         22
    69         81
    70        137
    71         87
    72         12
    73         20
    74         17
    75         17
    76         29
    77        345
    78         95
    79        137
    80         42
    81        149
    82         25
    83         98
    84         19
    85         37
    86         39
    87         13
    88          7
    89         45
    90         21
    91        999
    92         88
    93         20
    94         46
    95         45
    96         23
    97        109
    98        287
    99         34
   100          9
   101         18
   102         61
   103        154
   104        292
   105        374
   106        156
   107        100
   108         13
   109         21
   110          7
   111         18
   112          7
   113         21
   114         11
   115        387
   116         93
   117        269
   119         31
   120         50
   121         19
   122          9
   123         21
   124          6
   125         16
   126         12
   127         53
   128        137
   129        231
   130        115
   131        118
   132         39
   133         26
   134         15
   135         10
   136          4
   137          7
   138          8
   139         19
   140          7
   141        118
   142         47
   143        139
   144         55
   145         31
   146         16
   147         10
   148          8
   149         44
   150         21
   151         10
   152         25
   153         22
   154         21
   155         48
   156        225
   157        116
   158         39
   159         19
   160          8
   161          7
   162          4
   163         14
   164          7
   165         59
   166         25
   167         33
   168         16
   169         64
   170         23
   171        294
   172        139
   173         26
   174         10
   175          5
   176          9
   177          9
   178         79
   179         33
   180         12
   181         47
   182         20
   183         70
   184         33
   185         53
   186         38
   187        163
   188         30
   189         42
   190         19
   191         85
   192         37
   193        115
   194         26
   195          6
   196          6
   197         25
   198         21
   199        621
   200        764
   201        168
   202         52
   203         31
   204         49
   205         56
   206         31
   207         17
   208          8
   209        362
   210         72
   211         48
   212         25
   213         17
   214         17
   215         19
   216         14
   217        747
   218        129
   219         27
   220          7
   221          7
   222          3
   223          3
   227          2
   228          5
   229         19
   230         20
   231         12
   232          6
   233          6
   234          3
   238         18
   239          5
   240          7
   241          3
   243          5
   244          3
   245          6
   246          5
   247        186
   248         35
   249          7
   259         27
   260         22
   261          9
   264          3
   266          5
   268          5
   271          8
   272          3
   286          4
   287         41
   288        227
   289         68
   290         11
   300          4
   305          8
   306         57
   307         17
   308          4
   335        126
   336         36
   337          7
   353          2