##TITLE=Library Entry 40601
##JCAMP-DX=Revision 4.10 
##DATA TYPE=MASS SPECTRUM
##SAMPLE DESCRIPTION=D.HENNEBERG, MAX-PLANCK INSTITUTE, MULHEIM, WEST GERMAN
Y
##NAMES=HP
##CAS NAME=Butane, 2-methoxy-2-methyl-
##MOLFORM=C6H14O
##CAS REGISTRY NO=994-05-8
##MP= -300
##BP= -300
##MW= 102
##$RETENTION INDEX=668
##$CONDENSED SPECTRUM=NO
##NPOINTS= 38
##XYDATA=(XY..XY) 1 
    26         11
    27         44
    28         25
    29         92
    30          1
    31         16
    32          1
    33          8
    35          1
    39         31
    40          7
    41        106
    42         33
    43        283
    44          9
    45         91
    46          1
    50          1
    52          1
    53         10
    54          2
    55        246
    56         11
    57         19
    58          1
    59         22
    67          2
    69          5
    70         16
    71        112
    72          9
    73        999
    74         41
    75          1
    80          0
    85          1
    87        231
    88         13