##TITLE=Library Entry 4566
##JCAMP-DX=Revision 4.10 
##DATA TYPE=MASS SPECTRUM
##SAMPLE DESCRIPTION=LAC, NIDDK, NIH, Bethesda, MD 20892
##NAMES=HP
##CAS NAME=3-Formylamino succinimide
##MOLFORM=C5H6N2O3
##CAS REGISTRY NO=99417-77-3
##MP= -300
##BP= -300
##MW= 142
##$RETENTION INDEX=0
##$CONDENSED SPECTRUM=NO
##NPOINTS= 60
##XYDATA=(XY..XY) 1 
    42        999
    43        702
    44        128
    45         19
    46          9
    47          0
    49          3
    50          1
    51          6
    52         11
    53         18
    54         20
    55         39
    56          3
    57          7
    58          2
    59         17
    60          4
    61          0
    67          3
    68         15
    69          9
    70        102
    71        618
    72         28
    73          6
    74          0
    77          0
    78          1
    79          0
    80         11
    81          1
    82          1
    83          1
    84          2
    85          6
    86         31
    87         32
    88          2
    95          1
    96          3
    97          4
    98         22
    99        586
   100         23
   101          3
   102          3
   106          0
   111          0
   112          1
   113          5
   114         16
   115         25
   116          1
   124          9
   125          2
   141          0
   142         42
   143         14
   144          1