##TITLE=Library Entry 89617
##JCAMP-DX=Revision 4.10 
##DATA TYPE=MASS SPECTRUM
##SAMPLE DESCRIPTION=A.A.Kutin, Moscow, Russia
##NAMES=HP
##CAS NAME=Propanamide, N-[4-(4-chlorophenyl)-2-thiazolyl]-3-(1-piperidyl)-
##MOLFORM=C17H20ClN3OS
##CAS REGISTRY NO=99447-00-4
##MP= -300
##BP= -300
##MW= 349
##$RETENTION INDEX=0
##$CONDENSED SPECTRUM=NO
##NPOINTS= 124
##XYDATA=(XY..XY) 1 
    37          0
    38          0
    39          9
    40          3
    41         75
    42         28
    43          6
    44         32
    45         11
    46          0
    47          0
    49          0
    50          3
    51          4
    52          1
    53          4
    54          9
    55         36
    56         63
    57         13
    58         10
    59          0
    61          1
    62          1
    63          3
    64          0
    65          1
    66          0
    67          4
    68          6
    69         31
    70         13
    71          2
    72          0
    73          2
    74          2
    75          8
    76          3
    77          2
    78          0
    79          0
    80          1
    81          1
    82          6
    83          4
    84         25
    85          2
    86          1
    87          2
    88          1
    89          8
    90          0
    93          1
    94          1
    95          0
    96          8
    97          2
    98          4
    99          1
   100          1
   101          1
   102          5
   103          2
   106          0
   108          1
   109          1
   110         12
   112        999
   113         83
   114          4
   115          0
   119          0
   120          2
   121          1
   123          3
   124          1
   125          2
   127          0
   129          1
   132          2
   133          7
   134          5
   135          1
   136          3
   137          3
   138          8
   139          2
   140          1
   146          4
   147          3
   148          1
   155          2
   157          1
   159          1
   163          1
   165          1
   168         22
   169          3
   170          8
   171          1
   172          0
   173          2
   174         19
   175          6
   176          1
   182          1
   208          1
   209          2
   210         12
   211          2
   212          4
   213          0
   223          0
   236          1
   237          4
   238          1
   239          2
   266          2
   268          0
   281          0
   349         16
   350          3
   351          5
   352          1