##TITLE=Library Entry 44278
##JCAMP-DX=Revision 4.10 
##DATA TYPE=MASS SPECTRUM
##SAMPLE DESCRIPTION=NIST Mass Spectrometry Data Center
##NAMES=HP
##CAS NAME=Malic acid, 3TBDMS derivative
##MOLFORM=C22H48O5Si3
##CAS REGISTRY NO=99461-86-6
##MP= -300
##BP= -300
##MW= 476
##$RETENTION INDEX=2115
##$CONDENSED SPECTRUM=NO
##NPOINTS= 226
##XYDATA=(XY..XY) 1 
    27          4
    29         20
    30          1
    31          2
    38          1
    39          8
    41         45
    42          3
    43         12
    44          3
    45         34
    46          2
    47         12
    48          1
    53          4
    55         95
    56         17
    57         67
    58         28
    59         91
    60         10
    61          9
    62          1
    66          1
    67          1
    68          1
    69          9
    70          2
    71          5
    73        999
    74        115
    75        166
    76         10
    77          6
    79          1
    81          1
    82          1
    83          5
    84          3
    85         18
    86          5
    87          3
    88          1
    89          2
    95          1
    96          1
    97          3
    99         33
   100         10
   101         37
   102          5
   103         10
   104          2
   105          3
   111          1
   113          5
   115        340
   116         43
   117         33
   118          4
   119         14
   120          2
   121          1
   127          2
   128          3
   129         38
   130          5
   131         34
   132         13
   133        246
   134         36
   135         27
   136          3
   137          1
   141          1
   143          7
   144          2
   145         11
   147        523
   148         88
   149        102
   150         13
   151         16
   152          2
   153          1
   155          1
   156          4
   157          7
   158          2
   159         14
   160          3
   161         11
   162          4
   163          4
   164          1
   165          1
   169          1
   171          4
   173         22
   174          5
   175         62
   176         15
   177         40
   178          6
   179          4
   181          1
   185         11
   186          2
   187          3
   189        138
   190         30
   191         22
   192          4
   193          7
   194          1
   195          1
   201          2
   202          2
   203         42
   204         10
   205         13
   207         59
   208         12
   209          7
   210          1
   213         35
   214          6
   215          3
   217         67
   218         14
   219         14
   220          2
   221         19
   222          4
   223          3
   224          1
   229          1
   230          3
   231         10
   232          3
   233          2
   235          1
   243          1
   245         20
   246         10
   247         55
   248         11
   249          7
   250          1
   251          1
   257          3
   259         51
   260         13
   261          7
   262          1
   263          6
   264          1
   265          1
   273         10
   274          3
   275          4
   276          1
   277          1
   287        539
   288        133
   289         68
   290         12
   291          3
   301         23
   302          6
   303          3
   304          1
   305          1
   315          1
   317         32
   318          9
   319          4
   320          1
   329         29
   330          8
   331          4
   332          1
   333          2
   334          1
   343          2
   344          1
   345          1
   347         18
   348          6
   349         45
   350         14
   351          7
   352          1
   361          3
   362          1
   363          1
   375         13
   376          4
   377          3
   378          1
   389          1
   391         53
   392         18
   393          8
   394          2
   403        108
   404         38
   405         18
   406          4
   407          1
   417          2
   419        681
   420        262
   421        126
   422         30
   423          7
   424          1
   431          1
   432          1
   433          1
   445          3
   446          1
   461         35
   462         14
   463          6
   464          2