##TITLE=Library Entry 44380
##JCAMP-DX=Revision 4.10 
##DATA TYPE=MASS SPECTRUM
##SAMPLE DESCRIPTION=NIST Mass Spectrometry Data Center
##NAMES=HP
##CAS NAME=Citric acid, 4TBDMS derivative
##MOLFORM=C30H64O7Si4
##CAS REGISTRY NO=99477-48-2
##MP= -300
##BP= -300
##MW= 648
##$RETENTION INDEX=2624
##$CONDENSED SPECTRUM=NO
##NPOINTS= 347
##XYDATA=(XY..XY) 1 
    27          2
    28          1
    29         14
    31          1
    39          6
    40          3
    41         36
    42          2
    43          6
    44          2
    45         20
    46          1
    47          7
    53          2
    54          1
    55          6
    56         11
    57         67
    58         19
    59         52
    60          6
    61          5
    66          1
    67         11
    68          2
    69          4
    70          1
    71          2
    73        999
    74        100
    75        113
    76          7
    77          4
    79          1
    81          1
    83          3
    84          1
    85         11
    86          3
    87          1
    88          2
    89          1
    95          3
    96          1
    97          6
    98          2
    99         25
   100          6
   101          6
   102          2
   103          6
   104          1
   105          1
   109          1
   111          2
   112          1
   113          4
   114          2
   115         86
   116         22
   117         19
   118          3
   119          5
   120          1
   121          1
   123          1
   124          1
   125          1
   127          1
   128          1
   129          3
   130          1
   131         16
   132          5
   133         72
   134         10
   135          8
   136          1
   137          1
   139          1
   141          7
   142          2
   143         12
   144          2
   145          5
   147        368
   148         62
   149         98
   150         13
   151          8
   152          1
   153          1
   155          1
   156          1
   157          8
   158          2
   159          9
   160          2
   161          2
   162          1
   163          1
   169          9
   170          2
   171         10
   172          2
   173         13
   174          3
   175          6
   176          3
   177          6
   178          1
   179          1
   183          2
   184          1
   185          7
   186          1
   187          3
   188          1
   189         47
   190         16
   191         20
   192          4
   193          8
   194          1
   195          1
   197          1
   199          3
   200          1
   201          5
   202          3
   203          4
   204          1
   205          7
   206          1
   207         48
   208         10
   209          7
   210          1
   211          2
   213         12
   214          2
   215         16
   216          4
   217         14
   218          4
   219          3
   221         42
   222         10
   223          7
   224          1
   225         11
   226          2
   227          4
   228          1
   229          1
   230          1
   231         10
   232          3
   233          3
   234          1
   235          1
   237          1
   241          1
   242          1
   243          9
   244          3
   245          6
   246          3
   247          3
   248          1
   249          2
   251          1
   253         46
   254          9
   255          4
   256          1
   257          6
   258          4
   259         59
   260         14
   261          8
   262          2
   263         10
   264          3
   265          2
   266          1
   267          1
   269          1
   271          1
   272          1
   273         12
   274          3
   275          4
   276          1
   277          1
   281          1
   283          2
   284          1
   285          3
   286          1
   287         16
   288          4
   289          2
   290          1
   291          1
   299         38
   300         11
   301         13
   302          3
   303          4
   304          1
   305          2
   307          1
   313          9
   314          3
   315          7
   316          2
   317          4
   318          1
   319          1
   320          1
   327         19
   328          6
   329          7
   330          2
   331          2
   333         13
   334          4
   335          3
   336          1
   341          8
   342          2
   343          4
   344          1
   345          3
   346          1
   347          6
   348          2
   349          3
   350          1
   355          1
   357        265
   358         80
   359         33
   360          8
   361          5
   362          2
   363          1
   369          5
   370          1
   371          1
   373          3
   374          1
   375         15
   376          5
   377          8
   378          2
   379          1
   385         39
   386         12
   387         22
   388          7
   389         10
   390          3
   391          3
   392          1
   401          2
   402          3
   403          3
   404          1
   407          1
   415          9
   416          4
   417         35
   418         18
   419         35
   420         12
   421          5
   422          1
   429          1
   431        307
   432        111
   433         53
   434         13
   435          3
   436          1
   443          1
   444          1
   445          8
   446          3
   447          1
   457          2
   459        737
   460        293
   461        140
   462         35
   463          9
   464          2
   471          1
   473         12
   474          5
   475          9
   476          3
   477          1
   487          1
   489         55
   490         22
   491         10
   492          3
   493          1
   499          2
   501         46
   502         19
   503          8
   504          2
   505          2
   506          1
   515          1
   516          1
   519          5
   520          2
   521          1
   533          1
   534          1
   535          1
   547          4
   548          2
   549          1
   563          6
   564          3
   565          1
   573          1
   575          1
   589          1
   591        530
   592        262
   593        135
   594         44
   595         13
   596          3
   597          1
   617          1
   633         24
   634         13
   635          7
   636          2
   637          1