##TITLE=Library Entry 22904
##JCAMP-DX=Revision 4.10 
##DATA TYPE=MASS SPECTRUM
##SAMPLE DESCRIPTION=V.G. Zaikin, TIPS RAS, Moscow, Russia
##NAMES=HP
##CAS NAME=Pentafluorobenzoic acid, 2-methylpropyl ester
##MOLFORM=C11H9F5O2
##CAS REGISTRY NO=99483-13-3
##MP= -300
##BP= -300
##MW= 268
##$RETENTION INDEX=1186
##$CONDENSED SPECTRUM=NO
##NPOINTS= 75
##XYDATA=(XY..XY) 1 
    25          9
    26         49
    27        284
    28         62
    29        224
    30         14
    31         67
    32          3
    35          7
    36         18
    37         18
    38         39
    39        275
    40         44
    41        482
    42         64
    43        335
    44         13
    45         17
    49         12
    50         44
    51         56
    52         66
    53         19
    54          8
    55         65
    56        999
    57        111
    58          8
    61          5
    67          5
    69         11
    71          6
    73         27
    74         19
    75          9
    78         13
    79        111
    80         13
    81          5
    86         14
    91          5
    93         68
    94          5
    97          9
    98         78
    99         25
   105          5
   110         12
   116          5
   117        321
   118         19
   129         12
   136          5
   137          9
   142          5
   148         59
   149          9
   164          5
   166          9
   167        309
   168         39
   169          5
   176         13
   177         12
   181          5
   193          5
   194         15
   195        999
   196         69
   197          8
   212         17
   213         17
   225          5
   253          3