##TITLE=Library Entry 43698
##JCAMP-DX=Revision 4.10 
##DATA TYPE=MASS SPECTRUM
##SAMPLE DESCRIPTION=Chemical Concepts
##NAMES=HP
##CAS NAME=Pentasiloxane, 1,1,3,3,5,5,7,7,9,9-decamethyl-
##MOLFORM=C10H32O4Si5
##CAS REGISTRY NO=995-83-5
##MP= -300
##BP= -300
##MW= 356
##$RETENTION INDEX=0
##$CONDENSED SPECTRUM=NO
##NPOINTS= 177
##XYDATA=(XY..XY) 1 
    27          1
    29          1
    31         12
    40          0
    41          0
    42          0
    43          9
    44          4
    45         81
    46          5
    47          4
    55          1
    56          0
    57          1
    58          6
    59        145
    60         12
    61          8
    66          1
    67          0
    69          0
    70          0
    71          2
    72          5
    73        999
    74         75
    75         50
    76          2
    77          0
    81          0
    83          0
    85          4
    87          3
    88          2
    89          3
    95          1
    96          2
    97          0
   101          1
   102          1
   103         40
   104          6
   105          8
   108          1
   110          1
   113          1
   115          5
   116          1
   117         49
   118          7
   119         45
   120          7
   121          4
   124          2
   125          1
   126          1
   128          2
   129          2
   131         19
   132          5
   133        517
   134         76
   135         44
   136          4
   137          1
   139          1
   143          1
   145          2
   147        265
   148         45
   149         24
   150          2
   151          1
   154          1
   159          2
   161          3
   162          1
   163          8
   164          2
   165          4
   167          1
   169          1
   175          7
   176          4
   177         20
   178          5
   179         15
   180          4
   181          2
   184          1
   185          1
   187          1
   188          1
   189         14
   190          4
   191         51
   192         11
   193         79
   194         17
   195         10
   196          2
   201          1
   203          3
   204          1
   205          9
   206          5
   207        164
   208         41
   209         32
   210         10
   211          4
   212          2
   217          1
   219          2
   221          6
   222          4
   223          4
   224          2
   226          1
   227          2
   228          2
   232         13
   233         11
   234          8
   235         18
   236          8
   237         20
   238          6
   239          6
   240          3
   242          2
   243          2
   244          2
   245          3
   247          8
   249         46
   250         19
   251         75
   252         26
   253        145
   254         41
   255         25
   256          6
   257          3
   258          2
   259          2
   263          9
   265         55
   267        981
   268        250
   269        161
   270         35
   271         11
   272          2
   273          1
   275          1
   277          1
   281        586
   282        162
   283        100
   284         21
   285          6
   309          1
   325          4
   326          2
   339          8
   341        314
   342        109
   343         67
   344         19
   345          5
   346          1
   353          2
   354          2
   355         13
   356          5
   357          3