##TITLE=Library Entry 43771
##JCAMP-DX=Revision 4.10 
##DATA TYPE=MASS SPECTRUM
##SAMPLE DESCRIPTION=Chemical Concepts
##NAMES=HP
##CAS NAME=Hexasiloxane, 1,1,3,3,5,5,7,7,9,9,11,11-dodecamethyl-
##MOLFORM=C12H38O5Si6
##CAS REGISTRY NO=995-82-4
##MP= -300
##BP= -300
##MW= 430
##$RETENTION INDEX=0
##$CONDENSED SPECTRUM=NO
##NPOINTS= 222
##XYDATA=(XY..XY) 1 
    27          0
    28         12
    31          5
    39          0
    41          1
    42          0
    43          3
    44          3
    45         48
    46          3
    47          2
    51          0
    53          0
    55          1
    56          0
    57          1
    58          3
    59         95
    60          8
    61          4
    62          0
    67          0
    69          0
    70          0
    71          1
    72          3
    73        999
    74         76
    75         41
    76          1
    77          0
    81          0
    83          0
    85          3
    86          0
    87          4
    89          0
    96          0
    97          0
   101          0
   102          1
   103         15
   104          2
   105          2
   106          0
   110          0
   113          0
   115          1
   116          0
   117         26
   118          3
   119         16
   120          2
   121          1
   126          0
   129          1
   131         14
   132          3
   133        190
   134         28
   135         15
   136          1
   145          2
   146          1
   147        150
   148         27
   149         13
   150          1
   151          0
   153          0
   159          0
   161          1
   162          0
   163          2
   164          0
   165          1
   167          0
   168          0
   169          1
   170          0
   171          0
   172          0
   173          0
   174          0
   175          3
   176          2
   177         13
   178          3
   179          5
   180          1
   181          1
   182          0
   183          1
   184          1
   185          0
   186          0
   187          1
   188          1
   189          7
   190          5
   191         29
   192          8
   193        108
   194         23
   195         14
   196          3
   197          1
   198          0
   199          0
   200          1
   201          1
   202          1
   203          2
   204          1
   205          9
   206         10
   207        340
   208         74
   209         45
   210          8
   211          3
   213          0
   214          0
   215          0
   217          1
   218          1
   219          1
   221         35
   222          9
   223          6
   224          2
   225          1
   227          1
   228          1
   230          1
   231          1
   233          2
   234          2
   235          4
   236          3
   237          6
   238          2
   239          3
   240          1
   241          1
   242          1
   243          1
   244          1
   245          1
   247          3
   249         14
   250          5
   251         15
   252          7
   253         44
   254         13
   255          8
   256          2
   257          1
   258          1
   260          2
   261          2
   262          2
   263          2
   265         14
   267        218
   268         60
   269         39
   270          8
   271          3
   272          0
   276          0
   281        389
   282        106
   283         64
   284         14
   285          4
   286          0
   293          0
   294          0
   295          1
   296          0
   297          0
   298          0
   304          1
   305          1
   307          1
   309          7
   310          2
   311          5
   312          1
   313          1
   321          1
   323          7
   324          3
   325         13
   326          4
   327         19
   328          6
   329          4
   330          0
   337          1
   339          7
   341        107
   342         39
   343         25
   344          6
   345          2
   355         66
   356         27
   357         17
   358          4
   359          1
   413          1
   415         57
   416         26
   417         18
   418          5
   419          2
   429          3
   430          1
   431          1