##TITLE=Library Entry 57308
##JCAMP-DX=Revision 4.10 
##DATA TYPE=MASS SPECTRUM
##SAMPLE DESCRIPTION=Chemical Concepts
##NAMES=HP
##CAS NAME=Silane, methyltripropyl-
##MOLFORM=C10H24Si
##CAS REGISTRY NO=995-24-4
##MP= -300
##BP= -300
##MW= 172
##$RETENTION INDEX=1026
##$CONDENSED SPECTRUM=NO
##NPOINTS= 87
##XYDATA=(XY..XY) 1 
    26          2
    27         25
    28         11
    29         19
    30          1
    31         26
    32          2
    33          1
    38          0
    39         10
    40          6
    41         19
    42         10
    43        133
    44         39
    45        326
    46         19
    47         11
    48          0
    49          1
    50          1
    51          0
    52          0
    53          5
    54          2
    55         19
    56          5
    57         20
    58        107
    59        970
    60         73
    61         33
    62          0
    65          0
    66          2
    67          6
    68          1
    69         10
    70          7
    71         55
    72         32
    73        122
    74         11
    75          4
    79          3
    80          0
    81          1
    82          0
    83          4
    84          3
    85         32
    86         19
    87        999
    88         92
    89         33
    90          1
    95          0
    97          1
    98          0
    99          2
   100          5
   101         93
   102         10
   103          3
   105          0
   109          0
   111          0
   113          3
   114          1
   115         38
   116          4
   117          1
   125          0
   126          0
   127          2
   128          3
   129        970
   130        123
   131         38
   132          3
   133          0
   157         17
   158          2
   159          0
   172         25
   173          3
   174          1