##TITLE=Library Entry 83766
##JCAMP-DX=Revision 4.10 
##DATA TYPE=MASS SPECTRUM
##SAMPLE DESCRIPTION=NIST Mass Spectrometry Data Center, 1990.
##NAMES=HP
##CAS NAME=1-(2,4-Dimethylphenyl)ethanol
##MOLFORM=C10H14O
##CAS REGISTRY NO=99500-87-5
##MP= -300
##BP= -300
##MW= 150
##$RETENTION INDEX=1196
##$CONDENSED SPECTRUM=NO
##NPOINTS= 76
##XYDATA=(XY..XY) 1 
    14          5
    15         48
    16          7
    17         15
    18         44
    19          7
    26         14
    27        136
    28         26
    29         53
    37         11
    38         36
    39        251
    40         34
    41         63
    42         11
    43        400
    44         12
    45         36
    50         73
    51        208
    52         62
    53         79
    55         11
    58         20
    60         50
    61         18
    62         46
    63        154
    64         84
    65        204
    66         30
    67         28
    74         50
    75         38
    76         39
    77        309
    78        103
    79        236
    80         16
    86         11
    87         16
    88          6
    89         62
    90          6
    91        870
    92        101
    93         13
   101          9
   102         46
   103        107
   104         45
   105        374
   106          9
   107        999
   108         89
   115        315
   116        124
   117        554
   118         62
   119         21
   120          9
   126          6
   127         27
   128         47
   129         44
   130         17
   131        160
   132        490
   133        146
   134          6
   135        796
   136         78
   148         12
   150        254
   151         24