##TITLE=Library Entry 18340
##JCAMP-DX=Revision 4.10 
##DATA TYPE=MASS SPECTRUM
##SAMPLE DESCRIPTION=Chemical Concepts
##NAMES=HP
##CAS NAME=Chromium, [(1,2,3,4,5,6-.eta.)-bicyclo[4.2.0]octa-1,3,5-triene]tr
icarbonyl-
##MOLFORM=C11H8CrO3
##CAS REGISTRY NO=99537-78-7
##MP= -300
##BP= -300
##MW= 240
##$RETENTION INDEX=0
##$CONDENSED SPECTRUM=NO
##NPOINTS= 98
##XYDATA=(XY..XY) 1 
    25          0
    26          3
    27          4
    37          1
    38          5
    39         15
    49          0
    50         44
    51         27
    52        999
    53         99
    54         27
    61          1
    62          6
    63         16
    64          4
    65          3
    66          1
    73          0
    74         11
    75          6
    76         10
    77         47
    78         45
    79          3
    80         60
    81          9
    86          0
    87          0
    88          0
    89          5
    90         11
    91          9
    92          9
    99          0
   100          0
   101          8
   102          6
   103         28
   104         37
   105          3
   106          5
   107          0
   108          3
   113          0
   114          2
   115          1
   116          1
   117          0
   125          0
   127          3
   128         11
   129         13
   130          2
   131          0
   141          0
   144          0
   151          0
   153          2
   154         47
   155         11
   156        640
   157        162
   158         31
   159          3
   160          0
   168          0
   170          1
   171          0
   172          1
   173          0
   174          0
   182          3
   183          2
   184         69
   185         14
   186          3
   187          0
   198          0
   200          0
   207          0
   208          0
   210          2
   211          0
   212         47
   213         11
   214          2
   215          0
   230          0
   232          0
   234          0
   236          1
   237          0
   238         12
   239          1
   240        257
   241         60
   242         17