##TITLE=Library Entry 51078
##JCAMP-DX=Revision 4.10 
##DATA TYPE=MASS SPECTRUM
##SAMPLE DESCRIPTION=R. GREENHALGH, AGRIC. CAN., PLANT RES. CENT., OTTAWA, C
AN.
##NAMES=HP
##CAS NAME=7,8-Dihydroxycalonectrin
##MOLFORM=C19H26O8
##CAS REGISTRY NO=99530-56-0
##MP= -300
##BP= -300
##MW= 382
##$RETENTION INDEX=0
##$CONDENSED SPECTRUM=NO
##NPOINTS= 46
##XYDATA=(XY..XY) 1 
    41        346
    43        972
    55        207
    57        125
    67        109
    71        141
    79        156
    82        999
    83        143
    91        162
    95        164
   100        327
   105        113
   107        118
   109        187
   121        145
   123         71
   135         99
   136        112
   137        104
   145         52
   151         48
   159         46
   163         63
   173         38
   181         32
   187         38
   189         39
   202         26
   203         22
   214         17
   215         32
   223         49
   231         11
   241         10
   247          8
   261         28
   262         13
   275         22
   276         42
   289         13
   291         16
   304         77
   305         16
   322         15
   323          2