##TITLE=Library Entry 114715
##JCAMP-DX=Revision 4.10 
##DATA TYPE=MASS SPECTRUM
##SAMPLE DESCRIPTION=Japan AIST/NIMC Database- Spectrum MS-NW-3431
##NAMES=HP
##CAS NAME=Diethylamine, TMS derivative
##MOLFORM=C7H19NSi
##CAS REGISTRY NO=996-50-9
##MP= -300
##BP= -300
##MW= 145
##$RETENTION INDEX=817
##$CONDENSED SPECTRUM=NO
##NPOINTS= 76
##XYDATA=(XY..XY) 1 
    14          1
    15         11
    26          6
    27         28
    28         20
    29         36
    30         28
    31         17
    32          2
    38          1
    39          5
    40          2
    41          9
    42         42
    43         67
    44         22
    45        103
    46          7
    47          4
    49          1
    52          1
    53          5
    54          6
    55          9
    56         21
    57         14
    58         43
    59        211
    60         15
    61          8
    63          1
    65          1
    66          2
    67          1
    68          3
    69          4
    70         59
    71          7
    72         52
    73        744
    74         64
    75         32
    76          2
    77         21
    78          1
    79          2
    80          1
    83          1
    84          2
    85          2
    86         38
    87          6
    88          2
    93          3
    95          1
    98          2
   100         15
   101          8
   102         14
   103          1
   114         19
   115          3
   116          6
   117          1
   128          8
   129          2
   130        999
   131        123
   132         41
   133          3
   144         21
   145        124
   146         18
   147         58
   148          8
   149          5