##TITLE=Library Entry 32468
##JCAMP-DX=Revision 4.10 
##DATA TYPE=MASS SPECTRUM
##SAMPLE DESCRIPTION=D.HENNEBERG, MAX-PLANCK INSTITUTE, MULHEIM, WEST GERMAN
Y
##NAMES=HP
##CAS NAME=1,4-Pentadiene, 3-propyl-
##MOLFORM=C8H14
##CAS REGISTRY NO=996-83-8
##MP= -300
##BP= -300
##MW= 110
##$RETENTION INDEX=0
##$CONDENSED SPECTRUM=NO
##NPOINTS= 74
##XYDATA=(XY..XY) 1 
    22          0
    23          0
    25          8
    26         12
    27        190
    28         21
    29         53
    30          1
    31          1
    34          1
    35          0
    36          0
    37          4
    38         14
    39        216
    40         47
    41        471
    42         36
    43        143
    44          2
    45          0
    46          0
    48          0
    49          1
    50         13
    51         29
    52         17
    53        122
    54        257
    55        102
    56         50
    57          3
    58          0
    59          0
    60          0
    61          1
    62          4
    63         12
    64          3
    65         90
    66         78
    67        999
    68        269
    69         49
    70          5
    71          0
    73          0
    74          0
    75          1
    76          0
    77         29
    78          6
    79         77
    80         15
    81        321
    82        132
    83          9
    84          0
    89          1
    91         49
    92          1
    93          6
    94          1
    95        225
    96         18
    97          0
   103          0
   104          0
   105          0
   107          0
   108          0
   109          6
   110         21
   111          1