##TITLE=Library Entry 23346
##JCAMP-DX=Revision 4.10 
##DATA TYPE=MASS SPECTRUM
##SAMPLE DESCRIPTION=Japan AIST/NIMC Database- Spectrum MS-NW-9896
##NAMES=HP
##CAS NAME=Dibutyltin dibromide
##MOLFORM=C8H18Br2Sn
##CAS REGISTRY NO=996-08-7
##MP= -300
##BP= -300
##MW= 392
##$RETENTION INDEX=0
##$CONDENSED SPECTRUM=NO
##NPOINTS= 157
##XYDATA=(XY..XY) 1 
    26          2
    27         23
    28          7
    29        145
    30          3
    36          4
    38          1
    39         20
    40          2
    41        183
    42          8
    43          6
    44          1
    51          1
    53          4
    54          1
    55         16
    56         23
    57        999
    58         47
    71          1
    79          1
    80          3
    81          1
    82          3
    85          2
   116          4
   117          9
   118          9
   119         12
   120         11
   121         14
   122          1
   123          2
   124          1
   125          2
   133          1
   135          1
   145          1
   147          1
   149          1
   151          6
   152          3
   153         10
   154          4
   155         15
   156          1
   157          5
   159          3
   173          3
   174          2
   175          5
   176          3
   177          7
   179          1
   181          1
   191          1
   193          2
   195         19
   196          9
   197         49
   198         20
   199         73
   200         10
   201         47
   203         13
   205          7
   208          2
   209          3
   210          6
   211          4
   212          8
   213          3
   214          3
   215          1
   216          1
   227          1
   233          1
   234          1
   235          1
   236          1
   245          1
   247          2
   249          1
   250          1
   251          2
   252          9
   253          9
   254         23
   255         16
   256         34
   257         11
   258         21
   259          4
   260          6
   261          1
   262          3
   265          2
   266          2
   267          4
   268          3
   269          6
   270          1
   271          2
   273          1
   276          3
   277          2
   278          5
   279          3
   280          5
   281          3
   282          2
   283          1
   285          1
   287          6
   288          3
   289         16
   290          8
   291         26
   292          6
   293         20
   294          2
   295          8
   297          3
   308          2
   309          4
   310          6
   311          9
   312          9
   313         11
   314          6
   315          7
   316          2
   317          2
   318          1
   319          1
   327          1
   329          2
   331         16
   332          9
   333         53
   334         26
   335         95
   336         28
   337         92
   338         12
   339         46
   340          2
   341         15
   343          5
   348          1
   390          3
   391          1
   392          5
   393          1
   394          5
   396          2