##TITLE=Library Entry 29684
##JCAMP-DX=Revision 4.10 
##DATA TYPE=MASS SPECTRUM
##SAMPLE DESCRIPTION=Chemical Concepts
##NAMES=HP
##CAS NAME=2-Hydroxy-2-methylhept-6-en-3-one
##MOLFORM=C8H14O2
##CAS REGISTRY NO=996-61-2
##MP= -300
##BP= -300
##MW= 142
##$RETENTION INDEX=0
##$CONDENSED SPECTRUM=NO
##NPOINTS= 67
##XYDATA=(XY..XY) 1 
    26          8
    27         64
    28          9
    29         63
    30          2
    31        148
    37          2
    38          6
    39         85
    40         12
    41        142
    42         39
    43        214
    44         12
    45          7
    49          0
    50          6
    51         10
    52          4
    53         24
    54         10
    55        122
    56         22
    57         10
    58         20
    59        999
    60         57
    61          6
    62          1
    63          1
    65          2
    66          4
    67          4
    68          1
    69         11
    70         16
    71          3
    72          1
    73          3
    74          1
    75          1
    77          4
    78          1
    79          4
    80          1
    81          8
    82          3
    83         28
    84        110
    85          8
    86          1
    87          4
    88         11
    89          1
    90          1
    91          5
    92          1
    93          1
    95          1
    97          4
    98          1
    99         21
   100          2
   109          2
   127          3
   142          1
   143          1