##TITLE=Library Entry 55594
##JCAMP-DX=Revision 4.10 
##DATA TYPE=MASS SPECTRUM
##SAMPLE DESCRIPTION=NIST Mass Spectrometry Data Center, 2010
##NAMES=HP
##CAS NAME=Tetrakis(dimethylamino)ethylene
##MOLFORM=C10H24N4
##CAS REGISTRY NO=996-70-3
##MP= -300
##BP= -300
##MW= 200
##$RETENTION INDEX=1159
##$CONDENSED SPECTRUM=NO
##NPOINTS= 94
##XYDATA=(XY..XY) 1 
    14          1
    15         11
    18          3
    27          3
    28         18
    29          6
    30          5
    39          2
    40          6
    41          8
    42         78
    43         13
    44         39
    45          9
    46          2
    50          1
    52          2
    53          3
    54         12
    55         20
    56         53
    57          9
    58         74
    59          3
    60          1
    66          4
    67         24
    68         14
    69         51
    70         73
    71         29
    72          8
    73          3
    77          4
    79          1
    80          1
    81          9
    82          6
    83         57
    84         18
    85        999
    86         58
    87         15
    88          1
    92          2
    94          1
    95          4
    96          4
    97        148
    98         88
    99         88
   100        108
   101        268
   102         17
   108          1
   109          2
   110          3
   111         14
   112         18
   113        232
   114         19
   115          6
   116          1
   122          1
   123          1
   124          3
   125          4
   126         29
   127          4
   128         27
   129          2
   130          1
   138          2
   139          1
   140          9
   141          4
   142          2
   144          5
   153          1
   154          4
   155          3
   156          1
   168          1
   169          4
   170          1
   171          1
   183          6
   185        355
   186         41
   187          2
   198          2
   200        436
   201         54
   202          3