##TITLE=Library Entry 39757
##JCAMP-DX=Revision 4.10 
##DATA TYPE=MASS SPECTRUM
##SAMPLE DESCRIPTION=Japan AIST/NIMC Database- Spectrum MS-NW-1032
##NAMES=HP
##CAS NAME=2-Propanamine, N,N-dimethyl-
##MOLFORM=C5H13N
##CAS REGISTRY NO=996-35-0
##MP= -300
##BP= -300
##MW= 87
##$RETENTION INDEX=607
##$CONDENSED SPECTRUM=NO
##NPOINTS= 34
##XYDATA=(XY..XY) 1 
    14          2
    15         41
    26          4
    27         31
    28         13
    29         13
    30         17
    37          1
    38          3
    39         24
    40          6
    41         37
    42        118
    43         47
    44        212
    45          9
    46          1
    52          1
    54          8
    55          9
    56         97
    57         35
    58          6
    68          3
    70         48
    71         38
    72        999
    73         49
    74          1
    84          3
    85          2
    86         45
    87        139
    88          8