##TITLE=Library Entry 45900
##JCAMP-DX=Revision 4.10 
##DATA TYPE=MASS SPECTRUM
##SAMPLE DESCRIPTION=NIST Mass Spectrometry Data Center
##NAMES=HP
##CAS NAME=2-Heptanol, TBDMS derivative
##MOLFORM=C13H30OSi
##CAS REGISTRY NO=99605-25-1
##MP= -300
##BP= -300
##MW= 230
##$RETENTION INDEX=1220
##$CONDENSED SPECTRUM=NO
##NPOINTS= 87
##XYDATA=(XY..XY) 1 
    15          1
    27         11
    28          3
    29         30
    30          1
    31          2
    39         12
    40          2
    41         47
    42          6
    43         33
    44          3
    45         35
    46          2
    47         32
    48          2
    49          1
    51          1
    53          4
    54          1
    55         23
    56          7
    57         27
    58         20
    59         49
    60         11
    61         31
    62          2
    63          1
    65          1
    67          2
    68          1
    69          4
    70          2
    71          4
    72          8
    73        208
    74         31
    75        999
    76         77
    77         38
    78          1
    79          1
    81          2
    83          3
    84          1
    85         12
    86          3
    87         21
    88          2
    89          5
    95          1
    96          1
    97          6
    98          2
    99         12
   100          4
   101         34
   102         19
   103         38
   104          4
   105          1
   111          1
   113          5
   115         57
   116          7
   117          5
   127          1
   129         19
   130          3
   131          1
   143          2
   145          1
   157          5
   159        109
   160         15
   161          5
   171          1
   173        656
   174        100
   175         28
   176          3
   215         19
   216          3
   217          1
   229          2
   230          1