##TITLE=Library Entry 107284
##JCAMP-DX=Revision 4.10 
##DATA TYPE=MASS SPECTRUM
##SAMPLE DESCRIPTION=R. MARTIN, PHARM. BIOL., UNIV. HEIDELBERG, W. GER.
##NAMES=HP
##CAS NAME=N-Isobutyl-(2E,4Z)-octadienamide
##MOLFORM=C12H21NO
##CAS REGISTRY NO=99615-85-7
##MP= -300
##BP= -300
##MW= 195
##$RETENTION INDEX=0
##$CONDENSED SPECTRUM=NO
##NPOINTS= 106
##XYDATA=(XY..XY) 1 
    40         23
    41        147
    42         17
    43         96
    44         14
    49          7
    50          6
    51         19
    52         13
    53         99
    54         16
    55        107
    56         28
    57        139
    58         13
    59         11
    60          7
    63          7
    64          2
    65         32
    66         56
    67         81
    68         17
    69         44
    70         20
    71         44
    72         25
    73          4
    77         41
    78         12
    79         44
    80         17
    81        238
    82         35
    83         36
    84         19
    85         28
    86          4
    91         23
    92          6
    93         22
    94         25
    95        154
    96        165
    97         55
    98         44
    99         13
   100          3
   103          3
   104          3
   105         16
   106          4
   107          8
   108          4
   109         17
   110         78
   111         26
   112          9
   113         42
   114          4
   115          5
   117          4
   119         16
   120         13
   121          9
   122          8
   123        999
   124        113
   125         19
   126         13
   127          8
   134          1
   135          5
   136          3
   137          8
   138         15
   139         50
   140         36
   141         16
   145          2
   147          5
   149          5
   150          3
   151          5
   152         92
   153         20
   154          5
   155          5
   163          3
   165          4
   166         33
   167          8
   169          3
   177          3
   178          4
   179          3
   180         52
   181          8
   182          2
   183          2
   191          4
   193          4
   194          6
   195        311
   196         41
   197          6