##TITLE=Library Entry 24068
##JCAMP-DX=Revision 4.10 
##DATA TYPE=MASS SPECTRUM
##SAMPLE DESCRIPTION=Japan AIST/NIMC Database- Spectrum MS-NW- 696
##NAMES=HP
##CAS NAME=1-Propanamine, 2-methyl-N-(2-methylpropyl)-N-nitroso-
##MOLFORM=C8H18N2O
##CAS REGISTRY NO=997-95-5
##MP= -300
##BP= -300
##MW= 158
##$RETENTION INDEX=0
##$CONDENSED SPECTRUM=NO
##NPOINTS= 81
##XYDATA=(XY..XY) 1 
    14          2
    15         34
    17          9
    18         41
    26          8
    27        166
    28         69
    29        311
    30        478
    31         10
    32          9
    37          3
    38          9
    39        136
    40         21
    41        557
    42        615
    43        974
    44         54
    45          9
    47          7
    50          4
    51          5
    52          4
    53         13
    54         10
    55        146
    56        225
    57        999
    58         50
    59          8
    60          4
    61          3
    65          1
    67          3
    68         11
    69          6
    70         61
    71         10
    72         46
    73        127
    74          9
    77          3
    78          1
    80          1
    81          1
    82          9
    83          5
    84        573
    85        140
    86        189
    87         13
    92          1
    95          1
    98          8
    99         11
   100          1
   101          5
   102          2
   103         99
   104          6
   106          2
   108          1
   112          3
   113          3
   114          3
   115        245
   116         17
   117          1
   123          1
   126          1
   127          2
   128          1
   129          2
   141         50
   142          6
   143          5
   153          1
   157          1
   158         58
   159          6