##TITLE=Library Entry 86963
##JCAMP-DX=Revision 4.10 
##DATA TYPE=MASS SPECTRUM
##SAMPLE DESCRIPTION=Chemical Concepts
##NAMES=HP
##CAS NAME=3-Thia-9-azabicyclo[3.3.1]nonan-7-one, 9-methyl-
##MOLFORM=C8H13NOS
##CAS REGISTRY NO=99709-31-6
##MP= -300
##BP= -300
##MW= 171
##$RETENTION INDEX=0
##$CONDENSED SPECTRUM=NO
##NPOINTS= 95
##XYDATA=(XY..XY) 1 
    26          2
    27         20
    28         23
    29          8
    30          7
    31          0
    35          0
    37          1
    38          3
    39         44
    40          8
    41         79
    42        315
    43         17
    44          7
    45         29
    46         10
    47          8
    48          0
    49          0
    50          0
    51          2
    52          3
    53          7
    54         23
    55         57
    56         56
    57         57
    58          9
    59         11
    60          2
    61          3
    62          0
    63          0
    65          2
    66          1
    67          9
    68         15
    69         15
    70         19
    71         10
    72          3
    73          9
    74          1
    75          0
    76          0
    77          0
    78          0
    79          1
    80          5
    81         15
    82        129
    83         60
    84         55
    85          7
    86          6
    87          5
    88          6
    89          0
    93          0
    94          8
    95          4
    96         41
    97         34
    98          3
    99          2
   100          4
   101          1
   102          0
   108          1
   109         32
   110        999
   111         71
   112          4
   113          4
   114         45
   115          3
   116          2
   124         17
   125         25
   126          2
   127          0
   128          6
   129          0
   130          0
   138          0
   141          0
   152          0
   156          2
   157          0
   170          1
   171        197
   172         21
   173         10
   174          1