##TITLE=Library Entry 8087
##JCAMP-DX=Revision 4.10 
##DATA TYPE=MASS SPECTRUM
##SAMPLE DESCRIPTION=B. Derendyaev, Novosibirsk Institute of Organic Chemist
ry
##NAMES=HP
##CAS NAME=Methyl 15-oxohexadecanoate
##MOLFORM=C17H32O3
##CAS REGISTRY NO=99706-71-5
##MP= -300
##BP= -300
##MW= 284
##$RETENTION INDEX=0
##$CONDENSED SPECTRUM=NO
##NPOINTS= 119
##XYDATA=(XY..XY) 1 
    29          8
    31          9
    39         21
    40         14
    41        240
    42         51
    43        999
    45          9
    51          5
    53         12
    54         30
    55        372
    56         74
    57         84
    58        550
    59        164
    60          4
    65          3
    66          3
    67         74
    68         33
    69        241
    70         39
    71        250
    72          9
    73         34
    74        160
    75          9
    76          4
    77          3
    79          7
    80         19
    81        139
    82         49
    83        250
    84        133
    85         51
    87        132
    88          6
    93         42
    94         19
    95        201
    96         92
    97        272
    98        240
    99         32
   100          9
   101         11
   102          8
   107         34
   108         19
   109         79
   110         50
   111        171
   112         70
   113         23
   115          5
   118          7
   121         69
   122          3
   123         43
   124          3
   125         69
   126         21
   127          3
   128          9
   129         31
   131          8
   132          8
   134          8
   135         53
   136          7
   137         14
   139         29
   140         34
   141         19
   142          3
   143         21
   144         11
   145         11
   149          9
   150         20
   151          9
   152         24
   153         51
   154         34
   156          9
   157          4
   162         10
   166         11
   168         12
   171         12
   176         29
   177        191
   178         22
   190          8
   191          9
   194        109
   195        279
   196         34
   208          4
   209          9
   210         15
   214          8
   215          3
   226         31
   227        162
   228         23
   229          6
   241          9
   249          7
   251          5
   252         19
   253         74
   254         14
   256          8
   266          8
   269          6
   284         18