##TITLE=Library Entry 25401
##JCAMP-DX=Revision 4.10 
##DATA TYPE=MASS SPECTRUM
##SAMPLE DESCRIPTION=D.HENNEBERG, MAX-PLANCK INSTITUTE, MULHEIM, WEST GERMAN
Y
##NAMES=HP
##CAS NAME=Nonane, 5-propyl-
##MOLFORM=C12H26
##CAS REGISTRY NO=998-35-6
##MP= -300
##BP= -300
##MW= 170
##$RETENTION INDEX=0
##$CONDENSED SPECTRUM=NO
##NPOINTS= 87
##XYDATA=(XY..XY) 1 
    25          0
    26          0
    27         22
    28         31
    29         81
    30          2
    32          0
    36          6
    37          0
    38          2
    39          9
    40          1
    41        153
    42         33
    43        554
    44         18
    45          1
    50          0
    51          0
    52          0
    53          2
    54          5
    55         99
    56         92
    57        999
    58         43
    59          0
    60          0
    61          0
    62          0
    63          0
    65          0
    67          7
    68          8
    69         56
    70        100
    71        928
    72         52
    73          0
    74          0
    77          0
    78          0
    79          0
    81          3
    82         27
    83         71
    84         63
    85        208
    86         14
    87          0
    89          0
    91          1
    93          0
    94          0
    95          2
    96          5
    97         27
    98         23
    99          8
   105          1
   110          0
   111          3
   112        336
   113         97
   114          7
   115          1
   117          0
   124          0
   125          0
   126        195
   127         88
   128          7
   129          0
   130          0
   137          0
   138          1
   139          3
   140          7
   141          8
   142          0
   149          0
   151          0
   154          0
   155          1
   167          0
   170         42
   171          5