##TITLE=Library Entry 100491
##JCAMP-DX=Revision 4.10 
##DATA TYPE=MASS SPECTRUM
##SAMPLE DESCRIPTION=RADIAN CORP
##NAMES=HP
##CAS NAME=Silane, triethoxy-
##MOLFORM=C6H16O3Si
##CAS REGISTRY NO=998-30-1
##MP= -300
##BP= -300
##MW= 164
##$RETENTION INDEX=836
##$CONDENSED SPECTRUM=NO
##NPOINTS= 72
##XYDATA=(XY..XY) 1 
    14          1
    15          9
    26          9
    27         50
    29         90
    30          3
    31          8
    41          1
    42          5
    43         27
    44          3
    45        195
    46         19
    47         39
    48          2
    58          5
    59          4
    60          4
    61         20
    62         70
    63        568
    64         35
    65         23
    67          7
    71          6
    72          3
    73         57
    74         26
    75         66
    76         22
    77         76
    78          8
    79        166
    80          9
    81         12
    87          7
    88          4
    89         74
    90         25
    91        431
    92         34
    93         58
    94          3
    95          2
   101          3
   103         41
   104          8
   105        796
   106         68
   107        150
   108         10
   109          5
   117         16
   118          5
   119        999
   120        100
   121        169
   122         14
   123          6
   133         19
   135        283
   136         28
   137         14
   147         15
   149        864
   150         93
   151         40
   152          2
   163        616
   164         86
   165         30
   166          2