##TITLE=Library Entry 46293
##JCAMP-DX=Revision 4.10 
##DATA TYPE=MASS SPECTRUM
##SAMPLE DESCRIPTION=Japan AIST/NIMC Database- Spectrum MS-NW-3623
##NAMES=HP
##CAS NAME=Phosphine, tributyl-
##MOLFORM=C12H27P
##CAS REGISTRY NO=998-40-3
##MP= -300
##BP= -300
##MW= 202
##$RETENTION INDEX=0
##$CONDENSED SPECTRUM=NO
##NPOINTS= 119
##XYDATA=(XY..XY) 1 
    15          3
    26          4
    27         72
    28          6
    29        201
    30          5
    32          1
    35          1
    37          1
    38          1
    39         40
    40          5
    41        172
    42         14
    43         36
    44          2
    45         35
    46          9
    47         41
    48         51
    49         16
    50          1
    51          2
    52          1
    53         13
    54          5
    55        136
    56         17
    57         44
    58         15
    59         58
    60         16
    61        196
    62        585
    63         27
    64          3
    65          1
    67          3
    68          3
    69         16
    70          1
    71         12
    72          3
    73         24
    74         20
    75         48
    76        999
    77         37
    78         19
    79          1
    80          2
    81          1
    83          4
    84          1
    85          6
    86          1
    87         16
    88         16
    89         95
    90         49
    91         12
    92         21
    93          1
    94          1
    97          2
    99          1
   101          6
   102         10
   103         54
   104        323
   105         29
   106          3
   107          1
   110          1
   113          1
   115          6
   116          4
   117         51
   118        253
   119         17
   120          9
   122          5
   129          3
   130          1
   131        167
   132         18
   133          3
   134          5
   143          3
   144          2
   145         34
   146        137
   147         21
   148          2
   157          2
   158          1
   159         10
   160         53
   161          8
   162          5
   163          1
   171          4
   172          1
   173        306
   174         36
   175          2
   176          2
   178          1
   183         10
   184          1
   185          1
   187          7
   188          1
   199          1
   200          1
   201         26
   202        159
   203         22
   204          1