##TITLE=Library Entry 66237
##JCAMP-DX=Revision 4.10 
##DATA TYPE=MASS SPECTRUM
##SAMPLE DESCRIPTION=LAC, NIDDK, NIH, Bethesda, MD 20892
##NAMES=HP
##CAS NAME=Manno-saccharic diphenylhydrazide
##MOLFORM=C18H22N4O4
##CAS REGISTRY NO=99800-34-7
##MP= -300
##BP= -300
##MW= 358
##$RETENTION INDEX=0
##$CONDENSED SPECTRUM=NO
##NPOINTS= 184
##XYDATA=(XY..XY) 1 
    42        184
    43        278
    44         72
    45        103
    46         21
    47         23
    48          6
    50         39
    51        158
    52         49
    53         19
    54         32
    55         77
    56         66
    57         61
    58         23
    59         12
    60         74
    61        102
    62         16
    63         51
    64         72
    65        495
    66        149
    67         23
    68         12
    69         25
    70         40
    71         27
    72         13
    73         37
    74         24
    75         10
    76         19
    77        509
    78         80
    79         14
    80          7
    81          9
    82          9
    83         19
    87          8
    88          8
    89         13
    90         11
    91        236
    92        587
    93        999
    94        154
    95         14
    96          6
    97         15
    98         10
    99          7
   100          2
   101          6
   102         13
   103         20
   104         76
   105        149
   106         43
   107         36
   108         49
   109          9
   110          3
   111          8
   112          5
   113          4
   115         12
   116         14
   117         29
   118         50
   119        112
   120         34
   121         10
   122         22
   123          5
   124          5
   125          3
   127          3
   128          5
   129         10
   130         14
   131         44
   132         21
   133         24
   134          8
   135          3
   136          1
   140          1
   141          2
   142          3
   143         13
   144          9
   145         36
   146        188
   147         39
   148          5
   149         11
   152          2
   155          4
   156          3
   157          8
   158         46
   159         26
   160         13
   161         32
   162          6
   163          5
   164          5
   165          2
   167          6
   168         13
   169          9
   170          7
   171         15
   172         15
   173         27
   174        114
   175         46
   176         16
   177          7
   182          2
   183          5
   184          4
   185          8
   186         20
   187         23
   188         99
   189         14
   199          1
   200          5
   203          3
   204          2
   205          1
   211          1
   212          5
   217          4
   218         11
   221          1
   222          1
   230         21
   231          5
   233         10
   234          3
   235          5
   237          3
   238        215
   239         36
   240          2
   243          1
   248         13
   249         39
   250         13
   251         35
   252          9
   253          1
   261         14
   262         20
   263         16
   264          3
   266         10
   267         51
   268         10
   277         10
   278          4
   279         18
   280         30
   281          6
   289          7
   291          4
   292         12
   293          1
   304          4
   310          6
   321          4
   322         32
   323          8
   338          4
   340         53
   341         11
   358        146
   359         31
   360          3