##TITLE=Library Entry 28342
##JCAMP-DX=Revision 4.10 
##DATA TYPE=MASS SPECTRUM
##SAMPLE DESCRIPTION=Chemical Concepts
##NAMES=HP
##CAS NAME=1-Methylsulfonyl, 7,10-dimethyl 1,4,7,10-tetraaza-12-crown-4
##MOLFORM=C12H28N4O2S
##CAS REGISTRY NO=99892-22-5
##MP= -300
##BP= -300
##MW= 292
##$RETENTION INDEX=0
##$CONDENSED SPECTRUM=NO
##NPOINTS= 153
##XYDATA=(XY..XY) 1 
    34          3
    38          2
    39          8
    40         35
    41         46
    42        426
    43        249
    44        202
    45         13
    46          6
    47          3
    48          8
    49          1
    50          1
    51          1
    52          2
    53          4
    54         24
    55         41
    56        265
    57        228
    58        999
    59         47
    60          4
    63          6
    64         50
    65          7
    66          1
    67          8
    68         19
    69         29
    70        551
    71        200
    72        476
    73         23
    74          1
    77          2
    78          2
    79          9
    80          8
    81         10
    82         89
    83         96
    84        157
    85         92
    86         30
    87          9
    88          1
    89          1
    91          2
    93          4
    94         42
    95         14
    96         34
    97         89
    98         58
    99        375
   100         45
   101        113
   102         19
   103         10
   104          1
   105          1
   106          1
   107          2
   108          2
   109         10
   110          9
   111        188
   112         63
   113        295
   114        109
   115        131
   116          9
   118          1
   119          1
   121          2
   122         14
   123         15
   124          9
   125         50
   126         12
   127        224
   128         25
   129         13
   130          1
   133          1
   134          2
   135          1
   136          4
   137          6
   138          2
   139          6
   140         25
   141         17
   142         29
   143         46
   144          4
   147          2
   149          9
   150          2
   151          1
   152          1
   153         11
   154         18
   155          5
   156         12
   157          7
   163          5
   164          2
   165         85
   166         25
   167          7
   168         22
   169         51
   170          9
   177         35
   178         16
   179        125
   180         11
   181          6
   182          6
   183          1
   191          5
   192          3
   193          4
   196          1
   197          1
   198          2
   204          1
   205          5
   206          2
   207          3
   208          9
   209          8
   210         19
   211          4
   212          3
   213          9
   214          1
   220          5
   222        159
   223         15
   224          8
   234          2
   235          2
   236         13
   237          1
   248         18
   249          2
   261          1
   290          1
   292          1