##TITLE=Library Entry 37314
##JCAMP-DX=Revision 4.10 
##DATA TYPE=MASS SPECTRUM
##SAMPLE DESCRIPTION=NIST Mass Spectrometry Data Center, 1990.
##NAMES=HP
##CAS NAME=Octane, 4-chloro-
##MOLFORM=C8H17Cl
##CAS REGISTRY NO=999-07-5
##MP= -300
##BP= -300
##MW= 148
##$RETENTION INDEX=997
##$CONDENSED SPECTRUM=NO
##NPOINTS= 41
##XYDATA=(XY..XY) 1 
    27        242
    28         12
    29        235
    36         12
    39        299
    41        892
    42        343
    43        284
    44         12
    49         21
    50         16
    51         45
    52         20
    53        116
    54        100
    55        901
    56        644
    57        363
    58         14
    62         39
    63         46
    64         14
    65         35
    66         10
    67         86
    68        105
    69        448
    70        999
    71        184
    75         25
    76         23
    77         25
    78         10
    79         12
    82        156
    83        558
    84        365
    85         26
    97         57
   112        155
   113         15