##TITLE=Library Entry 25217
##JCAMP-DX=Revision 4.10 
##DATA TYPE=MASS SPECTRUM
##SAMPLE DESCRIPTION=NIST Mass Spectrometry Data Center, 1990.
##NAMES=HP
##CAS NAME=3-Bromooctane
##MOLFORM=C8H17Br
##CAS REGISTRY NO=999-64-4
##MP= -300
##BP= -300
##MW= 192
##$RETENTION INDEX=1053
##$CONDENSED SPECTRUM=NO
##NPOINTS= 74
##XYDATA=(XY..XY) 1 
    15         20
    17          3
    18         21
    20          0
    26         28
    27        267
    28         67
    29        320
    30          7
    37          3
    39        232
    40         60
    41        665
    42        156
    43        648
    44         20
    45          1
    46          1
    48          0
    50         10
    51         20
    52         10
    53         55
    54         38
    55        338
    56        170
    57        999
    58         38
    59          0
    61          0
    62          1
    63          4
    65          9
    66          4
    67         24
    68         12
    69         79
    70         93
    71        904
    72         43
    73          0
    74          1
    77          5
    78          1
    79          6
    80          3
    81          6
    82          7
    83         31
    84         11
    85          5
    86          0
    91          1
    93          4
    94          0
    95          3
    97          3
   105          1
   106          4
   107          6
   108          4
   109          5
   110          0
   113        172
   114         14
   119          0
   120          0
   121          3
   122          0
   123          1
   134          1
   135          2
   136          0
   137          1