##TITLE=Library Entry 23473
##JCAMP-DX=Revision 4.10 
##DATA TYPE=MASS SPECTRUM
##SAMPLE DESCRIPTION=Japan AIST/NIMC Database- Spectrum MS-IW-2878
##NAMES=HP
##CAS NAME=Ethanethioic acid S-tert-butyl ester
##MOLFORM=C6H12OS
##CAS REGISTRY NO=999-90-6
##MP= -300
##BP= -300
##MW= 132
##$RETENTION INDEX=834
##$CONDENSED SPECTRUM=NO
##NPOINTS= 53
##XYDATA=(XY..XY) 1 
    14          2
    15         20
    26          3
    27         31
    28         13
    29        188
    30          4
    32          3
    33          1
    34          2
    37          2
    38          5
    39         62
    40          9
    41        347
    42         21
    43        321
    44          9
    45         28
    46          3
    47         11
    49          9
    50          3
    51          4
    52          1
    53          7
    54          1
    55         34
    56         60
    57        999
    58         50
    59         33
    60         14
    61          7
    69          1
    71          2
    73          1
    74          3
    75         73
    76         31
    77         22
    78          2
    87          4
    88         10
    89          6
    90          7
    98          1
    99         55
   100          4
   117          1
   132        123
   133          9
   134          6