##TITLE=Library Entry 9929
##JCAMP-DX=Revision 4.10 
##DATA TYPE=MASS SPECTRUM
##SAMPLE DESCRIPTION=Chemical Concepts
##NAMES=HP
##CAS NAME=7-Methyloctane-2,4-dione, enol form
##MOLFORM=C9H16O2
##CAS REGISTRY NO=999-05-3
##MP= -300
##BP= -300
##MW= 156
##$RETENTION INDEX=0
##$CONDENSED SPECTRUM=NO
##NPOINTS= 78
##XYDATA=(XY..XY) 1 
    14         12
    15         78
    16          4
    17          9
    18         34
    19          1
    26         13
    27        196
    28        161
    29        176
    30          5
    31         45
    32         28
    37          1
    38          8
    39        123
    40         22
    41        197
    42         59
    43        999
    44         25
    45          9
    47          1
    48          3
    50          3
    51          7
    52          3
    53         22
    54          5
    55         90
    56         21
    57         46
    58         77
    59         11
    60          0
    61          2
    62          1
    63          1
    65          2
    66          1
    67         15
    68          2
    69         47
    70         10
    71         63
    72         75
    73          4
    77          3
    78          0
    79          3
    80          3
    81         39
    82          3
    83         11
    84         12
    85        741
    86         34
    87          4
    91          1
    93          1
    95         14
    96          1
    97          8
    98          2
    99         22
   100        494
   101         31
   102          2
   111          2
   113         72
   114          4
   123          5
   127          2
   141         14
   142          1
   155          0
   156         17
   157          3