##TITLE=Library Entry 24631
##JCAMP-DX=Revision 4.10 
##DATA TYPE=MASS SPECTRUM
##SAMPLE DESCRIPTION=D.HENNEBERG, MAX-PLANCK INSTITUTE, MULHEIM, WEST GERMAN
Y
##NAMES=HP
##CAS NAME=Butane, 1-(1-methylpropoxy)-
##MOLFORM=C8H18O
##CAS REGISTRY NO=999-65-5
##MP= -300
##BP= -300
##MW= 130
##$RETENTION INDEX=0
##$CONDENSED SPECTRUM=NO
##NPOINTS= 43
##XYDATA=(XY..XY) 1 
    25          2
    26          9
    27         95
    29        223
    30          7
    31         27
    38          3
    39         56
    40          1
    41        370
    42         24
    43         79
    44          7
    45        946
    46         21
    47          1
    49          0
    50          1
    51          3
    52          0
    53         10
    54          5
    55         62
    56         67
    57        999
    58         45
    59        166
    60          5
    69          2
    71          2
    72          4
    73         28
    74          0
    75          1
    83         20
    84          0
    85          0
    87         16
   100          1
   101        186
   102         11
   115          4
   130          1