##TITLE=Library Entry 28129
##JCAMP-DX=Revision 4.10 
##DATA TYPE=MASS SPECTRUM
##SAMPLE DESCRIPTION=Japan AIST/NIMC Database- Spectrum MS-NW- 375
##NAMES=HP
##CAS NAME=Chlormequat chloride
##MOLFORM=C5H13Cl2N
##CAS REGISTRY NO=999-81-5
##MP= -300
##BP= -300
##MW= 157
##$RETENTION INDEX=0
##$CONDENSED SPECTRUM=NO
##NPOINTS= 84
##XYDATA=(XY..XY) 1 
    12          2
    13          6
    14         14
    15        193
    16          2
    24          6
    25          2
    26         15
    27         63
    28         83
    29         30
    30         93
    31          1
    35         41
    36        260
    37         11
    38         84
    39         11
    40         16
    41         36
    42        271
    43        159
    44        213
    45         74
    46          1
    47         38
    48         17
    49         56
    50        630
    51         19
    52        205
    53          4
    54         17
    55         30
    56        117
    57         58
    58        999
    59         77
    60          2
    61          3
    62          9
    63         21
    64          3
    65          7
    66          1
    67          4
    68          8
    69          3
    70         85
    71        130
    72         62
    73          2
    77          3
    78          5
    79          4
    80          3
    81          4
    82         18
    83          5
    84          6
    85          4
    88          1
    89          2
    90          3
    91          5
    92          1
    93          1
    94          3
    95          2
    96          3
    97         14
    98          4
    99          6
   100          1
   101          1
   103          1
   104          2
   105          5
   106         16
   107         46
   108          8
   109         14
   110          2
   111          2