##TITLE=Library Entry 3866
##JCAMP-DX=Revision 4.10 
##DATA TYPE=MASS SPECTRUM
##SAMPLE DESCRIPTION=NIST Mass Spectrometry Data Center
##NAMES=HP
##CAS NAME=Diallyl maleate
##MOLFORM=C10H12O4
##CAS REGISTRY NO=999-21-3
##MP= -300
##BP= -300
##MW= 196
##$RETENTION INDEX=1283
##$CONDENSED SPECTRUM=NO
##NPOINTS= 62
##XYDATA=(XY..XY) 1 
    15          7
    25          2
    26         70
    27         89
    29         52
    30          3
    31         11
    37          6
    38         18
    39        269
    40         32
    41        999
    42         70
    43         25
    44         10
    45         21
    51          1
    52          1
    53         31
    54        129
    55         84
    56         15
    57         62
    58          3
    65          8
    66          7
    67         30
    68         13
    69         19
    70          7
    71         31
    72          3
    79          5
    80         19
    81         13
    82         81
    83         22
    84          3
    85          1
    93          3
    94          3
    95          4
    96          2
    97         14
    99        860
   100         44
   101          6
   107          1
   109          1
   110          1
   111         15
   112         13
   113          1
   122          3
   123          1
   124          1
   127          1
   137          1
   138          1
   139        105
   140         51
   141          5