##TITLE=Library Entry 18977
##JCAMP-DX=Revision 4.10 
##DATA TYPE=MASS SPECTRUM
##SAMPLE DESCRIPTION=NIST Mass Spectrometry Data Center, 1998.
##NAMES=HP
##CAS NAME=2-Propenoic acid, 2-propenyl ester
##MOLFORM=C6H8O2
##CAS REGISTRY NO=999-55-3
##MP= -300
##BP= -300
##MW= 112
##$RETENTION INDEX=738
##$CONDENSED SPECTRUM=NO
##NPOINTS= 46
##XYDATA=(XY..XY) 1 
    14          1
    15          3
    25          4
    26         34
    27        136
    28          9
    29         27
    30          2
    31          8
    36          1
    37          8
    38         18
    39        130
    40         20
    41        146
    42          9
    43          6
    44          3
    45          4
    50          1
    51          1
    52          1
    53         13
    54          8
    55        999
    56         59
    57         54
    58          2
    65          2
    66         12
    67         50
    68         14
    69          4
    70         17
    71          1
    73         14
    82          1
    83         13
    84         11
    85          2
    94          2
    95          2
    97         31
    98          2
   111          7
   112          1