##TITLE=Library Entry 36115
##JCAMP-DX=Revision 4.10 
##DATA TYPE=MASS SPECTRUM
##SAMPLE DESCRIPTION=Chemical Concepts
##NAMES=HP
##CAS NAME=1,3-Dioxan-4-one, 2-heptyl-6-methyl
##MOLFORM=C12H22O3
##CAS REGISTRY NO=99902-24-6
##MP= -300
##BP= -300
##MW= 214
##$RETENTION INDEX=0
##$CONDENSED SPECTRUM=NO
##NPOINTS= 108
##XYDATA=(XY..XY) 1 
    26          3
    27         52
    28          4
    29         72
    30          1
    31          8
    37          0
    38          1
    39         34
    40          9
    41        145
    42        113
    43        117
    44         40
    45         95
    46          1
    47          0
    50          0
    51          1
    52          0
    53          6
    54          6
    55        104
    56         32
    57         94
    58          9
    59          5
    60          1
    65          1
    66          2
    67         20
    68         14
    69        999
    70         34
    71         15
    72          2
    73          4
    74          0
    75          0
    77          0
    78          0
    79          1
    80          0
    81         15
    82         14
    83         16
    84         29
    85         12
    86          4
    87         71
    88          5
    89          0
    93          0
    94          0
    95          6
    96          1
    97          2
    98          2
    99          4
   100          2
   101          0
   102          0
   103          1
   104          0
   105          1
   107          1
   108          0
   109          8
   110          8
   111         45
   112          4
   113          0
   114          0
   115        368
   116         14
   117          1
   125          1
   126          0
   127         26
   128          6
   129         80
   130         26
   131          2
   138          0
   139          0
   140          0
   141          0
   142          0
   143          5
   144          0
   145          0
   149          0
   150          0
   153          0
   154          0
   155          0
   156          0
   157          0
   160          0
   168          0
   169          0
   170          0
   171          0
   172          0
   185          0
   213          0
   214          0
   215          0