##TITLE=Library Entry 27831
##JCAMP-DX=Revision 4.10 
##DATA TYPE=MASS SPECTRUM
##SAMPLE DESCRIPTION=G.S. KING, CHEM. PATHOL. DEP., QUEEN CHARLOTTE'S HOSP,
 LONDON, U
##NAMES=HP
##CAS NAME=2-Dimethylamino-3'-methoxyacetophenone
##MOLFORM=C11H15NO2
##CAS REGISTRY NO=99985-55-4
##MP= -300
##BP= -300
##MW= 193
##$RETENTION INDEX=0
##$CONDENSED SPECTRUM=NO
##NPOINTS= 35
##XYDATA=(XY..XY) 1 
    41         24
    42        312
    43         64
    44         12
    50         32
    51         32
    52         12
    53         12
    56         24
    57         44
    58        999
    59        124
    62         24
    63         92
    64        104
    65         24
    74         12
    75         12
    76         24
    77        124
    78         32
    79         12
    80         12
    82         12
    91         24
    92        112
    93         12
   107         52
   108         12
   121         44
   122         12
   135         32
   150         12
   193         32
   194         12